!Mini-Circuits Laboratory
!S-Parameters
!Model: ZFL-1000LN+
!Run / Lot / Date Code: AP170764 / NA / NA
!Fixture: NA, Pressing Arm: NA
!Network Analyzer: ENA E5071C - 4 ports;  Serial number: 71354
!Date: 11/3/2017 at 11:01:22 AM
!S/N: Unit# 1
!Calibrated with 85052D 3.5mm Calkit. Applied 15V
# Hz  S  dB  R  50
!Frequency    S11 dB        S11 Deg       S21 dB        S21 Deg       S12 dB        S12 Deg       S22 dB        S22 Deg       
9000          -0.2733222    -34.5521367   -5.7865223    -95.8876679   -83.4087519   -34.8876920   -0.4422030    -33.4088713   
10000         -0.4415461    -37.7116740   -2.5881543    -102.7957312  -71.2783341   -17.9440129   -0.6293871    -36.7884459   
20000         -2.4543354    -71.6791805   15.4825175    -172.4557304  -62.4901044   -147.1304164  -2.8704884    -71.1112631   
30000         -5.6870353    -98.4740330   21.8284209    135.8135710   -58.6013511   155.0904335   -6.2654140    -96.7380731   
40000         -9.2129212    -115.7127183  24.1466666    102.6342042   -56.8391109   108.9888723   -9.8124736    -112.6664506  
50000         -12.3254157   -126.3626493  25.0960676    81.2837032    -54.3476229   87.5721955    -12.9472323   -121.6114276  
60000         -15.0749242   -133.5976042  25.5344281    67.0145961    -55.2844604   78.3410589    -15.6204819   -127.8731163  
70000         -17.4643023   -138.6179353  25.7614941    56.8292020    -51.7008812   63.2715526    -17.8974643   -132.3103593  
80000         -19.4935274   -142.7431877  25.8857636    49.2094991    -54.0346573   59.2045403    -19.9326430   -135.4353312  
90000         -21.2807752   -146.1067160  25.9588729    43.2857053    -54.1389837   64.1472661    -21.6118012   -137.2028245  
100000        -22.8285169   -148.3928741  26.0037784    38.5448500    -51.7455266   44.8661663    -23.1611800   -137.5945932  
200000        -33.4513830   -171.5251794  26.0425039    17.6587950    -52.9295282   20.5179636    -33.2523437   -150.2357833  
300000        -40.1717287   145.4539911   26.0162614    10.6671874    -51.3855908   30.9098896    -41.9542047   -173.4582995  
400000        -44.2846009   137.1957731   25.9637902    6.8435820     -53.2348746   21.0944849    -43.8712841   -169.3720558  
500000        -43.6030275   109.9392533   25.9334431    4.5323627     -52.7226356   7.4932793     -46.6937631   155.2920375   
600000        -42.4168317   87.7196357    25.9081344    2.8649889     -51.4215123   3.3818069     -47.2643006   118.6110860   
700000        -41.5489383   79.4622787    25.8841369    1.5812144     -51.5487822   -3.3156596    -46.9660838   99.1681907    
800000        -40.4294043   71.4369357    25.8648815    0.5112355     -53.1488890   4.6275648     -45.3451572   87.5261209    
900000        -39.6463750   65.5553032    25.8476097    -0.3809761    -53.2475123   3.8647191     -44.3352134   74.1743710    
1000000       -39.1209229   60.3345636    25.8280801    -1.1753789    -53.0377449   -4.5872421    -43.4528249   68.5538050    
2000000       -36.0523321   37.5964120    25.7161701    -6.6085285    -51.5674234   -24.8733321   -39.1666969   44.4360924    
3000000       -34.6622599   28.1078006    25.6468589    -10.6411744   -53.0181090   -9.0308248    -37.0137652   29.6185823    
4000000       -33.6878260   20.2597185    25.6072296    -14.3566762   -55.6945188   -7.4082455    -36.5409669   22.1196214    
5000000       -33.1776630   13.0315407    25.5725456    -17.9088424   -50.3120809   2.5441584     -36.2631060   14.0784369    
6000000       -32.6791711   6.6008135     25.5501552    -21.4201760   -50.1975564   -10.0481282   -35.8309270   8.2387675     
7000000       -32.4688211   2.3941740     25.5322105    -24.9001026   -51.6043351   -7.3211972    -35.5136220   4.6930379     
8000000       -32.4024161   -1.8640076    25.5158639    -28.3528487   -51.4496583   -37.3546412   -35.4841914   0.7281045     
9000000       -31.9579798   -7.0809347    25.5036734    -31.8222502   -51.1946661   -37.8354616   -35.1328615   -4.4173649    
10000000      -31.8110014   -11.0764645   25.4904827    -35.2804507   -52.4295650   -32.6562238   -35.1390783   -8.3948204    
50000000      -28.4491084   -130.2112907  25.3687049    -173.4702052  -52.1108248   -163.9918648  -32.7729953   -126.2135645  
100000000     -25.5146964   82.3811228    25.3122728    13.9481767    -51.7567863   23.3534359    -31.2165746   70.1247157    
150000000     -23.6763896   -88.7969992   25.3056966    -158.7875845  -52.2871818   -140.9149817  -28.1052879   -116.4670843  
200000000     -20.7192541   112.3980513   25.2992412    28.6390364    -52.4597418   51.8599300    -25.5544094   86.2236726    
250000000     -20.7487753   -55.0013715   25.3472377    -144.2803717  -52.0887988   -115.5853175  -26.6041073   -97.3783894   
300000000     -18.6180565   132.9919521   25.3315774    42.9446115    -52.0051380   77.3439317    -23.7132966   91.6139380    
350000000     -18.1879306   -31.9233124   25.3707767    -130.0606447  -51.9201558   -87.8989573   -25.8013304   -85.3154074   
400000000     -17.2056664   155.3386851   25.3516551    56.9834010    -52.2046037   102.6159394   -22.8771824   93.8089923    
450000000     -16.6063277   -9.5585775    25.3757015    -115.9818193  -51.3418107   -64.5682468   -24.8694760   -72.0935436   
500000000     -16.6274643   177.3121589   25.3691596    70.9850963    -51.4900416   127.8125519   -22.4741395   95.4449074    
550000000     -15.6379786   9.2011886     25.3614349    -102.0006154  -51.4450789   -41.8766133   -23.9076504   -62.4352247   
600000000     -16.1725325   -160.2876674  25.3744093    84.8706372    -51.2763040   150.4377753   -22.1344091   95.0881394    
650000000     -15.3145113   27.2661982    25.3482319    -88.1354939   -50.9535634   -17.0236719   -22.2034251   -57.7717629   
700000000     -15.7778041   -140.0184579  25.3674022    98.7336428    -50.9929486   177.0261088   -21.4738441   101.2161738   
750000000     -15.1114801   44.8110041    25.3181354    -74.3590674   -50.5795964   8.2877218     -20.3445899   -53.0418632   
800000000     -15.4173309   -119.1843860  25.3537140    112.5430245   -50.6147808   -160.0619614  -20.5116663   112.2212671   
850000000     -15.3879566   62.3413920    25.2857979    -60.7518220   -50.5467801   29.8180923    -18.5437022   -47.0286963   
900000000     -15.1208607   -100.0929796  25.3355317    126.0790061   -50.0092933   -136.0037826  -19.2181397   126.3383099   
950000000     -15.9087383   81.1447413    25.2414009    -47.3046532   -49.6195846   53.9687213    -16.9453212   -38.0600893   
1000000000    -15.1541936   -82.6711768   25.3001345    139.4147989   -49.7373499   -116.1623397  -17.9292653   142.3627858   
1050000000    -16.6465851   98.2332885    25.1820725    -34.1016924   -49.5927632   74.4071422    -15.4960678   -28.2776882   
1100000000    -14.9867856   -67.2206355   25.2203963    152.5206436   -49.6329508   -93.7703112   -16.5332816   159.5568984   
1150000000    -17.3182287   119.8836871   25.0833565    -21.0349034   -49.2624160   95.1735912    -14.3154628   -16.3070277   
1200000000    -15.4994281   -52.9758736   25.1152371    165.5330207   -49.2333912   -72.7688801   -15.1206674   177.3748214   
1250000000    -17.7618474   138.8196321   24.9283463    -8.1453837    -49.1305541   112.9988960   -13.4942206   -3.5681816    
1300000000    -15.9605847   -39.2303334   24.9689605    178.4828279   -48.6708281   -51.6289732   -13.7832956   -166.0208420  
1350000000    -17.9784860   159.0049274   24.7383634    4.7139446     -48.7476189   136.2657192   -12.9226336   10.5467691    
1400000000    -16.9236748   -25.7181219   24.7744917    -168.7080896  -48.5011410   -33.6737678   -12.5841387   -150.0960709  
1450000000    -17.8008054   176.8953765   24.5155282    17.5607646    -48.5061363   157.4630955   -12.6939842   26.3306145    
1500000000    -18.1856186   -11.2703262   24.5222170    -156.0798839  -48.2235325   -14.1432180   -11.6997304   -135.9184258  
1550000000    -17.6161859   -167.0914670  24.2556727    30.3159039    -48.2962048   174.0942203   -12.4838833   42.1446415    
1600000000    -19.9539022   6.1278947     24.1958192    -143.3603472  -48.1062431   4.0258842     -10.9304715   -122.2099129  
1650000000    -17.5419844   -154.7509882  23.9427364    42.9771231    -47.8750104   -166.3378507  -12.4018451   59.6153699    
1700000000    -21.4333556   30.2181414    23.8236262    -130.5569922  -48.1763087   25.0396786    -10.4548791   -109.5374699  
1750000000    -18.0833803   -139.8762289  23.5425087    55.8462063    -47.8644263   -146.7813029  -12.1115511   77.7452198    
1800000000    -23.5283161   57.8188559    23.4331085    -117.7386751  -47.9266742   43.4479566    -10.2295439   -96.5130694   
1850000000    -18.9645658   -130.0174531  23.1082309    68.9148631    -47.4017346   -128.3756996  -11.8373743   94.9938709    
1900000000    -24.5661869   88.6280739    22.9727444    -104.9943691  -47.7719836   60.6630584    -10.1768655   -84.1426416   
1950000000    -20.5424810   -122.6718246  22.6374661    82.0967626    -47.6797370   -111.0016330  -11.3597547   111.7185917   
2000000000    -24.4778917   113.9154870   22.4516541    -92.0099471   -47.6856915   78.0249613    -10.3030946   -70.9621731   
2050000000    -22.8115245   -117.6121995  22.1061365    95.2015553    -47.6200709   -94.1159453   -10.7954999   127.3158376   
2100000000    -24.7321492   130.6526105   21.8964574    -78.6187615   -47.7023775   95.6278340    -10.5302772   -55.9568481   
2150000000    -24.7476436   -117.4502217  21.4996556    108.4155637   -47.6815421   -74.0881354   -10.3547568   142.2424351   
2200000000    -24.5149627   142.0538073   21.3027308    -65.0476267   -47.8420218   113.7078638   -10.7599421   -39.4067660   
2250000000    -27.3544240   -122.0184638  20.8278006    121.9681593   -47.7065476   -55.5807337   -9.9700147    157.0434780   
2300000000    -24.2719180   146.0276665   20.6732974    -51.1156216   -47.8942752   132.8203427   -10.9780614   -20.0804217   
2350000000    -30.7493490   -117.4837997  20.1991233    136.0189705   -48.0645353   -37.9478652   -9.9095462    172.9954722   
2400000000    -24.5086680   153.2892910   19.9848856    -37.0599255   -47.9901779   152.3660241   -11.1959161   -0.7672144    
2450000000    -37.7599946   -129.3487935  19.5695186    150.0573153   -47.8342002   -18.5868681   -9.8670987    -170.9782692  
2500000000    -25.7324846   156.8102834   19.2582989    -22.6385144   -47.6654516   170.6825455   -11.2913445   20.8182257    
2550000000    -45.6061041   -173.6546866  18.9152802    164.0822311   -48.2959422   -0.3341616    -10.1536264   -153.5958483  
2600000000    -26.1795839   159.8910020   18.5266134    -8.0090782    -48.2331063   -170.2803314  -11.4000179   42.5229122    
2650000000    -36.3879730   92.9088576    18.2063805    178.5303729   -47.8722196   18.4486490    -10.6233408   -135.4642143  
2700000000    -28.2840430   165.5300313   17.7894259    6.5889472     -48.0042459   -150.4606435  -11.4553884   64.1350160    
2750000000    -30.3783561   96.6303741    17.4820491    -166.6470982  -47.9402553   37.8591963    -11.3159584   -116.0097864  
2800000000    -31.9242473   167.7618393   17.0235497    21.0716006    -47.9935088   -130.4916293  -11.5075883   85.4142664    
2850000000    -26.3281431   107.1496463   16.7698731    -151.5836556  -48.1925476   55.3954951    -12.1686392   -94.5073564   
2900000000    -41.2680526   104.1071435   16.2201986    35.6738046    -48.3842145   -114.3959350  -11.6732552   106.5296646   
2950000000    -24.6025547   119.2383377   16.0307094    -136.6992472  -48.5561659   76.3859649    -13.2221253   -68.8781737   
3000000000    -29.8260895   41.0263880    15.4124071    50.4043620    -48.6241023   -92.9766671   -12.2612275   127.8684267   
3050000000    -24.2394264   141.0467584   15.2046397    -122.0189741  -48.5562055   93.8668958    -14.2635804   -41.1838214   
3100000000    -23.6945879   52.2922718    14.5898276    65.1657782    -48.8458114   -76.4665153   -13.2085372   150.2871943   
3150000000    -25.0437893   162.5346448   14.2660941    -107.1343321  -48.9605969   115.9941719   -15.2592368   -10.5078667   
3200000000    -20.0729927   60.6529872    13.6957657    80.0443907    -48.8687474   -57.8926276   -14.8520363   175.1157487   
3250000000    -26.0743225   -155.1097478  13.2667420    -92.0014942   -49.2884758   130.8179603   -16.0132680   20.7032379    
3300000000    -17.5857046   74.4603826    12.7081284    95.1366513    -49.3642592   -37.2749502   -17.0278752   -153.1006036  
3350000000    -24.1202752   -101.5150610  12.1989726    -76.7135606   -49.5910940   151.9567073   -16.9037812   51.3306528    
3400000000    -15.9223444   92.5191680    11.5893921    110.6379806   -50.4301853   -18.2819884   -18.6045239   -112.2494621  
3450000000    -20.6539494   -58.3668550   11.0454235    -60.7983829   -50.4416700   170.1701350   -17.6366043   86.5139350    
3500000000    -15.3031943   110.1242940   10.3749088    126.8058421   -50.8621344   2.3187909     -18.5792797   -65.8340502   
3550000000    -17.2449793   -35.1082418   9.7827655     -44.1955472   -51.8999365   -169.9856560  -17.9153593   124.3873137   
3600000000    -14.6499510   132.2273141   9.0489882     143.9407327   -52.1893670   22.7422069    -17.0699922   -26.1727752   
3650000000    -14.7103642   -13.0933236   8.4275230     -26.3690067   -52.5458383   -144.5944144  -17.3765859   162.1299345   
3700000000    -14.3149781   157.8439741   7.6940528     162.4571954   -53.1598071   45.8535118    -15.3728885   4.1972140     
3750000000    -13.1964854   7.1534345     7.0640524     -7.0777647    -53.5073812   -120.7895443  -16.0515993   -163.2934123  
3800000000    -13.9370974   -176.2344515  6.3851768     -177.7088961  -54.0219822   72.2342011    -14.1077602   31.1283277    
3850000000    -11.9920107   26.8462836    5.7560593     13.6373904    -55.4196599   -95.6683815   -14.7897776   -133.8350172  
3900000000    -13.4909076   -147.1946752  5.1716744     -156.6150879  -54.9793325   96.5860115    -13.2224554   55.9961389    
3950000000    -11.3450996   46.3654191    4.6194576     35.4478753    -56.2791978   -70.6507901   -13.7176355   -107.2611310  
4000000000    -12.7370048   -119.1494325  4.0750085     -134.7051589  -56.4319775   128.0688350   -12.5909155   80.0751598    
4050000000    -10.9808004   67.3960137    3.6523238     57.9233736    -57.3362250   -47.3663348   -12.7858007   -81.2604163   
4100000000    -11.9656492   -91.2200027   3.1304543     -112.0199540  -56.9051483   153.7984826   -12.2911114   105.5106735   
4150000000    -11.0388478   89.3635217    2.8430123     80.4493239    -57.3008687   -14.2328323   -12.1264460   -57.2587073   
4200000000    -11.1122197   -66.2817294   2.3065624     -89.2197664   -57.1786902   175.9438482   -11.9069240   131.5684006   
4250000000    -11.1492185   115.0138063   2.1218769     103.3982961   -59.6488148   12.4709398    -11.5771442   -32.8971446   
4300000000    -10.6013006   -41.0600355   1.6471628     -66.4032382   -58.1575263   -150.9564959  -11.5957850   158.1122872   
4350000000    -11.4293605   141.5664143   1.4917415     126.4538209   -58.6909784   39.3919112    -11.1733824   -9.1832545    
4400000000    -10.1474072   -17.9596088   1.0486773     -43.7118330   -59.1483601   -123.7967344  -11.1197241   -175.5942040  
4450000000    -11.4064718   171.9181062   0.9376767     149.9668348   -58.9466684   70.6088938    -10.8601202   14.4594070    
4500000000    -10.1173476   6.5043201     0.5388537     -20.6868258   -59.4130584   -89.8466719   -10.5064972   -149.9258473  
4550000000    -11.2885121   -158.9730257  0.5072489     173.5302072   -58.6237419   96.4588123    -10.6531214   39.1741201    
4600000000    -10.1578685   31.4064413    0.1526761     2.7185885     -59.9582088   -60.3946976   -9.9153648    -126.3726939  
4650000000    -11.0490065   -130.3860427  0.1820352     -162.7286954  -59.2690506   128.3612912   -10.3517113   64.9385620    
4700000000    -10.2902032   57.2818698    -0.0285965    26.4218837    -59.7845616   -33.4188767   -9.5708438    -103.8694068  
4750000000    -10.7543020   -103.5916000  0.0152489     -139.1923143  -60.3801417   164.1361799   -9.9714025    89.2375609    
4800000000    -10.2941937   83.9595556    -0.0434799    49.9975474    -60.4123235   -8.1311056    -9.2270727    -81.5700514   
4850000000    -10.4519301   -76.6153646   0.0419898     -115.8123159  -59.9185040   178.5801311   -9.5919099    114.2211243   
4900000000    -10.2678884   111.1046750   0.1220186     72.8175312    -61.3869303   18.9526994    -9.1887664    -59.3911118   
4950000000    -10.0775532   -49.7790839   0.2087783     -93.4161727   -59.9845302   -142.7148505  -9.1829859    137.1017602   
5000000000    -10.2324876   140.4644627   0.3569810     95.0701136    -60.2113635   42.3623485    -9.1747942    -35.4000245   
5050000000    -10.0057561   -21.9830465   0.5465585     -72.0350569   -61.8286161   -126.4537310  -9.0498706    159.7471039   
5100000000    -10.4623122   167.8343339   0.7083414     115.9950132   -60.0429575   74.8335903    -9.2829123    -11.9515086   
5150000000    -9.8577305    2.5979269     0.8701298     -52.1425476   -60.5548927   -97.4179575   -8.9980001    -178.8532528  
5200000000    -10.3536840   -163.2673571  1.0159841     136.0415137   -61.4987156   105.7596731   -9.3722069    12.7023240    
5250000000    -9.9627815    28.3698608    1.2385005     -32.8436960   -60.5294029   -70.7210208   -9.2365586    -157.5341346  
5300000000    -10.2442510   -136.4948538  1.2630477     154.7059887   -59.3059328   128.0212716   -9.3509060    36.3395876    
5350000000    -9.9641976    54.3067335    1.5643106     -13.8568125   -60.3045866   -49.1816091   -9.5718399    -134.1344078  
5400000000    -9.9618424    -108.7158730  1.4402292     172.8086694   -60.2317773   144.9107622   -9.5767876    60.0985145    
5450000000    -10.0274064   84.6691870    1.8691114     4.6956184     -60.2740296   -26.4077058   -10.0220289   -111.3355425  
5500000000    -10.3942891   -80.2238285   1.6569637     -169.3098606  -59.2600439   170.4150868   -9.7417374    84.0933335    
5550000000    -10.2788179   109.9090157   2.1205467     22.1430926    -59.8676157   -0.5784171    -10.8027128   -87.1953362   
5600000000    -10.4493654   -53.0212938   1.7895572     -152.0422955  -58.9383977   -174.4897914  -9.9894014    105.8231809   
5650000000    -10.4884394   135.7335781   2.2245566     39.4684321    -59.9241237   18.5030057    -11.4381091   -60.9169992   
5700000000    -10.4704873   -25.2967809   1.9220967     -134.8821521  -60.6224722   -145.3786386  -10.5125257   127.8822086   
5750000000    -10.7616257   160.2168569   2.2419628     56.4954177    -60.2320268   38.7925937    -12.0585747   -33.9035654   
5800000000    -9.7592151    2.6971662     1.9313410     -117.7983538  -59.9233913   -138.2042418  -11.3037657   149.2054925   
5850000000    -11.3081119   -163.9889049  2.2571345     74.3890338    -60.4301575   54.8576486    -12.4176961   -7.6018140    
5900000000    -10.3022924   28.8557099    2.0876015     -100.7914039  -60.8329290   -116.4389175  -12.3608126   172.1712668   
5950000000    -11.6070326   -135.5344261  2.2618223     91.0776717    -59.5449403   76.4583571    -12.8409468   17.7825966    
6000000000    -10.4785407   54.9238727    2.1558248     -83.7920945   -60.1330192   -89.2417983   -13.7632715   -164.1967943  
6050000000    -11.7975667   -105.3994314  2.2322223     107.4895030   -59.7239189   89.7093703    -13.2340194   40.5317833    
6100000000    -10.7815184   80.1259038    2.1994435     -66.8186054   -59.7176717   -77.9458679   -15.2955790   -137.5248375  
6150000000    -11.6992771   -76.7277340   2.1474613     123.7246799   -59.4517979   110.0633296   -13.8538016   61.4183435    
6200000000    -10.9061959   106.7752955   2.1768914     -49.7648863   -59.5285522   -67.6232826   -16.6851030   -107.0674247  
6250000000    -11.3583813   -45.6041758   2.0677641     140.3781733   -58.2015259   130.1146077   -15.0892206   80.6994292    
6300000000    -11.4574947   135.2007779   2.1531796     -32.7561157   -58.8235633   -46.9833725   -17.6084193   -76.5982453   
6350000000    -11.0667489   -17.1110640   2.0174396     156.8604044   -57.4575775   136.4841064   -16.9263952   99.9519134    
6400000000    -11.9819872   165.5694472   2.0936420     -15.9765327   -57.8823173   -32.9725135   -18.2393588   -49.9640480   
6450000000    -11.0267272   10.2822915    1.9797774     173.0946684   -57.3414163   156.2353876   -19.3503919   119.5978064   
6500000000    -12.4320880   -165.4128708  2.0035696     0.4140152     -56.9136117   -9.1601463    -18.7830675   -26.3088107   
6550000000    -10.7149981   35.7189801    1.8656693     -170.8744375  -56.9497923   171.6068219   -22.9718222   144.2204205   
6600000000    -12.4871248   -132.5072237  1.8863370     17.0394674    -57.0711351   2.1436654     -20.1322841   -7.1826330    
6650000000    -10.6054272   61.8942487    1.7412985     -154.7900909  -57.6373855   -169.6478518  -27.6178578   172.4830536   
6700000000    -12.3772675   -98.2626023   1.7806232     33.6847131    -56.7245442   18.3842984    -21.8868881   6.4648193     
6750000000    -10.9339315   86.2437613    1.6665829     -138.9119895  -56.4161366   -150.2780539  -33.0376007   -146.7843807  
6800000000    -11.6795020   -69.5489810   1.6190770     49.8214028    -57.4773041   39.4133935    -23.8859917   14.0586935    
6850000000    -11.0320269   113.3264543   1.5520120     -122.9006395  -56.4694002   -134.8932976  -33.7138887   -87.5214156   
6900000000    -11.0211710   -40.1976983   1.4593944     66.0444964    -57.6544185   63.5121885    -27.1966736   10.8217623    
6950000000    -11.3995585   141.4560899   1.4794074     -106.9782125  -56.2769414   -119.2637550  -34.7882486   -61.3714062   
7000000000    -10.5468035   -14.6717303   1.2979068     81.7657596    -56.7328246   82.4302836    -29.0253104   -3.2062018    
7050000000    -11.7304994   168.3619064   1.3682212     -91.6097048   -57.2590023   -102.0356048  -36.9689394   -62.7789802   
7100000000    -9.9776215    6.6564964     1.0494771     96.6500094    -58.2431972   92.9129378    -29.3399216   -18.9202385   
7150000000    -11.5289778   -163.3710737  1.0906178     -76.5556501   -57.6567838   -81.2341481   -38.6752173   -107.9960684  
7200000000    -9.4950674    27.4814209    0.5885004     110.9825376   -60.6779265   116.5041940   -28.2251476   -23.1824354   
7250000000    -11.2160957   -134.3463187  0.3459206     -61.4109152   -61.3523442   -48.6283195   -31.8152832   -132.6250786  
7300000000    -9.9603732    46.1376623    -0.7545885    129.2948748   -63.2677797   172.7547619   -28.6333079   -23.5749115   
7350000000    -11.6101059   -102.8220415  -0.0526533    -31.9886807   -56.1629094   13.0981940    -28.7324907   -130.9095466  
7400000000    -10.3552131   75.2696089    0.9109324     152.5526926   -56.1452092   -177.5527102  -33.2743139   -12.6133985   
7450000000    -9.9761346    -75.9410331   1.1287933     -21.6191958   -55.7256212   6.2196989     -25.6880342   -123.8122087  
7500000000    -10.0883212   97.5192611    1.1333120     162.5876380   -56.5176706   -164.2719978  -36.6475198   38.7793256    
7550000000    -9.1490926    -56.2945968   0.9308842     -9.7584066    -57.5964509   16.8336250    -24.3709457   -115.0855261  
7600000000    -9.9187202    119.7521513   0.9660851     175.2923997   -58.1232232   -144.6955984  -36.1192956   98.3476698    
7650000000    -8.5078480    -36.8725025   0.5829259     3.2622485     -59.4460258   33.8645754    -23.9519864   -109.7448220  
7700000000    -9.7476032    143.5134137   0.7136085     -171.1558183  -62.5679140   -130.3183565  -32.1469425   127.0160844   
7750000000    -8.0357593    -17.4088465   0.1878141     16.4604941    -61.3327607   63.4288655    -24.2951880   -104.3279443  
7800000000    -9.6918474    167.6006753   0.3869298     -157.5056840  -64.4275291   -98.0349681   -30.3563549   142.3301921   
7850000000    -7.6546267    -0.3348605    -0.2973172    29.3898963    -68.5087834   94.2248158    -25.0247076   -102.9019004  
7900000000    -9.1919644    -166.8872685  -0.0975855    -143.3761347  -70.0072750   -24.5591223   -29.5624638   147.6915569   
7950000000    -7.4843608    18.7598990    -0.7914788    42.7203281    -65.3888838   172.0877140   -26.1607054   -105.2543166  
8000000000    -8.8141828    -142.9046286  -0.6708305    -129.2445922  -63.4618414   35.5224540    -30.4717618   139.1794083   
8050000000    -7.3259323    36.9336265    -1.3719742    56.3073899    -62.6608052   -131.8709414  -26.3349320   -109.3011409  
8100000000    -8.1758650    -118.0521758  -1.3933324    -114.2153683  -59.1387027   61.1076316    -29.3148508   115.5072113   
8150000000    -7.3697141    56.6616270    -1.9329785    70.9502196    -57.8024608   -109.2593073  -26.0271468   -108.0734045  
8200000000    -7.4669128    -94.1040474   -2.1879823    -98.5222541   -57.1986765   86.8868914    -25.5682692   98.1145760    
8250000000    -7.6551704    79.2628640    -2.4102161    86.7284395    -56.0140144   -102.8795322  -24.8292614   -96.1902037   
8300000000    -6.9699504    -73.1433299   -2.9416463    -83.0958246   -55.6512414   95.8501867    -22.0097388   97.5032870    
8350000000    -7.8269366    102.7982825   -2.9045760    102.9625002   -54.5234588   -87.8594987   -23.6587748   -75.1614710   
8400000000    -6.4705246    -52.6536018   -3.7046696    -67.3427360   -54.5667504   111.3473624   -19.7827646   98.0193516    
8450000000    -7.9105645    130.0454698   -3.3285798    120.0846813   -53.5410859   -73.9938609   -20.3428803   -58.5187900   
8500000000    -6.1757812    -32.9020188   -4.3939117    -52.0150263   -53.9384495   117.2457626   -18.3811874   112.1448830   
