! CKC33C224KCGAC
! Temp = 25?C, Bias = 0VDC, Series
! KEMET S2P Model
# HZ S DB R 50
100 -0.00083356816 -0.79195356 -37.18872 89.20609 -37.18872 89.20609 -0.00083356816 -0.79195356 
104.71285 -0.00091382273 -0.82927376 -36.7888 89.16877 -36.7888 89.16877 -0.00091382273 -0.82927376 
109.64781 -0.0010023626 -0.86834925 -36.38889 89.12971 -36.38889 89.12971 -0.0010023626 -0.86834925 
114.815346 -0.00109867 -0.9092689 -35.988987 89.08878 -35.988987 89.08878 -0.00109867 -0.9092689 
120.226425 -0.0012042988 -0.9521147 -35.589092 89.045944 -35.589092 89.045944 -0.0012042988 -0.9521147 
125.89252 -0.0013197669 -0.9969753 -35.18921 89.00108 -35.18921 89.00108 -0.0013197669 -0.9969753 
131.82564 -0.0014471462 -1.0439534 -34.789337 88.95412 -34.789337 88.95412 -0.0014471462 -1.0439534 
138.03847 -0.0015859192 -1.0931376 -34.38947 88.90493 -34.38947 88.90493 -0.0015859192 -1.0931376 
144.544 -0.0017391935 -1.144644 -33.989624 88.853424 -33.989624 88.853424 -0.0017391935 -1.144644 
151.35616 -0.0019059341 -1.1985751 -33.58979 88.79949 -33.58979 88.79949 -0.0019059341 -1.1985751 
158.48933 -0.0020902846 -1.2550404 -33.189976 88.743034 -33.189976 88.743034 -0.0020902846 -1.2550404 
165.9587 -0.0022912105 -1.3141693 -32.79018 88.68391 -32.79018 88.68391 -0.0022912105 -1.3141693 
173.78009 -0.0025123379 -1.376085 -32.3904 88.62199 -32.3904 88.62199 -0.0025123379 -1.376085 
181.97008 -0.002754186 -1.4409103 -31.99064 88.55717 -31.99064 88.55717 -0.002754186 -1.4409103 
190.54607 -0.0030198644 -1.5087887 -31.590908 88.489296 -31.590908 88.489296 -0.0030198644 -1.5087887 
199.52621 -0.0033104105 -1.5798569 -31.191198 88.41823 -31.191198 88.41823 -0.0033104105 -1.5798569 
208.92958 -0.0036289354 -1.6542717 -30.791515 88.34381 -30.791515 88.34381 -0.0036289354 -1.6542717 
218.77612 -0.003979067 -1.7321905 -30.391867 88.265884 -30.391867 88.265884 -0.003979067 -1.7321905 
229.08672 -0.0043623634 -1.8137704 -29.992252 88.18431 -29.992252 88.18431 -0.0043623634 -1.8137704 
239.88336 -0.0047819368 -1.8991888 -29.592667 88.09889 -29.592667 88.09889 -0.0047819368 -1.8991888 
251.1887 -0.005242973 -1.98863 -29.193127 88.00946 -29.193127 88.00946 -0.005242973 -1.98863 
263.02686 -0.0057475506 -2.0822651 -28.793633 87.915825 -28.793633 87.915825 -0.0057475506 -2.0822651 
275.4229 -0.006301377 -2.1803124 -28.394186 87.81777 -28.394186 87.81777 -0.006301377 -2.1803124 
288.40317 -0.0069091236 -2.2829566 -27.994795 87.715126 -27.994795 87.715126 -0.0069091236 -2.2829566 
301.99518 -0.0075739115 -2.3904295 -27.59546 87.60766 -27.59546 87.60766 -0.0075739115 -2.3904295 
316.22775 -0.008303009 -2.5029433 -27.19619 87.49515 -27.19619 87.49515 -0.008303009 -2.5029433 
331.1311 -0.00910265 -2.6207435 -26.79699 87.377335 -26.79699 87.377335 -0.00910265 -2.6207435 
346.73682 -0.0099795945 -2.7440696 -26.397867 87.25401 -26.397867 87.25401 -0.0099795945 -2.7440696 
363.078 -0.010940084 -2.8731806 -25.998829 87.1249 -25.998829 87.1249 -0.010940084 -2.8731806 
380.18933 -0.011993999 -3.00835 -25.599882 86.98973 -25.599882 86.98973 -0.011993999 -3.00835 
398.1071 -0.013148628 -3.1498508 -25.201036 86.84823 -25.201036 86.84823 -0.013148628 -3.1498508 
416.86926 -0.01441387 -3.2979772 -24.802303 86.7001 -24.802303 86.7001 -0.01441387 -3.2979772 
436.51593 -0.01580118 -3.4530363 -24.403687 86.545044 -24.403687 86.545044 -0.01580118 -3.4530363 
457.0883 -0.01732203 -3.6153488 -24.005207 86.38272 -24.005207 86.38272 -0.01732203 -3.6153488 
478.63016 -0.018988425 -3.7852497 -23.606874 86.21282 -23.606874 86.21282 -0.018988425 -3.7852497 
501.1873 -0.020814978 -3.9630876 -23.208698 86.03499 -23.208698 86.03499 -0.020814978 -3.9630876 
524.8075 -0.022817362 -4.149224 -22.810703 85.84884 -22.810703 85.84884 -0.022817362 -4.149224 
549.5409 -0.025011275 -4.344041 -22.412895 85.65403 -22.412895 85.65403 -0.025011275 -4.344041 
575.43994 -0.027415043 -4.5479293 -22.015303 85.450134 -22.015303 85.450134 -0.027415043 -4.5479293 
602.5596 -0.030050136 -4.7613044 -21.617937 85.23676 -21.617937 85.23676 -0.030050136 -4.7613044 
630.9573 -0.032937035 -4.98459 -21.220825 85.01348 -21.220825 85.01348 -0.032937035 -4.98459 
660.69336 -0.0360999 -5.218237 -20.82399 84.77982 -20.82399 84.77982 -0.0360999 -5.218237 
691.8308 -0.03956608 -5.46271 -20.427454 84.53535 -20.427454 84.53535 -0.03956608 -5.46271 
724.4358 -0.043362476 -5.7184873 -20.031252 84.279564 -20.031252 84.279564 -0.043362476 -5.7184873 
758.57776 -0.047522314 -5.98608 -19.635406 84.01197 -19.635406 84.01197 -0.047522314 -5.98608 
794.3284 -0.052078407 -6.2660017 -19.239962 83.73204 -19.239962 83.73204 -0.052078407 -6.2660017 
831.7639 -0.057068374 -6.5587916 -18.844954 83.43925 -18.844954 83.43925 -0.057068374 -6.5587916 
870.9637 -0.06253365 -6.8650093 -18.45042 83.133026 -18.45042 83.133026 -0.06253365 -6.8650093 
912.0109 -0.06851737 -7.185243 -18.056402 82.8128 -18.056402 82.8128 -0.06851737 -7.185243 
954.9926 -0.075069204 -7.520079 -17.662956 82.47795 -17.662956 82.47795 -0.075069204 -7.520079 
1000 -0.082241625 -7.8701463 -17.270128 82.12789 -17.270128 82.12789 -0.082241625 -7.8701463 
1047.1285 -0.0900749 -8.235262 -16.878832 81.762764 -16.878832 81.762764 -0.0900749 -8.235262 
1096.4781 -0.09864515 -8.61683 -16.48827 81.38119 -16.48827 81.38119 -0.09864515 -8.61683 
1148.1534 -0.10802218 -9.015514 -16.098516 80.9825 -16.098516 80.9825 -0.10802218 -9.015514 
1202.2643 -0.118277885 -9.431999 -15.7096405 80.56601 -15.7096405 80.56601 -0.118277885 -9.431999 
1258.9252 -0.1294926 -9.867 -15.321726 80.131 -15.321726 80.131 -0.1294926 -9.867 
1318.2563 -0.14175318 -10.321221 -14.934855 79.67678 -14.934855 79.67678 -0.14175318 -10.321221 
1380.3846 -0.15515521 -10.795415 -14.549122 79.20258 -14.549122 79.20258 -0.15515521 -10.795415 
1445.4401 -0.16979954 -11.290288 -14.164637 78.70769 -14.164637 78.70769 -0.16979954 -11.290288 
1513.5615 -0.18579656 -11.806611 -13.781504 78.19136 -13.781504 78.19136 -0.18579656 -11.806611 
1584.8933 -0.2032656 -12.345143 -13.399841 77.652824 -13.399841 77.652824 -0.2032656 -12.345143 
1659.587 -0.22233605 -12.906626 -13.019782 77.09133 -13.019782 77.09133 -0.22233605 -12.906626 
1737.8009 -0.24314615 -13.491822 -12.64146 76.50613 -12.64146 76.50613 -0.24314615 -13.491822 
1819.7008 -0.2658456 -14.101471 -12.265032 75.89647 -12.265032 75.89647 -0.2658456 -14.101471 
1905.4606 -0.29059407 -14.73631 -11.890651 75.26162 -11.890651 75.26162 -0.29059407 -14.73631 
1995.2621 -0.31756425 -15.397062 -11.51849 74.60086 -11.51849 74.60086 -0.31756425 -15.397062 
2089.296 -0.34693822 -16.084412 -11.148735 73.9135 -11.148735 73.9135 -0.34693822 -16.084412 
2187.7612 -0.37891328 -16.79902 -10.78158 73.19888 -10.78158 73.19888 -0.37891328 -16.79902 
2290.8672 -0.41369706 -17.541504 -10.417233 72.45638 -10.417233 72.45638 -0.41369706 -17.541504 
2398.8335 -0.4515127 -18.31244 -10.055916 71.68544 -10.055916 71.68544 -0.4515127 -18.31244 
2511.887 -0.49259228 -19.112316 -9.697867 70.885544 -9.697867 70.885544 -0.49259228 -19.112316 
2630.2686 -0.5371841 -19.941597 -9.343328 70.05626 -9.343328 70.05626 -0.5371841 -19.941597 
2754.229 -0.58554757 -20.80063 -8.992564 69.19722 -8.992564 69.19722 -0.58554757 -20.80063 
2884.0317 -0.6379548 -21.689688 -8.645841 68.30814 -8.645841 68.30814 -0.6379548 -21.689688 
3019.952 -0.6946902 -22.60893 -8.303447 67.388885 -8.303447 67.388885 -0.6946902 -22.60893 
3162.2776 -0.756045 -23.5584 -7.9656725 66.4394 -7.9656725 66.4394 -0.756045 -23.5584 
3311.311 -0.8223243 -24.538029 -7.632823 65.45976 -7.632823 65.45976 -0.8223243 -24.538029 
3467.3682 -0.8938393 -25.547564 -7.305211 64.4502 -7.305211 64.4502 -0.8938393 -25.547564 
3630.78 -0.97090924 -26.586662 -6.983151 63.41109 -6.983151 63.41109 -0.97090924 -26.586662 
3801.8933 -1.0538545 -27.654758 -6.6669683 62.342976 -6.6669683 62.342976 -1.0538545 -27.654758 
3981.0708 -1.1430007 -28.751148 -6.3569856 61.246563 -6.3569856 61.246563 -1.1430007 -28.751148 
4168.693 -1.2386694 -29.874928 -6.053526 60.122765 -6.053526 60.122765 -1.2386694 -29.874928 
4365.159 -1.3411806 -31.025013 -5.7569036 58.972656 -5.7569036 58.972656 -1.3411806 -31.025013 
4570.883 -1.4508462 -32.200127 -5.4674425 57.797516 -5.4674425 57.797516 -1.4508462 -32.200127 
4786.302 -1.5679698 -33.398792 -5.1854353 56.59883 -5.1854353 56.59883 -1.5679698 -33.398792 
5011.873 -1.6928385 -34.61933 -4.9111767 55.378265 -4.9111767 55.378265 -1.6928385 -34.61933 
5248.0747 -1.8257225 -35.859905 -4.644934 54.137665 -4.644934 54.137665 -1.8257225 -35.859905 
5495.4087 -1.9668734 -37.11848 -4.3869553 52.87907 -4.3869553 52.87907 -1.9668734 -37.11848 
5754.3994 -2.1165152 -38.39285 -4.1374693 51.604668 -4.1374693 51.604668 -2.1165152 -38.39285 
6025.5957 -2.2748451 -39.680668 -3.8966703 50.31682 -3.8966703 50.31682 -2.2748451 -39.680668 
6309.5728 -2.4420292 -40.979443 -3.6647284 49.018013 -3.6647284 49.018013 -2.4420292 -40.979443 
6606.9336 -2.6182022 -42.286583 -3.4417725 47.71084 -3.4417725 47.71084 -2.6182022 -42.286583 
6918.308 -2.803458 -43.59941 -3.2279027 46.39798 -3.2279027 46.39798 -2.803458 -43.59941 
7244.358 -2.99786 -44.91518 -3.0231774 45.082172 -3.0231774 45.082172 -2.99786 -44.91518 
7585.778 -3.2014322 -46.231144 -2.8276155 43.76617 -2.8276155 43.76617 -3.2014322 -46.231144 
7943.284 -3.4141507 -47.544487 -2.6412072 42.452785 -2.6412072 42.452785 -3.4141507 -47.544487 
8317.64 -3.6359646 -48.852493 -2.4638925 41.14474 -2.4638925 41.14474 -3.6359646 -48.852493 
8709.637 -3.8667774 -50.152454 -2.2955797 39.844738 -2.2955797 39.844738 -3.8667774 -50.152454 
9120.109 -4.106467 -51.441776 -2.1361408 38.555367 -2.1361408 38.555367 -4.106467 -51.441776 
9549.927 -4.354865 -52.717953 -1.9854128 37.279144 -1.9854128 37.279144 -4.354865 -52.717953 
10000 -4.611782 -53.97862 -1.8432022 36.01843 -1.8432022 36.01843 -4.611782 -53.97862 
10471.285 -4.876995 -55.221554 -1.7092881 34.775436 -1.7092881 34.775436 -4.876995 -55.221554 
10964.781 -5.1502566 -56.444702 -1.5834225 33.55224 -1.5834225 33.55224 -5.1502566 -56.444702 
11481.535 -5.4313 -57.64619 -1.4653374 32.350693 -1.4653374 32.350693 -5.4313 -57.64619 
12022.643 -5.7198358 -58.824303 -1.3547473 31.172516 -1.3547473 31.172516 -5.7198358 -58.824303 
12589.251 -6.015566 -59.977585 -1.2513497 30.019176 -1.2513497 30.019176 -6.015566 -59.977585 
13182.563 -6.318177 -61.1047 -1.1548359 28.891998 -1.1548359 28.891998 -6.318177 -61.1047 
13803.839 -6.6273546 -62.204548 -1.0648842 27.792082 -1.0648842 27.792082 -6.6273546 -62.204548 
14454.393 -6.942771 -63.276203 -0.9811748 26.720354 -0.9811748 26.720354 -6.942771 -63.276203 
15135.606 -7.2641044 -64.318924 -0.90338105 25.677553 -0.90338105 25.677553 -7.2641044 -64.318924 
15848.925 -7.591033 -65.33216 -0.8311827 24.664242 -0.8311827 24.664242 -7.591033 -65.33216 
16595.861 -7.923236 -66.3155 -0.7642594 23.680817 -0.7642594 23.680817 -7.923236 -66.3155 
17378 -8.260404 -67.26872 -0.70229894 22.727512 -0.70229894 22.727512 -8.260404 -67.26872 
18197.018 -8.602237 -68.19172 -0.64499587 21.804426 -0.64499587 21.804426 -8.602237 -68.19172 
19054.617 -8.948428 -69.084496 -0.5920596 20.911552 -0.5920596 20.911552 -8.948428 -69.084496 
19952.633 -9.298696 -69.94722 -0.54319984 20.04873 -0.54319984 20.04873 -9.298696 -69.94722 
20892.969 -9.652769 -70.78014 -0.4981473 19.215708 -0.4981473 19.215708 -9.652769 -70.78014 
21877.623 -10.0103855 -71.58361 -0.45663774 18.412127 -0.45663774 18.412127 -10.0103855 -71.58361 
22908.684 -10.371302 -72.35806 -0.4184233 17.637556 -0.4184233 17.637556 -10.371302 -72.35806 
23988.336 -10.735275 -73.104004 -0.3832695 16.8915 -0.3832695 16.8915 -10.735275 -73.104004 
25118.87 -11.102084 -73.82198 -0.3509512 16.173403 -0.3509512 16.173403 -11.102084 -73.82198 
26302.684 -11.47152 -74.51261 -0.32125902 15.482637 -0.32125902 15.482637 -11.47152 -74.51261 
27542.291 -11.843387 -75.17656 -0.29399624 14.818556 -0.29399624 14.818556 -11.843387 -75.17656 
28840.318 -12.217494 -75.8145 -0.26897693 14.180473 -0.26897693 14.180473 -12.217494 -75.8145 
30199.518 -12.593675 -76.427155 -0.24602862 13.567672 -0.24602862 13.567672 -12.593675 -76.427155 
31622.777 -12.971764 -77.01524 -0.22498792 12.979419 -0.22498792 12.979419 -12.971764 -77.01524 
33113.11 -13.351611 -77.57953 -0.20570545 12.414974 -0.20570545 12.414974 -13.351611 -77.57953 
34673.684 -13.733076 -78.12075 -0.18804103 11.873583 -0.18804103 11.873583 -13.733076 -78.12075 
36307.8 -14.116031 -78.639656 -0.17186508 11.3544855 -0.17186508 11.3544855 -14.116031 -78.639656 
38018.934 -14.500352 -79.137024 -0.15705597 10.856933 -0.15705597 10.856933 -14.500352 -79.137024 
39810.707 -14.885932 -79.613594 -0.14350308 10.380167 -0.14350308 10.380167 -14.885932 -79.613594 
41686.926 -15.272663 -80.07011 -0.13110392 9.923455 -0.13110392 9.923455 -15.272663 -80.07011 
43651.57 -15.660456 -80.50728 -0.119761676 9.486057 -0.119761676 9.486057 -15.660456 -80.50728 
45708.805 -16.049215 -80.92584 -0.10938887 9.067261 -0.10938887 9.067261 -16.049215 -80.92584 
47862.992 -16.438868 -81.32652 -0.09990615 8.666356 -0.09990615 8.666356 -16.438868 -81.32652 
50118.703 -16.829334 -81.70997 -0.091237344 8.282656 -0.091237344 8.282656 -16.829334 -81.70997 
52480.72 -17.220547 -82.07688 -0.083314165 7.915488 -0.083314165 7.915488 -17.220547 -82.07688 
54954.06 -17.612444 -82.427895 -0.07607504 7.5641956 -0.07607504 7.5641956 -17.612444 -82.427895 
57544.023 -18.004976 -82.76367 -0.06945931 7.228136 -0.06945931 7.228136 -18.004976 -82.76367 
60255.99 -18.398075 -83.0848 -0.06341756 6.906709 -0.06341756 6.906709 -18.398075 -83.0848 
63095.76 -18.791697 -83.39189 -0.057897013 6.59931 -0.057897013 6.59931 -18.791697 -83.39189 
66069.37 -19.185797 -83.68551 -0.052856565 6.3053584 -0.052856565 6.3053584 -19.185797 -83.68551 
69183.125 -19.580338 -83.96623 -0.04825165 6.0242944 -0.04825165 6.0242944 -19.580338 -83.96623 
72443.62 -19.975283 -84.23458 -0.044048794 5.75558 -0.044048794 5.75558 -19.975283 -84.23458 
75857.78 -20.370594 -84.49109 -0.040209968 5.4986973 -0.040209968 5.4986973 -20.370594 -84.49109 
79432.84 -20.766241 -84.73626 -0.036706097 5.253143 -0.036706097 5.253143 -20.766241 -84.73626 
83176.39 -21.162197 -84.97055 -0.033507146 5.018434 -0.033507146 5.018434 -21.162197 -84.97055 
87096.37 -21.558434 -85.19444 -0.030586809 4.7941084 -0.030586809 4.7941084 -21.558434 -85.19444 
91201.09 -21.954933 -85.40839 -0.027922468 4.579717 -0.027922468 4.579717 -21.954933 -85.40839 
95499.266 -22.351662 -85.61279 -0.025488446 4.374835 -0.025488446 4.374835 -22.351662 -85.61279 
100000 -22.748608 -85.80809 -0.023267416 4.179047 -0.023267416 4.179047 -22.748608 -85.80809 
104712.85 -23.145754 -85.99465 -0.021241056 3.9919615 -0.021241056 3.9919615 -23.145754 -85.99465 
109647.81 -23.543081 -86.172874 -0.019391583 3.8131967 -0.019391583 3.8131967 -23.543081 -86.172874 
114815.34 -23.940578 -86.34311 -0.017703323 3.6423893 -0.017703323 3.6423893 -23.940578 -86.34311 
120226.42 -24.338224 -86.505714 -0.016162695 3.4791918 -0.016162695 3.4791918 -24.338224 -86.505714 
125892.516 -24.736013 -86.66101 -0.014758213 3.3232694 -0.014758213 3.3232694 -24.736013 -86.66101 
131825.64 -25.133932 -86.809326 -0.013474255 3.1743014 -0.013474255 3.1743014 -25.133932 -86.809326 
138038.39 -25.531971 -86.95096 -0.012303509 3.0319831 -0.012303509 3.0319831 -25.531971 -86.95096 
144543.92 -25.93012 -87.08621 -0.011236598 2.8960197 -0.011236598 2.8960197 -25.93012 -87.08621 
151356.06 -26.328373 -87.215355 -0.010262598 2.7661307 -0.010262598 2.7661307 -26.328373 -87.215355 
158489.25 -26.72672 -87.33865 -0.009372669 2.6420467 -0.009372669 2.6420467 -26.72672 -87.33865 
165958.61 -27.125158 -87.45637 -0.00856212 2.5235107 -0.00856212 2.5235107 -27.125158 -87.45637 
173779.98 -27.523674 -87.56874 -0.007821083 2.410277 -0.007821083 2.410277 -27.523674 -87.56874 
181970.19 -27.922289 -87.67602 -0.007146949 2.3021045 -0.007146949 2.3021045 -27.922289 -87.67602 
190546.16 -28.320957 -87.77839 -0.006530378 2.1987782 -0.006530378 2.1987782 -28.320957 -87.77839 
199526.31 -28.719696 -87.87611 -0.005968248 2.1000757 -0.005968248 2.1000757 -28.719696 -87.87611 
208929.7 -29.118507 -87.96936 -0.0054548504 2.0057924 -0.0054548504 2.0057924 -29.118507 -87.96936 
218776.23 -29.517376 -88.058334 -0.004987069 1.9157315 -0.004987069 1.9157315 -29.517376 -88.058334 
229086.83 -29.916313 -88.14323 -0.0045607514 1.8297038 -0.0045607514 1.8297038 -29.916313 -88.14323 
239883.36 -30.315308 -88.22421 -0.0041717486 1.7475294 -0.0041717486 1.7475294 -30.315308 -88.22421 
251188.7 -30.714361 -88.30147 -0.0038169478 1.6690367 -0.0038169478 1.6690367 -30.714361 -88.30147 
263026.84 -31.113476 -88.37514 -0.0034916834 1.5940604 -0.0034916834 1.5940604 -31.113476 -88.37514 
275422.9 -31.512646 -88.4454 -0.003195952 1.522444 -0.003195952 1.522444 -31.512646 -88.4454 
288403.2 -31.91188 -88.51228 -0.0029266428 1.4540359 -0.0029266428 1.4540359 -31.91188 -88.51228 
301995.2 -32.311172 -88.57594 -0.0026811648 1.3886936 -0.0026811648 1.3886936 -32.311172 -88.57594 
316227.78 -32.71053 -88.636604 -0.0024579617 1.3262788 -0.0024579617 1.3262788 -32.71053 -88.636604 
331131.1 -33.109947 -88.69435 -0.002252889 1.2666616 -0.002252889 1.2666616 -33.109947 -88.69435 
346736.8 -33.50943 -88.74934 -0.0020674993 1.2097152 -0.0020674993 1.2097152 -33.50943 -88.74934 
363078 -33.908985 -88.80167 -0.0018976488 1.155321 -0.0018976488 1.155321 -33.908985 -88.80167 
380189.34 -34.308617 -88.85145 -0.0017423003 1.1033635 -0.0017423003 1.1033635 -34.308617 -88.85145 
398107.1 -34.70832 -88.89879 -0.0016014536 1.0537342 -0.0016014536 1.0537342 -34.70832 -88.89879 
416869.28 -35.108105 -88.94378 -0.0014725187 1.006328 -0.0014725187 1.006328 -35.108105 -88.94378 
436515.7 -35.50798 -88.98652 -0.0013554951 0.961045 -0.0013554951 0.961045 -35.50798 -88.98652 
457088.03 -35.90795 -89.02707 -0.0012477932 0.91779023 -0.0012477932 0.91779023 -35.90795 -89.02707 
478629.9 -36.30802 -89.06556 -0.0011504486 0.8764723 -0.0011504486 0.8764723 -36.30802 -89.06556 
501187 -36.708206 -89.10203 -0.0010613896 0.837004 -0.0010613896 0.837004 -36.708206 -89.10203 
524807.2 -37.108505 -89.13657 -0.0009806158 0.79930246 -0.0009806158 0.79930246 -37.108505 -89.13657 
549540.56 -37.508934 -89.16924 -0.00090709166 0.76328796 -0.00090709166 0.76328796 -37.508934 -89.16924 
575440.25 -37.90951 -89.20012 -0.0008397814 0.7288839 -0.0008397814 0.7288839 -37.90951 -89.20012 
602559.9 -38.310238 -89.22926 -0.00077868486 0.696019 -0.00077868486 0.696019 -38.310238 -89.22926 
630957.6 -38.711124 -89.256714 -0.0007227663 0.6646235 -0.0007227663 0.6646235 -38.711124 -89.256714 
660693.7 -39.11219 -89.28253 -0.0006709902 0.6346313 -0.0006709902 0.6346313 -39.11219 -89.28253 
691831.2 -39.513462 -89.30677 -0.00062542746 0.6059785 -0.00062542746 0.6059785 -39.513462 -89.30677 
724436.2 -39.914944 -89.32948 -0.00058400707 0.578605 -0.00058400707 0.578605 -39.914944 -89.32948 
758577.75 -40.31666 -89.350685 -0.0005456934 0.5524532 -0.0005456934 0.5524532 -40.31666 -89.350685 
794328.44 -40.718643 -89.37042 -0.0005104863 0.52746767 -0.0005104863 0.52746767 -40.718643 -89.37042 
831763.94 -41.120907 -89.38874 -0.00047942135 0.50359595 -0.00047942135 0.50359595 -41.120907 -89.38874 
870963.7 -41.523476 -89.40565 -0.00045042753 0.4807873 -0.00045042753 0.4807873 -41.523476 -89.40565 
912010.94 -41.926388 -89.42119 -0.00042454025 0.45899382 -0.00042454025 0.45899382 -41.926388 -89.42119 
954992.6 -42.329674 -89.43537 -0.000400724 0.43816948 -0.000400724 0.43816948 -42.329674 -89.43537 
1000000 -42.733364 -89.44822 -0.00037897885 0.4182703 -0.00037897885 0.4182703 -42.733364 -89.44822 
1047128.5 -43.137505 -89.45974 -0.0003593047 0.39925432 -0.0003593047 0.39925432 -43.137505 -89.45974 
1096478.1 -43.542137 -89.46993 -0.0003417015 0.38108125 -0.0003417015 0.38108125 -43.542137 -89.46993 
1148153.5 -43.947304 -89.47881 -0.0003261693 0.3637129 -0.0003261693 0.3637129 -43.947304 -89.47881 
1202264.2 -44.353065 -89.48638 -0.00031270814 0.34711236 -0.00031270814 0.34711236 -44.353065 -89.48638 
1258925.1 -44.759476 -89.49263 -0.00029924695 0.33124495 -0.00029924695 0.33124495 -44.759476 -89.49263 
1318256.4 -45.166595 -89.497536 -0.00028785673 0.31607684 -0.00028785673 0.31607684 -45.166595 -89.497536 
1380383.9 -45.574497 -89.50108 -0.00027750203 0.30157623 -0.00027750203 0.30157623 -45.574497 -89.50108 
1445439.2 -45.98326 -89.50326 -0.00026921823 0.28771234 -0.00026921823 0.28771234 -45.98326 -89.50326 
1513560.6 -46.392967 -89.50401 -0.000259899 0.27445608 -0.000259899 0.27445608 -46.392967 -89.50401 
1584892.5 -46.803707 -89.503334 -0.00025265073 0.2617792 -0.00025265073 0.2617792 -46.803707 -89.503334 
1659586.1 -47.215584 -89.50116 -0.0002464379 0.2496552 -0.0002464379 0.2496552 -47.215584 -89.50116 
1737799.9 -47.628716 -89.49745 -0.00024126057 0.23805828 -0.00024126057 0.23805828 -47.628716 -89.49745 
1819701.9 -48.043243 -89.49213 -0.00023711871 0.22696379 -0.00023711871 0.22696379 -48.043243 -89.49213 
1905461.6 -48.459267 -89.485146 -0.00023297683 0.21634877 -0.00023297683 0.21634877 -48.459267 -89.485146 
1995263.2 -48.87696 -89.47639 -0.00022883498 0.20619057 -0.00022883498 0.20619057 -48.87696 -89.47639 
2089297 -49.296494 -89.46579 -0.00022676404 0.19646773 -0.00022676404 0.19646773 -49.296494 -89.46579 
2187762.5 -49.71805 -89.453224 -0.0002246931 0.18715975 -0.0002246931 0.18715975 -49.71805 -89.453224 
2290868.2 -50.141827 -89.43857 -0.00022262218 0.17824702 -0.00022262218 0.17824702 -50.141827 -89.43857 
2398833.5 -50.568066 -89.4217 -0.00022158673 0.16971058 -0.00022158673 0.16971058 -50.568066 -89.4217 
2511887 -50.997013 -89.402435 -0.00022055124 0.16153246 -0.00022055124 0.16153246 -50.997013 -89.402435 
2630268.5 -51.428963 -89.3806 -0.00022055124 0.15369537 -0.00022055124 0.15369537 -51.428963 -89.3806 
2754229 -51.864204 -89.35601 -0.00022055124 0.14618286 -0.00022055124 0.14618286 -51.864204 -89.35601 
2884031.8 -52.303104 -89.3284 -0.00022055124 0.13897897 -0.00022055124 0.13897897 -52.303104 -89.3284 
3019951.8 -52.746048 -89.29751 -0.00022262218 0.13206847 -0.00022262218 0.13206847 -52.746048 -89.29751 
3162277.8 -53.19347 -89.26304 -0.00022365764 0.12543677 -0.00022365764 0.12543677 -53.19347 -89.26304 
3311311 -53.645844 -89.22463 -0.00022572858 0.119069934 -0.00022572858 0.119069934 -53.645844 -89.22463 
3467368.2 -54.103733 -89.18188 -0.0002277995 0.112954475 -0.0002277995 0.112954475 -54.103733 -89.18188 
3630780 -54.567734 -89.134346 -0.00022987043 0.107077464 -0.00022987043 0.107077464 -54.567734 -89.134346 
3801893.2 -55.038548 -89.08145 -0.00023297683 0.101426475 -0.00023297683 0.101426475 -55.038548 -89.08145 
3981070.8 -55.516945 -89.0226 -0.00023608323 0.0959896 -0.00023608323 0.0959896 -55.516945 -89.0226 
4168692.8 -56.003815 -88.95707 -0.00023918966 0.09075533 -0.00023918966 0.09075533 -56.003815 -88.95707 
4365157 -56.50016 -88.88398 -0.00024333151 0.08571261 -0.00024333151 0.08571261 -56.50016 -88.88398 
4570880.5 -57.00712 -88.80236 -0.0002474734 0.0808508 -0.0002474734 0.0808508 -57.00712 -88.80236 
4786299 -57.526012 -88.711 -0.00025161525 0.07615963 -0.00025161525 0.07615963 -57.526012 -88.711 
5011870 -58.05835 -88.60847 -0.0002567926 0.07162919 -0.0002567926 0.07162919 -58.05835 -88.60847 
5248072 -58.60588 -88.49304 -0.00026196995 0.06724988 -0.00026196995 0.06724988 -58.60588 -88.49304 
5495406 -59.170647 -88.36265 -0.00026818278 0.06301246 -0.00026818278 0.06301246 -59.170647 -88.36265 
5754402.5 -59.75504 -88.21473 -0.0002733601 0.05890789 -0.0002733601 0.05890789 -59.75504 -88.21473 
6025599 -60.361855 -88.046104 -0.00028060842 0.0549277 -0.00028060842 0.0549277 -60.361855 -88.046104 
6309576 -60.994453 -87.85278 -0.00028682128 0.05106335 -0.00028682128 0.05106335 -60.994453 -87.85278 
6606937 -61.656857 -87.629684 -0.00029406958 0.047306713 -0.00029406958 0.047306713 -61.656857 -87.629684 
6918312 -62.35396 -87.37026 -0.0003013179 0.043649796 -0.0003013179 0.043649796 -62.35396 -87.37026 
7244362 -63.091755 -87.06588 -0.00030960172 0.040084887 -0.00030960172 0.040084887 -63.091755 -87.06588 
7585777.5 -63.877712 -86.70501 -0.00031685003 0.036604505 -0.00031685003 0.036604505 -63.877712 -86.70501 
7943284 -64.7213 -86.27174 -0.0003261693 0.03320121 -0.0003261693 0.03320121 -64.7213 -86.27174 
8317639 -65.63472 -85.74373 -0.0003354886 0.029867861 -0.0003354886 0.029867861 -65.63472 -85.74373 
8709637 -66.63406 -85.08832 -0.00034584344 0.02659739 -0.00034584344 0.02659739 -66.63406 -85.08832 
9120109 -67.74113 -84.25613 -0.00035516275 0.023382884 -0.00035516275 0.023382884 -67.74113 -84.25613 
9549926 -68.98637 -83.1687 -0.00036655302 0.020217547 -0.00036655302 0.020217547 -68.98637 -83.1687 
10000000 -70.41402 -81.693665 -0.00037794336 0.017094683 -0.00037794336 0.017094683 -70.41402 -81.693665 
10471285 -72.09134 -79.58972 -0.0003893337 0.014007689 -0.0003893337 0.014007689 -72.09134 -79.58972 
10964781 -74.126396 -76.36938 -0.00040175952 0.010950035 -0.00040175952 0.010950035 -74.126396 -76.36938 
11481535 -76.95455 -76.62693 -0.0002847503 0.007915362 -0.0002847503 0.007915362 -76.95455 -76.62693 
12022642 -80.736046 -68.47203 -0.0002930341 0.004896992 -0.0002930341 0.004896992 -80.736046 -68.47203 
12589251 -86.40927 -43.584038 -0.0003013179 0.0018886721 -0.0003013179 0.0018886721 -86.40927 -43.584038 
13182564 -87.83359 28.681574 -0.00030960172 -0.001115956 -0.00030960172 -0.001115956 -87.83359 28.681574 
13803838 -82.61146 60.353794 -0.00031788548 -0.003686663 -0.00031788548 -0.003686663 -82.61146 60.353794 
14454393 -78.62867 71.224525 -0.0003272048 -0.0063526942 -0.0003272048 -0.0063526942 -78.62867 71.224525 
15135607 -75.81574 76.127045 -0.0003365241 -0.009005248 -0.0003365241 -0.009005248 -75.81574 76.127045 
15848925 -73.67216 78.86996 -0.00034687892 -0.011648927 -0.00034687892 -0.011648927 -73.67216 78.86996 
16595861 -71.94604 80.6099 -0.0003572337 -0.0142882755 -0.0003572337 -0.0142882755 -71.94604 80.6099 
17378000 -70.50169 81.80604 -0.00036862402 -0.01692778 -0.00036862402 -0.01692778 -70.50169 81.80604 
18197018 -69.25899 82.67516 -0.0003800143 -0.019571932 -0.0003800143 -0.019571932 -69.25899 82.67516 
19054616 -68.16705 83.33256 -0.00039244015 -0.022225035 -0.00039244015 -0.022225035 -68.16705 83.33256 
19952632 -67.191605 83.84507 -0.0004059015 -0.02489155 -0.0004059015 -0.02489155 -67.191605 83.84507 
20892970 -66.30855 84.25412 -0.0004193628 -0.027575843 -0.0004193628 -0.027575843 -66.30855 84.25412 
21877624 -65.5003 84.586655 -0.00043385968 -0.03028226 -0.00043385968 -0.03028226 -65.5003 84.586655 
22908684 -64.75364 84.861046 -0.00044835656 -0.033015184 -0.00044835656 -0.033015184 -64.75364 84.861046 
23988336 -64.058426 85.090195 -0.00046388892 -0.035778984 -0.00046388892 -0.035778984 -64.058426 85.090195 
25118870 -63.406673 85.28339 -0.00048045686 -0.038578022 -0.00048045686 -0.038578022 -63.406673 85.28339 
26302684 -62.791992 85.44754 -0.0004970248 -0.041416712 -0.0004970248 -0.041416712 -62.791992 85.44754 
27542290 -62.20922 85.58791 -0.0005146283 -0.044299465 -0.0005146283 -0.044299465 -62.20922 85.58791 
28840318 -61.654106 85.70852 -0.0005343028 -0.047230758 -0.0005343028 -0.047230758 -61.654106 85.70852 
30199518 -61.123108 85.81252 -0.0005539774 -0.05021507 -0.0005539774 -0.05021507 -61.123108 85.81252 
31622776 -60.613266 85.902435 -0.000573652 -0.053256974 -0.000573652 -0.053256974 -60.613266 85.902435 
33113110 -60.12207 85.98024 -0.0005964332 -0.056361064 -0.0005964332 -0.056361064 -60.12207 85.98024 
34673680 -59.647377 86.04762 -0.00061817886 -0.059532013 -0.00061817886 -0.059532013 -59.647377 86.04762 
36307800 -59.187347 86.105896 -0.0006430312 -0.06277457 -0.0006430312 -0.06277457 -59.187347 86.105896 
38018932 -58.740383 86.15619 -0.00066684815 -0.06609354 -0.00066684815 -0.06609354 -58.740383 86.15619 
39810708 -58.3051 86.199425 -0.00069377164 -0.06949382 -0.00069377164 -0.06949382 -58.3051 86.199425 
41686930 -57.88029 86.23641 -0.00072069524 -0.07298045 -0.00072069524 -0.07298045 -57.88029 86.23641 
43651570 -57.4649 86.267784 -0.0007486545 -0.07655847 -0.0007486545 -0.07655847 -57.4649 86.267784 
45708804 -57.057976 86.294136 -0.00077868486 -0.08023314 -0.00077868486 -0.08023314 -57.057976 86.294136 
47862990 -56.658707 86.31595 -0.0008107864 -0.08400972 -0.0008107864 -0.08400972 -56.658707 86.31595 
50118700 -56.266346 86.33363 -0.00084392354 -0.08789372 -0.00084392354 -0.08789372 -56.266346 86.33363 
52480720 -55.880245 86.34755 -0.0008780964 -0.09189068 -0.0008780964 -0.09189068 -55.880245 86.34755 
54954060 -55.49981 86.35805 -0.0009143405 -0.09600636 -0.0009143405 -0.09600636 -55.49981 86.35805 
57544024 -55.12452 86.36536 -0.0009526559 -0.10024666 -0.0009526559 -0.10024666 -55.12452 86.36536 
60255988 -54.753914 86.36975 -0.000992007 -0.104617506 -0.000992007 -0.104617506 -54.753914 86.36975 
63095764 -54.387566 86.371445 -0.0010334294 -0.109125115 -0.0010334294 -0.109125115 -54.387566 86.371445 
66069372 -54.025093 86.37062 -0.0010769231 -0.11377587 -0.0010769231 -0.11377587 -54.025093 86.37062 
69183120 -53.66615 86.36744 -0.001122488 -0.11857636 -0.001122488 -0.11857636 -53.66615 86.36744 
72443620 -53.31043 86.36207 -0.0011701246 -0.123533316 -0.0011701246 -0.123533316 -53.31043 86.36207 
75857780 -52.95764 86.35461 -0.001220868 -0.12865372 -0.001220868 -0.12865372 -52.95764 86.35461 
79432840 -52.60754 86.34521 -0.001273683 -0.13394469 -0.001273683 -0.13394469 -52.60754 86.34521 
83176390 -52.259895 86.333954 -0.0013285695 -0.13941364 -0.0013285695 -0.13941364 -52.259895 86.333954 
87096370 -51.914482 86.32096 -0.0013865631 -0.14506829 -0.0013865631 -0.14506829 -51.914482 86.32096 
91201090 -51.571117 86.30628 -0.0014466282 -0.1509164 -0.0014466282 -0.1509164 -51.571117 86.30628 
95499260 -51.22963 86.29001 -0.001509283 -0.15696621 -0.001509283 -0.15696621 -51.22963 86.29001 
100000000 -50.889854 86.27221 -0.0015765986 -0.16322602 -0.0015765986 -0.16322602 -50.889854 86.27221 
104712970 -50.55164 86.25294 -0.0016470214 -0.16970482 -0.0016470214 -0.16970482 -50.55164 86.25294 
109647810 -50.214878 86.23224 -0.0017195161 -0.17641109 -0.0017195161 -0.17641109 -50.214878 86.23224 
114815470 -49.87941 86.21018 -0.0017961543 -0.18335474 -0.0017961543 -0.18335474 -49.87941 86.21018 
120226424 -49.545155 86.1868 -0.0018769354 -0.19054475 -0.0018769354 -0.19054475 -49.545155 86.1868 
125892650 -49.21199 86.16211 -0.0019608247 -0.19799179 -0.0019608247 -0.19799179 -49.21199 86.16211 
131825640 -48.879845 86.13618 -0.0020498927 -0.20570542 -0.0020498927 -0.20570542 -48.879845 86.13618 
138038530 -48.54859 86.10901 -0.0021420692 -0.21369718 -0.0021420692 -0.21369718 -48.54859 86.10901 
144543920 -48.2182 86.08063 -0.0022404606 -0.22197735 -0.0022404606 -0.22197735 -48.2182 86.08063 
151356220 -47.88856 86.05106 -0.0023419603 -0.23055816 -0.0023419603 -0.23055816 -47.88856 86.05106 
158489250 -47.55963 86.02033 -0.002449676 -0.23945074 -0.002449676 -0.23945074 -47.55963 86.02033 
165958800 -47.231327 85.98845 -0.0025615355 -0.24866825 -0.0025615355 -0.24866825 -47.231327 85.98845 
173779980 -46.903618 85.955414 -0.0026790933 -0.25822252 -0.0026790933 -0.25822252 -46.903618 85.955414 
181970180 -46.576416 85.92125 -0.0028033853 -0.26812804 -0.0028033853 -0.26812804 -46.576416 85.92125 
190545950 -46.249702 85.885956 -0.0029328577 -0.27839738 -0.0029328577 -0.27839738 -46.249702 85.885956 
199526320 -45.92341 85.84954 -0.003068547 -0.289046 -0.003068547 -0.289046 -45.92341 85.84954 
208929470 -45.597515 85.812 -0.0032114892 -0.30008766 -0.0032114892 -0.30008766 -45.597515 85.812 
218776240 -45.271957 85.77332 -0.0033611667 -0.3115388 -0.0033611667 -0.3115388 -45.271957 85.77332 
229086600 -44.946724 85.73352 -0.0035175798 -0.32341444 -0.0035175798 -0.32341444 -44.946724 85.73352 
239883360 -44.62175 85.69257 -0.0036833188 -0.3357325 -0.0036833188 -0.3357325 -44.62175 85.69257 
251188420 -44.297035 85.650475 -0.003857348 -0.34850886 -0.003857348 -0.34850886 -44.297035 85.650475 
263026850 -43.97251 85.607216 -0.00403915 -0.36176306 -0.00403915 -0.36176306 -43.97251 85.607216 
275422600 -43.648186 85.56277 -0.0042307973 -0.37551236 -0.0042307973 -0.37551236 -43.648186 85.56277 
288403170 -43.323994 85.51713 -0.004430737 -0.38977778 -0.004430737 -0.38977778 -43.323994 85.51713 
301994850 -42.999947 85.47026 -0.0046405224 -0.40457812 -0.0046405224 -0.40457812 -42.999947 85.47026 
316227780 -42.675976 85.42214 -0.0048622275 -0.419936 -0.0048622275 -0.419936 -42.675976 85.42214 
331131460 -42.352085 85.37274 -0.005094817 -0.43587255 -0.005094817 -0.43587255 -42.352085 85.37274 
346736830 -42.02825 85.322044 -0.005340364 -0.45241025 -0.005340364 -0.45241025 -42.02825 85.322044 
363078400 -41.704426 85.27 -0.005596796 -0.46957442 -0.005596796 -0.46957442 -41.704426 85.27 
380189340 -41.38061 85.216545 -0.005866706 -0.48738852 -0.005866706 -0.48738852 -41.38061 85.216545 
398107520 -41.056755 85.16165 -0.0061506126 -0.50588006 -0.0061506126 -0.50588006 -41.056755 85.16165 
416869280 -40.732864 85.10526 -0.0064505893 -0.5250749 -0.0064505893 -0.5250749 -40.732864 85.10526 
436516200 -40.408882 85.047325 -0.006764048 -0.5450028 -0.006764048 -0.5450028 -40.408882 85.047325 
457088030 -40.08481 84.98775 -0.007095135 -0.56569177 -0.007095135 -0.56569177 -40.08481 84.98775 
478630430 -39.760597 84.92645 -0.007442815 -0.5871751 -0.007442815 -0.5871751 -39.760597 84.92645 
501187000 -39.43625 84.863365 -0.007810719 -0.60948247 -0.007810719 -0.60948247 -39.43625 84.863365 
524807780 -39.111702 84.79838 -0.008197811 -0.63265073 -0.008197811 -0.63265073 -39.111702 84.79838 
549540600 -38.78696 84.73137 -0.008605652 -0.65671295 -0.008605652 -0.65671295 -38.78696 84.73137 
575440260 -38.461967 84.662224 -0.009035795 -0.6817087 -0.009035795 -0.6817087 -38.461967 84.662224 
602559200 -38.13672 84.590775 -0.009489801 -0.70767504 -0.009489801 -0.70767504 -38.13672 84.590775 
630957630 -37.811165 84.51685 -0.009970782 -0.7346543 -0.009970782 -0.7346543 -37.811165 84.51685 
660693000 -37.48529 84.44028 -0.010478746 -0.762688 -0.010478746 -0.762688 -37.48529 84.44028 
691831230 -37.159042 84.36081 -0.011016285 -0.79182315 -0.011016285 -0.79182315 -37.159042 84.36081 
724435400 -36.832417 84.2782 -0.011585999 -0.8221041 -0.011585999 -0.8221041 -36.832417 84.2782 
758577800 -36.50534 84.19217 -0.012188932 -0.85358346 -0.012188932 -0.85358346 -36.50534 84.19217 
794327550 -36.17783 84.10234 -0.012829755 -0.8863092 -0.012829755 -0.8863092 -36.17783 84.10234 
831763900 -35.849804 84.00838 -0.013512108 -0.92033875 -0.013512108 -0.92033875 -35.849804 84.00838 
870962750 -35.521267 83.90982 -0.0142380735 -0.9557257 -0.0142380735 -0.9557257 -35.521267 83.90982 
912010940 -35.162266 83.8194 -0.015023741 -0.9959803 -0.015023741 -0.9959803 -35.162266 83.8194 
954991550 -34.75199 83.745125 -0.01589091 -1.0441158 -0.01589091 -1.0441158 -34.75199 83.745125 
1E+09 -34.34091 83.66356 -0.01682508 -1.0946705 -0.01682508 -1.0946705 -34.34091 83.66356 
1.04712966E+09 -33.929016 83.57377 -0.017835611 -1.1477708 -0.017835611 -1.1477708 -33.929016 83.57377 
1.0964781E+09 -33.516304 83.47472 -0.018931871 -1.2035476 -0.018931871 -1.2035476 -33.516304 83.47472 
1.1481548E+09 -33.102726 83.365204 -0.020124268 -1.262145 -0.020124268 -1.262145 -33.102726 83.365204 
1.2022642E+09 -32.688343 83.24394 -0.021425817 -1.3236988 -0.021425817 -1.3236988 -32.688343 83.24394 
1.2589265E+09 -32.27315 83.10945 -0.02285214 -1.3883595 -0.02285214 -1.3883595 -32.27315 83.10945 
1.3182564E+09 -31.857279 82.960175 -0.024419393 -1.4562637 -0.024419393 -1.4562637 -31.857279 82.960175 
1.3803854E+09 -31.4408 82.79444 -0.026147906 -1.5275593 -0.026147906 -1.5275593 -31.4408 82.79444 
1.4454392E+09 -31.023932 82.61053 -0.028057508 -1.6023728 -0.028057508 -1.6023728 -31.023932 82.61053 
1.5135624E+09 -30.606876 82.406746 -0.0301743 -1.6808336 -0.0301743 -1.6808336 -30.606876 82.406746 
1.5848925E+09 -30.18998 82.1815 -0.032521293 -1.76304 -0.032521293 -1.76304 -30.18998 82.1815 
1.659588E+09 -29.773582 81.93344 -0.035127785 -1.8490845 -0.035127785 -1.8490845 -29.773582 81.93344 
1.7378E+09 -29.358185 81.66156 -0.03801897 -1.9390175 -0.03801897 -1.9390175 -29.358185 81.66156 
1.8197018E+09 -28.944267 81.36546 -0.041223224 -2.0328772 -0.041223224 -2.0328772 -28.944267 81.36546 
1.9054596E+09 -28.532448 81.045425 -0.04476431 -2.1306534 -0.04476431 -2.1306534 -28.532448 81.045425 
1.9952632E+09 -28.123283 80.702614 -0.04865929 -2.232329 -0.04865929 -2.232329 -28.123283 80.702614 
2.0892947E+09 -27.717402 80.33916 -0.05292324 -2.3378475 -0.05292324 -2.3378475 -27.717402 80.33916 
2.1877624E+09 -27.315294 79.958176 -0.057562422 -2.4471664 -0.057562422 -2.4471664 -27.315294 79.958176 
2.290866E+09 -26.91742 79.56372 -0.06256806 -2.5602357 -0.06256806 -2.5602357 -26.91742 79.56372 
2.3988337E+09 -26.52402 79.1605 -0.067932956 -2.677057 -0.067932956 -2.677057 -26.52402 79.1605 
2.5118843E+09 -26.135227 78.753685 -0.0736348 -2.7976608 -0.0736348 -2.7976608 -26.135227 78.753685 
2.6302684E+09 -25.750914 78.34842 -0.079650216 -2.9221675 -0.079650216 -2.9221675 -25.750914 78.34842 
2.754226E+09 -25.370817 77.94954 -0.08594745 -3.0507545 -0.08594745 -3.0507545 -25.370817 77.94954 
2.8840317E+09 -24.994461 77.56113 -0.09250458 -3.1837006 -0.09250458 -3.1837006 -24.994461 77.56113 
3.0199485E+09 -24.621315 77.18635 -0.09929605 -3.3213334 -0.09929605 -3.3213334 -24.621315 77.18635 
3.1622776E+09 -24.25071 76.827225 -0.106310844 -3.4640713 -0.106310844 -3.4640713 -24.25071 76.827225 
3.3113147E+09 -23.882004 76.48471 -0.11353693 -3.612358 -0.11353693 -3.612358 -23.882004 76.48471 
3.4673682E+09 -23.514593 76.15872 -0.12098111 -3.7666674 -0.12098111 -3.7666674 -23.514593 76.15872 
3.630784E+09 -23.147873 75.8483 -0.12865236 -3.9275126 -0.12865236 -3.9275126 -23.147873 75.8483 
3.8018934E+09 -22.781399 75.55187 -0.1365676 -4.095379 -0.1365676 -4.095379 -22.781399 75.55187 
3.9810752E+09 -22.414745 75.26735 -0.14475694 -4.2707787 -0.14475694 -4.2707787 -22.414745 75.26735 
4.1686927E+09 -22.047657 74.99243 -0.15325066 -4.454184 -0.15325066 -4.454184 -22.047657 74.99243 
4.365162E+09 -21.679886 74.72467 -0.162085 -4.6460915 -0.162085 -4.6460915 -21.679886 74.72467 
4.5708805E+09 -21.311342 74.46165 -0.171299 -4.8469486 -0.171299 -4.8469486 -21.311342 74.46165 
4.7863045E+09 -20.941925 74.201004 -0.18093668 -5.057232 -0.18093668 -5.057232 -20.941925 74.201004 
5.01187E+09 -20.571667 73.94056 -0.19104443 -5.277375 -0.19104443 -5.277375 -20.571667 73.94056 
5.248078E+09 -20.200562 73.67824 -0.20167053 -5.5078483 -0.20167053 -5.5078483 -20.200562 73.67824 
5.495406E+09 -19.828716 73.41225 -0.21286246 -5.74908 -0.21286246 -5.74908 -19.828716 73.41225 
5.7544023E+09 -19.456184 73.14088 -0.22467285 -6.0015426 -0.22467285 -6.0015426 -19.456184 73.14088 
6.0255923E+09 -19.083115 72.86263 -0.23715748 -6.265668 -0.23715748 -6.265668 -19.083115 72.86263 
6.309576E+09 -18.709587 72.57614 -0.2503714 -6.541946 -0.2503714 -6.541946 -18.709587 72.57614 
6.60693E+09 -18.33577 72.28019 -0.26437187 -6.830817 -0.26437187 -6.830817 -18.33577 72.28019 
6.918312E+09 -17.961765 71.97365 -0.27922514 -7.132788 -0.27922514 -7.132788 -17.961765 71.97365 
7.244354E+09 -17.58774 71.65554 -0.2949924 -7.448321 -0.2949924 -7.448321 -17.58774 71.65554 
7.5857777E+09 -17.213806 71.32489 -0.31174242 -7.777937 -0.31174242 -7.777937 -17.213806 71.32489 
7.9432755E+09 -16.840136 70.98088 -0.32954916 -8.12211 -0.32954916 -8.12211 -16.840136 70.98088 
8.317639E+09 -16.466839 70.622665 -0.3484896 -8.48139 -0.3484896 -8.48139 -16.466839 70.622665 
8.709628E+09 -16.09409 70.24954 -0.3686419 -8.856267 -0.3686419 -8.856267 -16.09409 70.24954 
9.12011E+09 -15.721998 69.86075 -0.3900962 -9.247296 -0.3900962 -9.247296 -15.721998 69.86075 
9.549916E+09 -15.350742 69.45563 -0.4129402 -9.654984 -0.4129402 -9.654984 -15.350742 69.45563 
