!Keysight Technologies,E5063A,MY54100949,A.07.30
!Date: Wed Dec 31 02:48:57 2025
!Data & Calibration Information:
!Freq	S11:RESPO(ON)
# Hz S RI R 50
60000.000	1.001114e+000	-1.061896e-002
65994.000	1.000943e+000	-1.182671e-002
71988.000	1.000592e+000	-1.314620e-002
77982.000	1.000597e+000	-1.436542e-002
83976.000	1.000298e+000	-1.534637e-002
89970.000	1.000185e+000	-1.650018e-002
95964.000	1.000203e+000	-1.731343e-002
101958.000	9.999445e-001	-1.850607e-002
107952.000	9.999668e-001	-1.933736e-002
113946.000	9.999411e-001	-2.034275e-002
119940.000	9.996943e-001	-2.100562e-002
125934.000	9.997863e-001	-2.209300e-002
131928.000	9.994093e-001	-2.306336e-002
137922.000	9.995303e-001	-2.419136e-002
143916.000	9.995258e-001	-2.508916e-002
149910.000	9.994939e-001	-2.610146e-002
155904.000	9.994534e-001	-2.706807e-002
161898.000	9.993472e-001	-2.807756e-002
167892.000	9.994164e-001	-2.909553e-002
173886.000	9.993213e-001	-2.989294e-002
179880.000	9.993294e-001	-3.098982e-002
185874.000	9.992141e-001	-3.190812e-002
191868.000	9.991263e-001	-3.291576e-002
197862.000	9.991028e-001	-3.386035e-002
203856.000	9.991236e-001	-3.486673e-002
209850.000	9.989558e-001	-3.570644e-002
215844.000	9.989984e-001	-3.681549e-002
221838.000	9.988920e-001	-3.797198e-002
227832.000	9.988821e-001	-3.884834e-002
233826.000	9.987616e-001	-3.986319e-002
239820.000	9.987222e-001	-4.082130e-002
245814.000	9.986168e-001	-4.180419e-002
251808.000	9.987012e-001	-4.293471e-002
257802.000	9.985796e-001	-4.387985e-002
263796.000	9.986731e-001	-4.497866e-002
269790.000	9.985222e-001	-4.588123e-002
275784.000	9.984672e-001	-4.689878e-002
281778.000	9.983300e-001	-4.791574e-002
287772.000	9.984227e-001	-4.905714e-002
293766.000	9.983099e-001	-4.979100e-002
299760.000	9.983029e-001	-5.095730e-002
305754.000	9.980517e-001	-5.213906e-002
311748.000	9.982908e-001	-5.291564e-002
317742.000	9.981480e-001	-5.375258e-002
323736.000	9.980687e-001	-5.490935e-002
329730.000	9.979752e-001	-5.598712e-002
335724.000	9.978757e-001	-5.697216e-002
341718.000	9.979140e-001	-5.788981e-002
347712.000	9.979101e-001	-5.874868e-002
353706.000	9.976540e-001	-5.997333e-002
359700.000	9.977307e-001	-6.092327e-002
365694.000	9.976451e-001	-6.202685e-002
371688.000	9.974920e-001	-6.290363e-002
377682.000	9.974367e-001	-6.398435e-002
383676.000	9.974318e-001	-6.488379e-002
389670.000	9.974961e-001	-6.599096e-002
395664.000	9.973213e-001	-6.714992e-002
401658.000	9.973537e-001	-6.802861e-002
407652.000	9.971966e-001	-6.908557e-002
413646.000	9.970406e-001	-7.005566e-002
419640.000	9.970393e-001	-7.111344e-002
425634.000	9.970798e-001	-7.189223e-002
431628.000	9.969462e-001	-7.300446e-002
437622.000	9.968695e-001	-7.414425e-002
443616.000	9.968475e-001	-7.510303e-002
449610.000	9.967394e-001	-7.607088e-002
455604.000	9.966211e-001	-7.713388e-002
461598.000	9.965684e-001	-7.803910e-002
467592.000	9.964328e-001	-7.906015e-002
473586.000	9.963368e-001	-8.007676e-002
479580.000	9.962185e-001	-8.113964e-002
485574.000	9.963371e-001	-8.212455e-002
491568.000	9.962499e-001	-8.297854e-002
497562.000	9.960276e-001	-8.406450e-002
503556.000	9.959578e-001	-8.520837e-002
509550.000	9.956663e-001	-8.611096e-002
515544.000	9.957822e-001	-8.715473e-002
521538.000	9.956638e-001	-8.824874e-002
527532.000	9.956849e-001	-8.919068e-002
533526.000	9.954101e-001	-9.018666e-002
539520.000	9.953127e-001	-9.122693e-002
545514.000	9.954892e-001	-9.224348e-002
551508.000	9.951535e-001	-9.316348e-002
557502.000	9.950642e-001	-9.426001e-002
563496.000	9.949742e-001	-9.526878e-002
569490.000	9.947903e-001	-9.633090e-002
575484.000	9.948339e-001	-9.716564e-002
581478.000	9.945845e-001	-9.824013e-002
587472.000	9.947030e-001	-9.930842e-002
593466.000	9.945383e-001	-1.002992e-001
599460.000	9.944667e-001	-1.013835e-001
605454.000	9.943585e-001	-1.022070e-001
611448.000	9.942002e-001	-1.033653e-001
617442.000	9.940719e-001	-1.042954e-001
623436.000	9.939194e-001	-1.052517e-001
629430.000	9.938645e-001	-1.064593e-001
635424.000	9.938101e-001	-1.073217e-001
641418.000	9.937462e-001	-1.084189e-001
647412.000	9.936239e-001	-1.092346e-001
653406.000	9.934855e-001	-1.102370e-001
659400.000	9.933548e-001	-1.112934e-001
665394.000	9.932581e-001	-1.124605e-001
671388.000	9.931420e-001	-1.134380e-001
677382.000	9.930727e-001	-1.143243e-001
683376.000	9.929802e-001	-1.153593e-001
689370.000	9.928820e-001	-1.164007e-001
695364.000	9.926997e-001	-1.173116e-001
701358.000	9.926083e-001	-1.182878e-001
707352.000	9.924932e-001	-1.193116e-001
713346.000	9.922835e-001	-1.203422e-001
719340.000	9.922614e-001	-1.213337e-001
725334.000	9.920132e-001	-1.222554e-001
731328.000	9.918309e-001	-1.233677e-001
737322.000	9.919993e-001	-1.242924e-001
743316.000	9.917968e-001	-1.252804e-001
749310.000	9.915894e-001	-1.263241e-001
755304.000	9.914925e-001	-1.273940e-001
761298.000	9.913042e-001	-1.284938e-001
767292.000	9.913202e-001	-1.293978e-001
773286.000	9.911708e-001	-1.303620e-001
779280.000	9.909004e-001	-1.314001e-001
785274.000	9.908340e-001	-1.323522e-001
791268.000	9.907948e-001	-1.335763e-001
797262.000	9.906275e-001	-1.344220e-001
803256.000	9.904935e-001	-1.354538e-001
809250.000	9.901757e-001	-1.364397e-001
815244.000	9.901304e-001	-1.374491e-001
821238.000	9.899604e-001	-1.383584e-001
827232.000	9.897927e-001	-1.393005e-001
833226.000	9.896453e-001	-1.404354e-001
839220.000	9.894874e-001	-1.414406e-001
845214.000	9.894231e-001	-1.424807e-001
851208.000	9.892250e-001	-1.433168e-001
857202.000	9.890832e-001	-1.444376e-001
863196.000	9.889532e-001	-1.454715e-001
869190.000	9.888769e-001	-1.463190e-001
875184.000	9.886453e-001	-1.474636e-001
881178.000	9.885265e-001	-1.484072e-001
887172.000	9.883592e-001	-1.494302e-001
893166.000	9.881758e-001	-1.503534e-001
899160.000	9.880826e-001	-1.514543e-001
905154.000	9.879016e-001	-1.523312e-001
911148.000	9.877757e-001	-1.533434e-001
917142.000	9.875862e-001	-1.543739e-001
923136.000	9.874309e-001	-1.553216e-001
929130.000	9.871946e-001	-1.562490e-001
935124.000	9.872673e-001	-1.574304e-001
941118.000	9.869287e-001	-1.584377e-001
947112.000	9.868267e-001	-1.593834e-001
953106.000	9.866002e-001	-1.603925e-001
959100.000	9.864736e-001	-1.614191e-001
965094.000	9.863033e-001	-1.624155e-001
971088.000	9.861261e-001	-1.634193e-001
977082.000	9.859576e-001	-1.644029e-001
983076.000	9.858808e-001	-1.653919e-001
989070.000	9.856599e-001	-1.662988e-001
995064.000	9.853466e-001	-1.673875e-001
1001058.000	9.851137e-001	-1.682849e-001
1007052.000	9.850434e-001	-1.692898e-001
1013046.000	9.849358e-001	-1.701840e-001
1019040.000	9.847900e-001	-1.713197e-001
1025034.000	9.846618e-001	-1.722024e-001
1031028.000	9.844194e-001	-1.732708e-001
1037022.000	9.842874e-001	-1.742357e-001
1043016.000	9.840775e-001	-1.752025e-001
1049010.000	9.838817e-001	-1.762530e-001
1055004.000	9.837819e-001	-1.771418e-001
1060998.000	9.834467e-001	-1.781882e-001
1066992.000	9.833567e-001	-1.791536e-001
1072986.000	9.831795e-001	-1.801524e-001
1078980.000	9.831290e-001	-1.811546e-001
1084974.000	9.828669e-001	-1.822502e-001
1090968.000	9.826536e-001	-1.831123e-001
1096962.000	9.825007e-001	-1.841922e-001
1102956.000	9.822595e-001	-1.850388e-001
1108950.000	9.820561e-001	-1.861104e-001
1114944.000	9.819088e-001	-1.871688e-001
1120938.000	9.818021e-001	-1.881846e-001
1126932.000	9.814676e-001	-1.889878e-001
1132926.000	9.813029e-001	-1.900999e-001
1138920.000	9.810680e-001	-1.910604e-001
1144914.000	9.808113e-001	-1.920894e-001
1150908.000	9.808497e-001	-1.930254e-001
1156902.000	9.806499e-001	-1.939106e-001
1162896.000	9.804079e-001	-1.950766e-001
1168890.000	9.801752e-001	-1.958891e-001
1174884.000	9.799963e-001	-1.970074e-001
1180878.000	9.797787e-001	-1.979480e-001
1186872.000	9.796139e-001	-1.989975e-001
1192866.000	9.793684e-001	-1.999124e-001
1198860.000	9.792549e-001	-2.008866e-001
1204854.000	9.790911e-001	-2.019836e-001
1210848.000	9.787555e-001	-2.028015e-001
1216842.000	9.785410e-001	-2.037911e-001
1222836.000	9.783144e-001	-2.047868e-001
1228830.000	9.781131e-001	-2.058337e-001
1234824.000	9.780881e-001	-2.068611e-001
1240818.000	9.777337e-001	-2.077502e-001
1246812.000	9.774309e-001	-2.087299e-001
1252806.000	9.771927e-001	-2.097352e-001
1258800.000	9.770668e-001	-2.107669e-001
1264794.000	9.769180e-001	-2.117837e-001
1270788.000	9.766094e-001	-2.126195e-001
1276782.000	9.765061e-001	-2.136355e-001
1282776.000	9.763345e-001	-2.146375e-001
1288770.000	9.760250e-001	-2.155551e-001
1294764.000	9.759316e-001	-2.164831e-001
1300758.000	9.756504e-001	-2.174590e-001
1306752.000	9.755299e-001	-2.184811e-001
1312746.000	9.752660e-001	-2.194689e-001
1318740.000	9.750108e-001	-2.204436e-001
1324734.000	9.747156e-001	-2.214466e-001
1330728.000	9.745401e-001	-2.224571e-001
1336722.000	9.743566e-001	-2.234785e-001
1342716.000	9.739795e-001	-2.243506e-001
1348710.000	9.739376e-001	-2.254404e-001
1354704.000	9.735454e-001	-2.263438e-001
1360698.000	9.733813e-001	-2.273175e-001
1366692.000	9.731568e-001	-2.282611e-001
1372686.000	9.729046e-001	-2.292629e-001
1378680.000	9.727919e-001	-2.302108e-001
1384674.000	9.724463e-001	-2.312029e-001
1390668.000	9.723247e-001	-2.322934e-001
1396662.000	9.719467e-001	-2.331717e-001
1402656.000	9.718424e-001	-2.341058e-001
1408650.000	9.715055e-001	-2.350619e-001
1414644.000	9.712908e-001	-2.359723e-001
1420638.000	9.709880e-001	-2.371193e-001
1426632.000	9.707530e-001	-2.380236e-001
1432626.000	9.705516e-001	-2.389320e-001
1438620.000	9.702966e-001	-2.398614e-001
1444614.000	9.700540e-001	-2.408669e-001
1450608.000	9.699317e-001	-2.419550e-001
1456602.000	9.697242e-001	-2.428935e-001
1462596.000	9.694111e-001	-2.437493e-001
1468590.000	9.691503e-001	-2.447311e-001
1474584.000	9.689685e-001	-2.456530e-001
1480578.000	9.686858e-001	-2.468607e-001
1486572.000	9.684081e-001	-2.476666e-001
1492566.000	9.682181e-001	-2.486233e-001
1498560.000	9.679372e-001	-2.496173e-001
1504554.000	9.678027e-001	-2.505571e-001
1510548.000	9.676357e-001	-2.515989e-001
1516542.000	9.671207e-001	-2.525773e-001
1522536.000	9.669197e-001	-2.534486e-001
1528530.000	9.667780e-001	-2.544841e-001
1534524.000	9.663626e-001	-2.554995e-001
1540518.000	9.661196e-001	-2.563387e-001
1546512.000	9.658881e-001	-2.574144e-001
1552506.000	9.657071e-001	-2.583402e-001
1558500.000	9.654541e-001	-2.592712e-001
1564494.000	9.651067e-001	-2.602905e-001
1570488.000	9.648779e-001	-2.612715e-001
1576482.000	9.645987e-001	-2.621560e-001
1582476.000	9.643744e-001	-2.632417e-001
1588470.000	9.641475e-001	-2.640280e-001
1594464.000	9.636873e-001	-2.651140e-001
1600458.000	9.636334e-001	-2.660080e-001
1606452.000	9.633606e-001	-2.669695e-001
1612446.000	9.630537e-001	-2.678142e-001
1618440.000	9.627718e-001	-2.688700e-001
1624434.000	9.625327e-001	-2.700027e-001
1630428.000	9.621188e-001	-2.708586e-001
1636422.000	9.619149e-001	-2.717856e-001
1642416.000	9.616682e-001	-2.726960e-001
1648410.000	9.614638e-001	-2.736556e-001
1654404.000	9.610901e-001	-2.745765e-001
1660398.000	9.609500e-001	-2.756088e-001
1666392.000	9.606935e-001	-2.765678e-001
1672386.000	9.603553e-001	-2.775015e-001
1678380.000	9.600571e-001	-2.784308e-001
1684374.000	9.598190e-001	-2.793500e-001
1690368.000	9.594532e-001	-2.803989e-001
1696362.000	9.591813e-001	-2.813808e-001
1702356.000	9.588574e-001	-2.823141e-001
1708350.000	9.586765e-001	-2.832698e-001
1714344.000	9.583378e-001	-2.841528e-001
1720338.000	9.581500e-001	-2.851178e-001
1726332.000	9.578052e-001	-2.860366e-001
1732326.000	9.575567e-001	-2.870256e-001
1738320.000	9.572306e-001	-2.880323e-001
1744314.000	9.569455e-001	-2.890205e-001
1750308.000	9.566654e-001	-2.899468e-001
1756302.000	9.564104e-001	-2.909089e-001
1762296.000	9.560827e-001	-2.917317e-001
1768290.000	9.557478e-001	-2.926882e-001
1774284.000	9.555079e-001	-2.937642e-001
1780278.000	9.551658e-001	-2.945881e-001
1786272.000	9.549285e-001	-2.956585e-001
1792266.000	9.545770e-001	-2.965885e-001
1798260.000	9.544120e-001	-2.975415e-001
1804254.000	9.540836e-001	-2.984354e-001
1810248.000	9.537418e-001	-2.992633e-001
1816242.000	9.534658e-001	-3.003961e-001
1822236.000	9.531636e-001	-3.014071e-001
1828230.000	9.528835e-001	-3.022652e-001
1834224.000	9.525241e-001	-3.032528e-001
1840218.000	9.523140e-001	-3.042180e-001
1846212.000	9.520243e-001	-3.050057e-001
1852206.000	9.516999e-001	-3.059557e-001
1858200.000	9.514008e-001	-3.069189e-001
1864194.000	9.511048e-001	-3.079438e-001
1870188.000	9.507957e-001	-3.087120e-001
1876182.000	9.504602e-001	-3.096554e-001
1882176.000	9.502540e-001	-3.107627e-001
1888170.000	9.498473e-001	-3.116079e-001
1894164.000	9.495254e-001	-3.125715e-001
1900158.000	9.492500e-001	-3.134103e-001
1906152.000	9.489338e-001	-3.144776e-001
1912146.000	9.486657e-001	-3.154123e-001
1918140.000	9.483808e-001	-3.163060e-001
1924134.000	9.479458e-001	-3.173756e-001
1930128.000	9.477229e-001	-3.183065e-001
1936122.000	9.474332e-001	-3.191786e-001
1942116.000	9.470843e-001	-3.201071e-001
1948110.000	9.467712e-001	-3.210980e-001
1954104.000	9.464506e-001	-3.220497e-001
1960098.000	9.461682e-001	-3.229647e-001
1966092.000	9.457921e-001	-3.238726e-001
1972086.000	9.454317e-001	-3.248145e-001
1978080.000	9.452302e-001	-3.255911e-001
1984074.000	9.448385e-001	-3.266378e-001
1990068.000	9.445297e-001	-3.275670e-001
1996062.000	9.443168e-001	-3.284255e-001
2002056.000	9.439136e-001	-3.294575e-001
2008050.000	9.435006e-001	-3.303032e-001
2014044.000	9.433071e-001	-3.312855e-001
2020038.000	9.429500e-001	-3.322588e-001
2026032.000	9.425574e-001	-3.330713e-001
2032026.000	9.422163e-001	-3.340311e-001
2038020.000	9.419004e-001	-3.350820e-001
2044014.000	9.415345e-001	-3.359578e-001
2050008.000	9.412151e-001	-3.368840e-001
2056002.000	9.409134e-001	-3.377470e-001
2061996.000	9.405891e-001	-3.387769e-001
2067990.000	9.403021e-001	-3.396722e-001
2073984.000	9.399272e-001	-3.406254e-001
2079978.000	9.396490e-001	-3.415571e-001
2085972.000	9.392823e-001	-3.424183e-001
2091966.000	9.389959e-001	-3.434152e-001
2097960.000	9.385635e-001	-3.442865e-001
2103954.000	9.382798e-001	-3.451798e-001
2109948.000	9.379816e-001	-3.460902e-001
2115942.000	9.375947e-001	-3.470538e-001
2121936.000	9.372071e-001	-3.479432e-001
2127930.000	9.368062e-001	-3.489669e-001
2133924.000	9.365550e-001	-3.498720e-001
2139918.000	9.361826e-001	-3.507924e-001
2145912.000	9.357908e-001	-3.517735e-001
2151906.000	9.355287e-001	-3.526323e-001
2157900.000	9.351806e-001	-3.535626e-001
2163894.000	9.348552e-001	-3.544391e-001
2169888.000	9.345301e-001	-3.555127e-001
2175882.000	9.342177e-001	-3.563324e-001
2181876.000	9.338352e-001	-3.573113e-001
2187870.000	9.334936e-001	-3.581550e-001
2193864.000	9.330093e-001	-3.590304e-001
2199858.000	9.327901e-001	-3.600601e-001
2205852.000	9.323063e-001	-3.610059e-001
2211846.000	9.319842e-001	-3.619217e-001
2217840.000	9.315742e-001	-3.627652e-001
2223834.000	9.312275e-001	-3.638415e-001
2229828.000	9.308570e-001	-3.646603e-001
2235822.000	9.304778e-001	-3.655769e-001
2241816.000	9.302419e-001	-3.664258e-001
2247810.000	9.297840e-001	-3.672914e-001
2253804.000	9.293165e-001	-3.680705e-001
2259798.000	9.290304e-001	-3.691431e-001
2265792.000	9.287301e-001	-3.700067e-001
2271786.000	9.283310e-001	-3.709485e-001
2277780.000	9.279961e-001	-3.718087e-001
2283774.000	9.276982e-001	-3.727115e-001
2289768.000	9.273616e-001	-3.736915e-001
2295762.000	9.269636e-001	-3.745213e-001
2301756.000	9.266280e-001	-3.754482e-001
2307750.000	9.261793e-001	-3.763000e-001
2313744.000	9.258719e-001	-3.772346e-001
2319738.000	9.255103e-001	-3.781975e-001
2325732.000	9.251260e-001	-3.791369e-001
2331726.000	9.247087e-001	-3.799573e-001
2337720.000	9.244120e-001	-3.807732e-001
2343714.000	9.239639e-001	-3.817285e-001
2349708.000	9.236323e-001	-3.826830e-001
2355702.000	9.231989e-001	-3.835313e-001
2361696.000	9.228694e-001	-3.844498e-001
2367690.000	9.224890e-001	-3.854528e-001
2373684.000	9.221552e-001	-3.861756e-001
2379678.000	9.217260e-001	-3.871751e-001
2385672.000	9.212665e-001	-3.880695e-001
2391666.000	9.209474e-001	-3.888737e-001
2397660.000	9.206207e-001	-3.898905e-001
2403654.000	9.202086e-001	-3.907094e-001
2409648.000	9.198547e-001	-3.916529e-001
2415642.000	9.195133e-001	-3.925842e-001
2421636.000	9.191534e-001	-3.933258e-001
2427630.000	9.188103e-001	-3.942538e-001
2433624.000	9.184461e-001	-3.952560e-001
2439618.000	9.180014e-001	-3.960785e-001
2445612.000	9.174320e-001	-3.969674e-001
2451606.000	9.171384e-001	-3.979628e-001
2457600.000	9.168100e-001	-3.988612e-001
2463594.000	9.164912e-001	-3.997203e-001
2469588.000	9.161066e-001	-4.005295e-001
2475582.000	9.157018e-001	-4.014802e-001
2481576.000	9.152897e-001	-4.024337e-001
2487570.000	9.149173e-001	-4.033588e-001
2493564.000	9.144363e-001	-4.042578e-001
2499558.000	9.141059e-001	-4.050679e-001
2505552.000	9.136479e-001	-4.058782e-001
2511546.000	9.132481e-001	-4.068095e-001
2517540.000	9.129025e-001	-4.077692e-001
2523534.000	9.124504e-001	-4.086690e-001
2529528.000	9.120689e-001	-4.094646e-001
2535522.000	9.117672e-001	-4.103794e-001
2541516.000	9.113162e-001	-4.113116e-001
2547510.000	9.109608e-001	-4.121015e-001
2553504.000	9.105303e-001	-4.130163e-001
2559498.000	9.102231e-001	-4.139429e-001
2565492.000	9.097732e-001	-4.147280e-001
2571486.000	9.092648e-001	-4.156570e-001
2577480.000	9.088817e-001	-4.164974e-001
2583474.000	9.085384e-001	-4.174856e-001
2589468.000	9.081216e-001	-4.182938e-001
2595462.000	9.077139e-001	-4.192115e-001
2601456.000	9.073282e-001	-4.201363e-001
2607450.000	9.069765e-001	-4.210685e-001
2613444.000	9.065290e-001	-4.217582e-001
2619438.000	9.061398e-001	-4.226932e-001
2625432.000	9.056889e-001	-4.236340e-001
2631426.000	9.053579e-001	-4.244809e-001
2637420.000	9.048405e-001	-4.253108e-001
2643414.000	9.045077e-001	-4.262087e-001
2649408.000	9.041534e-001	-4.270334e-001
2655402.000	9.036603e-001	-4.279243e-001
2661396.000	9.032594e-001	-4.288914e-001
2667390.000	9.029155e-001	-4.297426e-001
2673384.000	9.024287e-001	-4.306289e-001
2679378.000	9.020055e-001	-4.314317e-001
2685372.000	9.015743e-001	-4.323052e-001
2691366.000	9.012512e-001	-4.331515e-001
2697360.000	9.007125e-001	-4.339966e-001
2703354.000	9.003103e-001	-4.348768e-001
2709348.000	8.999374e-001	-4.357789e-001
2715342.000	8.994795e-001	-4.366412e-001
2721336.000	8.990927e-001	-4.375851e-001
2727330.000	8.985040e-001	-4.384524e-001
2733324.000	8.981827e-001	-4.392547e-001
2739318.000	8.978519e-001	-4.401187e-001
2745312.000	8.973774e-001	-4.410808e-001
2751306.000	8.968832e-001	-4.418483e-001
2757300.000	8.964796e-001	-4.426766e-001
2763294.000	8.960977e-001	-4.435291e-001
2769288.000	8.956439e-001	-4.443921e-001
2775282.000	8.952739e-001	-4.453755e-001
2781276.000	8.947375e-001	-4.462902e-001
2787270.000	8.942207e-001	-4.470031e-001
2793264.000	8.939054e-001	-4.478628e-001
2799258.000	8.934501e-001	-4.487061e-001
2805252.000	8.930818e-001	-4.496086e-001
2811246.000	8.926632e-001	-4.505041e-001
2817240.000	8.922236e-001	-4.513383e-001
2823234.000	8.918063e-001	-4.521845e-001
2829228.000	8.913473e-001	-4.531200e-001
2835222.000	8.908591e-001	-4.538412e-001
2841216.000	8.905394e-001	-4.547867e-001
2847210.000	8.901215e-001	-4.556399e-001
2853204.000	8.896082e-001	-4.564215e-001
2859198.000	8.891393e-001	-4.573529e-001
2865192.000	8.887165e-001	-4.581665e-001
2871186.000	8.882645e-001	-4.591886e-001
2877180.000	8.878664e-001	-4.598734e-001
2883174.000	8.874360e-001	-4.607477e-001
2889168.000	8.870614e-001	-4.616112e-001
2895162.000	8.864766e-001	-4.624753e-001
2901156.000	8.862163e-001	-4.633446e-001
2907150.000	8.857005e-001	-4.641796e-001
2913144.000	8.851453e-001	-4.649302e-001
2919138.000	8.846419e-001	-4.658131e-001
2925132.000	8.842971e-001	-4.666414e-001
2931126.000	8.839625e-001	-4.675350e-001
2937120.000	8.835128e-001	-4.683836e-001
2943114.000	8.830617e-001	-4.692710e-001
2949108.000	8.825673e-001	-4.701226e-001
2955102.000	8.822302e-001	-4.709493e-001
2961096.000	8.817377e-001	-4.716333e-001
2967090.000	8.812652e-001	-4.725702e-001
2973084.000	8.807301e-001	-4.735154e-001
2979078.000	8.802461e-001	-4.742776e-001
2985072.000	8.798285e-001	-4.751255e-001
2991066.000	8.793449e-001	-4.759935e-001
2997060.000	8.789018e-001	-4.768741e-001
3003054.000	8.784249e-001	-4.776405e-001
3009048.000	8.779363e-001	-4.784501e-001
3015042.000	8.775360e-001	-4.793463e-001
3021036.000	8.770499e-001	-4.801121e-001
3027030.000	8.765250e-001	-4.809457e-001
3033024.000	8.760793e-001	-4.818371e-001
3039018.000	8.756841e-001	-4.826224e-001
3045012.000	8.751520e-001	-4.835002e-001
3051006.000	8.747528e-001	-4.843290e-001
3057000.000	8.743409e-001	-4.851521e-001
3062994.000	8.737368e-001	-4.859582e-001
3068988.000	8.733748e-001	-4.868674e-001
3074982.000	8.728990e-001	-4.876707e-001
3080976.000	8.724412e-001	-4.885288e-001
3086970.000	8.720675e-001	-4.893257e-001
3092964.000	8.715332e-001	-4.901708e-001
3098958.000	8.710572e-001	-4.909556e-001
3104952.000	8.705761e-001	-4.917789e-001
3110946.000	8.701290e-001	-4.926747e-001
3116940.000	8.697494e-001	-4.934320e-001
3122934.000	8.691585e-001	-4.943003e-001
3128928.000	8.687585e-001	-4.950721e-001
3134922.000	8.682004e-001	-4.958673e-001
3140916.000	8.678320e-001	-4.966709e-001
3146910.000	8.673099e-001	-4.976490e-001
3152904.000	8.667731e-001	-4.984299e-001
3158898.000	8.663857e-001	-4.991766e-001
3164892.000	8.659377e-001	-5.000405e-001
3170886.000	8.653537e-001	-5.009462e-001
3176880.000	8.650130e-001	-5.016405e-001
3182874.000	8.645354e-001	-5.024170e-001
3188868.000	8.639309e-001	-5.033799e-001
3194862.000	8.635301e-001	-5.041534e-001
3200856.000	8.630192e-001	-5.049967e-001
3206850.000	8.626122e-001	-5.056898e-001
3212844.000	8.620730e-001	-5.064915e-001
3218838.000	8.616494e-001	-5.075133e-001
3224832.000	8.610992e-001	-5.082216e-001
3230826.000	8.607526e-001	-5.089958e-001
3236820.000	8.601944e-001	-5.098999e-001
3242814.000	8.597169e-001	-5.106348e-001
3248808.000	8.591002e-001	-5.114270e-001
3254802.000	8.587807e-001	-5.123458e-001
3260796.000	8.582814e-001	-5.131255e-001
3266790.000	8.578690e-001	-5.138877e-001
3272784.000	8.573174e-001	-5.146948e-001
3278778.000	8.567163e-001	-5.156149e-001
3284772.000	8.562365e-001	-5.162395e-001
3290766.000	8.558864e-001	-5.170629e-001
3296760.000	8.553951e-001	-5.179429e-001
3302754.000	8.548210e-001	-5.187391e-001
3308748.000	8.543889e-001	-5.195960e-001
3314742.000	8.539922e-001	-5.204086e-001
3320736.000	8.533552e-001	-5.211853e-001
3326730.000	8.529593e-001	-5.220819e-001
3332724.000	8.523934e-001	-5.228009e-001
3338718.000	8.520602e-001	-5.236156e-001
3344712.000	8.513801e-001	-5.243646e-001
3350706.000	8.509021e-001	-5.252276e-001
3356700.000	8.504332e-001	-5.259544e-001
3362694.000	8.499394e-001	-5.268779e-001
3368688.000	8.494234e-001	-5.275925e-001
3374682.000	8.488743e-001	-5.283371e-001
3380676.000	8.484775e-001	-5.291946e-001
3386670.000	8.480089e-001	-5.299865e-001
3392664.000	8.475054e-001	-5.308260e-001
3398658.000	8.469517e-001	-5.316135e-001
3404652.000	8.464371e-001	-5.324095e-001
3410646.000	8.460426e-001	-5.331958e-001
3416640.000	8.454608e-001	-5.338755e-001
3422634.000	8.450699e-001	-5.346982e-001
3428628.000	8.444415e-001	-5.355055e-001
3434622.000	8.440491e-001	-5.362271e-001
3440616.000	8.435124e-001	-5.370156e-001
3446610.000	8.431153e-001	-5.379171e-001
3452604.000	8.425338e-001	-5.386953e-001
3458598.000	8.420469e-001	-5.394664e-001
3464592.000	8.415479e-001	-5.401825e-001
3470586.000	8.410465e-001	-5.410381e-001
3476580.000	8.404825e-001	-5.419275e-001
3482574.000	8.400266e-001	-5.425386e-001
3488568.000	8.394668e-001	-5.433791e-001
3494562.000	8.389885e-001	-5.441126e-001
3500556.000	8.385444e-001	-5.449855e-001
3506550.000	8.379444e-001	-5.457136e-001
3512544.000	8.374730e-001	-5.464208e-001
3518538.000	8.369785e-001	-5.472759e-001
3524532.000	8.364815e-001	-5.480979e-001
3530526.000	8.358652e-001	-5.487577e-001
3536520.000	8.353795e-001	-5.496681e-001
3542514.000	8.348898e-001	-5.505421e-001
3548508.000	8.342953e-001	-5.512585e-001
3554502.000	8.337734e-001	-5.520668e-001
3560496.000	8.333362e-001	-5.528207e-001
3566490.000	8.329670e-001	-5.536201e-001
3572484.000	8.322548e-001	-5.542984e-001
3578478.000	8.318621e-001	-5.551577e-001
3584472.000	8.313860e-001	-5.559127e-001
3590466.000	8.308248e-001	-5.566635e-001
3596460.000	8.302627e-001	-5.573592e-001
3602454.000	8.297087e-001	-5.582582e-001
3608448.000	8.292545e-001	-5.589497e-001
3614442.000	8.287102e-001	-5.597438e-001
3620436.000	8.282721e-001	-5.605240e-001
3626430.000	8.276560e-001	-5.612716e-001
3632424.000	8.272541e-001	-5.620138e-001
3638418.000	8.266774e-001	-5.628504e-001
3644412.000	8.260916e-001	-5.636767e-001
3650406.000	8.255740e-001	-5.643859e-001
3656400.000	8.249895e-001	-5.651730e-001
3662394.000	8.245216e-001	-5.658151e-001
3668388.000	8.239634e-001	-5.666783e-001
3674382.000	8.235075e-001	-5.674231e-001
3680376.000	8.230259e-001	-5.681775e-001
3686370.000	8.224583e-001	-5.689750e-001
3692364.000	8.218921e-001	-5.696782e-001
3698358.000	8.213079e-001	-5.704237e-001
3704352.000	8.208197e-001	-5.712141e-001
3710346.000	8.202374e-001	-5.719568e-001
3716340.000	8.198033e-001	-5.727258e-001
3722334.000	8.190869e-001	-5.734408e-001
3728328.000	8.187321e-001	-5.742411e-001
3734322.000	8.181316e-001	-5.750533e-001
3740316.000	8.176505e-001	-5.756998e-001
3746310.000	8.170933e-001	-5.764985e-001
3752304.000	8.165461e-001	-5.772321e-001
3758298.000	8.160690e-001	-5.779362e-001
3764292.000	8.154835e-001	-5.787056e-001
3770286.000	8.150644e-001	-5.795805e-001
3776280.000	8.144702e-001	-5.802711e-001
3782274.000	8.138330e-001	-5.811216e-001
3788268.000	8.134893e-001	-5.818399e-001
3794262.000	8.128072e-001	-5.825812e-001
3800256.000	8.122971e-001	-5.832447e-001
3806250.000	8.117133e-001	-5.840532e-001
3812244.000	8.112239e-001	-5.847608e-001
3818238.000	8.107575e-001	-5.855844e-001
3824232.000	8.101848e-001	-5.862508e-001
3830226.000	8.095665e-001	-5.870756e-001
3836220.000	8.090648e-001	-5.877214e-001
3842214.000	8.085795e-001	-5.884990e-001
3848208.000	8.080392e-001	-5.891396e-001
3854202.000	8.074723e-001	-5.900163e-001
3860196.000	8.069495e-001	-5.907458e-001
3866190.000	8.063815e-001	-5.914472e-001
3872184.000	8.059847e-001	-5.923197e-001
3878178.000	8.054480e-001	-5.929720e-001
3884172.000	8.048212e-001	-5.936933e-001
3890166.000	8.043702e-001	-5.945416e-001
3896160.000	8.039056e-001	-5.952958e-001
3902154.000	8.032981e-001	-5.958782e-001
3908148.000	8.027423e-001	-5.965920e-001
3914142.000	8.020506e-001	-5.972960e-001
3920136.000	8.015428e-001	-5.980090e-001
3926130.000	8.010198e-001	-5.988485e-001
3932124.000	8.005323e-001	-5.995902e-001
3938118.000	7.999630e-001	-6.004037e-001
3944112.000	7.993470e-001	-6.009916e-001
3950106.000	7.988249e-001	-6.018058e-001
3956100.000	7.982251e-001	-6.024522e-001
3962094.000	7.976180e-001	-6.031199e-001
3968088.000	7.970776e-001	-6.039255e-001
3974082.000	7.965506e-001	-6.045997e-001
3980076.000	7.960344e-001	-6.054838e-001
3986070.000	7.954853e-001	-6.061731e-001
3992064.000	7.949415e-001	-6.067540e-001
3998058.000	7.944520e-001	-6.076599e-001
4004052.000	7.939226e-001	-6.083108e-001
4010046.000	7.933048e-001	-6.090923e-001
4016040.000	7.927381e-001	-6.097528e-001
4022034.000	7.922123e-001	-6.105149e-001
4028028.000	7.916341e-001	-6.111915e-001
4034022.000	7.912315e-001	-6.119727e-001
4040016.000	7.904808e-001	-6.126949e-001
4046010.000	7.899111e-001	-6.134122e-001
4052004.000	7.894014e-001	-6.140879e-001
4057998.000	7.886626e-001	-6.148281e-001
4063992.000	7.884090e-001	-6.155919e-001
4069986.000	7.877154e-001	-6.162303e-001
4075980.000	7.871510e-001	-6.169024e-001
4081974.000	7.865961e-001	-6.176001e-001
4087968.000	7.860423e-001	-6.183866e-001
4093962.000	7.855362e-001	-6.192027e-001
4099956.000	7.848508e-001	-6.198485e-001
4105950.000	7.844317e-001	-6.204810e-001
4111944.000	7.837704e-001	-6.212543e-001
4117938.000	7.831854e-001	-6.218118e-001
4123932.000	7.826911e-001	-6.226082e-001
4129926.000	7.820932e-001	-6.233121e-001
4135920.000	7.815621e-001	-6.240706e-001
4141914.000	7.809637e-001	-6.247963e-001
4147908.000	7.804005e-001	-6.255322e-001
4153902.000	7.798335e-001	-6.261272e-001
4159896.000	7.792379e-001	-6.268960e-001
4165890.000	7.787101e-001	-6.276159e-001
4171884.000	7.781609e-001	-6.283564e-001
4177878.000	7.775963e-001	-6.291108e-001
4183872.000	7.770694e-001	-6.296948e-001
4189866.000	7.763973e-001	-6.304260e-001
4195860.000	7.758015e-001	-6.311063e-001
4201854.000	7.753271e-001	-6.318713e-001
4207848.000	7.747477e-001	-6.324793e-001
4213842.000	7.741268e-001	-6.332506e-001
4219836.000	7.736216e-001	-6.339217e-001
4225830.000	7.731105e-001	-6.345467e-001
4231824.000	7.725588e-001	-6.353724e-001
4237818.000	7.719814e-001	-6.359470e-001
4243812.000	7.714053e-001	-6.366942e-001
4249806.000	7.708124e-001	-6.374511e-001
4255800.000	7.703194e-001	-6.380311e-001
4261794.000	7.697495e-001	-6.387828e-001
4267788.000	7.691219e-001	-6.395650e-001
4273782.000	7.685196e-001	-6.401158e-001
4279776.000	7.679052e-001	-6.408772e-001
4285770.000	7.674991e-001	-6.415237e-001
4291764.000	7.667993e-001	-6.422971e-001
4297758.000	7.661972e-001	-6.429934e-001
4303752.000	7.656950e-001	-6.436017e-001
4309746.000	7.651103e-001	-6.443204e-001
4315740.000	7.645174e-001	-6.450565e-001
4321734.000	7.638900e-001	-6.456372e-001
4327728.000	7.633356e-001	-6.463045e-001
4333722.000	7.627832e-001	-6.470799e-001
4339716.000	7.621517e-001	-6.477289e-001
4345710.000	7.616831e-001	-6.483844e-001
4351704.000	7.609577e-001	-6.490362e-001
4357698.000	7.603736e-001	-6.498376e-001
4363692.000	7.598742e-001	-6.504961e-001
4369686.000	7.594290e-001	-6.511786e-001
4375680.000	7.586368e-001	-6.516901e-001
4381674.000	7.581407e-001	-6.524740e-001
4387668.000	7.575323e-001	-6.531798e-001
4393662.000	7.569928e-001	-6.537717e-001
4399656.000	7.563899e-001	-6.544670e-001
4405650.000	7.557657e-001	-6.550873e-001
4411644.000	7.551952e-001	-6.558093e-001
4417638.000	7.546206e-001	-6.565557e-001
4423632.000	7.540522e-001	-6.571368e-001
4429626.000	7.534425e-001	-6.579066e-001
4435620.000	7.529159e-001	-6.584733e-001
4441614.000	7.523275e-001	-6.593285e-001
4447608.000	7.516916e-001	-6.599071e-001
4453602.000	7.512180e-001	-6.605551e-001
4459596.000	7.505421e-001	-6.613105e-001
4465590.000	7.500289e-001	-6.618316e-001
4471584.000	7.493246e-001	-6.625410e-001
4477578.000	7.488487e-001	-6.631976e-001
4483572.000	7.482116e-001	-6.638740e-001
4489566.000	7.475029e-001	-6.645494e-001
4495560.000	7.469596e-001	-6.651353e-001
4501554.000	7.464507e-001	-6.658078e-001
4507548.000	7.458207e-001	-6.664688e-001
4513542.000	7.452591e-001	-6.672331e-001
4519536.000	7.447144e-001	-6.679578e-001
4525530.000	7.440291e-001	-6.685042e-001
4531524.000	7.434054e-001	-6.691540e-001
4537518.000	7.429461e-001	-6.698645e-001
4543512.000	7.421721e-001	-6.705499e-001
4549506.000	7.417062e-001	-6.712539e-001
4555500.000	7.411928e-001	-6.718001e-001
4561494.000	7.405248e-001	-6.724262e-001
4567488.000	7.399166e-001	-6.730857e-001
4573482.000	7.393025e-001	-6.736914e-001
4579476.000	7.387218e-001	-6.744091e-001
4585470.000	7.381773e-001	-6.751457e-001
4591464.000	7.376106e-001	-6.757163e-001
4597458.000	7.368829e-001	-6.763220e-001
4603452.000	7.364712e-001	-6.770819e-001
4609446.000	7.357379e-001	-6.776521e-001
4615440.000	7.351684e-001	-6.783056e-001
4621434.000	7.345225e-001	-6.790033e-001
4627428.000	7.340582e-001	-6.795635e-001
4633422.000	7.334456e-001	-6.802091e-001
4639416.000	7.328752e-001	-6.810322e-001
4645410.000	7.322044e-001	-6.816008e-001
4651404.000	7.316083e-001	-6.822117e-001
4657398.000	7.310787e-001	-6.829236e-001
4663392.000	7.303460e-001	-6.834412e-001
4669386.000	7.297187e-001	-6.841275e-001
4675380.000	7.291973e-001	-6.848586e-001
4681374.000	7.285730e-001	-6.854709e-001
4687368.000	7.280349e-001	-6.860543e-001
4693362.000	7.275376e-001	-6.867999e-001
4699356.000	7.268373e-001	-6.873613e-001
4705350.000	7.262440e-001	-6.879437e-001
4711344.000	7.255197e-001	-6.886413e-001
4717338.000	7.251262e-001	-6.893445e-001
4723332.000	7.244184e-001	-6.899008e-001
4729326.000	7.238324e-001	-6.905431e-001
4735320.000	7.231580e-001	-6.911046e-001
4741314.000	7.225699e-001	-6.917644e-001
4747308.000	7.220300e-001	-6.925493e-001
4753302.000	7.213323e-001	-6.929390e-001
4759296.000	7.207139e-001	-6.937227e-001
4765290.000	7.201897e-001	-6.943202e-001
4771284.000	7.194673e-001	-6.949406e-001
4777278.000	7.189386e-001	-6.955787e-001
4783272.000	7.182753e-001	-6.961221e-001
4789266.000	7.176991e-001	-6.969251e-001
4795260.000	7.170669e-001	-6.974030e-001
4801254.000	7.164998e-001	-6.981060e-001
4807248.000	7.159037e-001	-6.987505e-001
4813242.000	7.153019e-001	-6.994001e-001
4819236.000	7.146885e-001	-7.000467e-001
4825230.000	7.140064e-001	-7.005894e-001
4831224.000	7.134589e-001	-7.011609e-001
4837218.000	7.127768e-001	-7.018004e-001
4843212.000	7.121574e-001	-7.024614e-001
4849206.000	7.115589e-001	-7.030768e-001
4855200.000	7.110102e-001	-7.036832e-001
4861194.000	7.103331e-001	-7.042497e-001
4867188.000	7.097817e-001	-7.049753e-001
4873182.000	7.091387e-001	-7.055214e-001
4879176.000	7.085908e-001	-7.061624e-001
4885170.000	7.079732e-001	-7.067667e-001
4891164.000	7.072845e-001	-7.073906e-001
4897158.000	7.067754e-001	-7.080226e-001
4903152.000	7.061303e-001	-7.087012e-001
4909146.000	7.055646e-001	-7.090895e-001
4915140.000	7.048741e-001	-7.099267e-001
4921134.000	7.042837e-001	-7.104394e-001
4927128.000	7.036683e-001	-7.110013e-001
4933122.000	7.030203e-001	-7.116687e-001
4939116.000	7.024317e-001	-7.122478e-001
4945110.000	7.019407e-001	-7.129406e-001
4951104.000	7.013292e-001	-7.133906e-001
4957098.000	7.005859e-001	-7.142380e-001
4963092.000	7.000466e-001	-7.147274e-001
4969086.000	6.993624e-001	-7.152564e-001
4975080.000	6.987802e-001	-7.159121e-001
4981074.000	6.981182e-001	-7.166094e-001
4987068.000	6.977131e-001	-7.170492e-001
4993062.000	6.969867e-001	-7.177556e-001
4999056.000	6.963385e-001	-7.183103e-001
5005050.000	6.957557e-001	-7.189690e-001
5011044.000	6.950365e-001	-7.195098e-001
5017038.000	6.944038e-001	-7.200324e-001
5023032.000	6.937832e-001	-7.206622e-001
5029026.000	6.931862e-001	-7.213309e-001
5035020.000	6.925104e-001	-7.218148e-001
5041014.000	6.920124e-001	-7.224896e-001
5047008.000	6.914293e-001	-7.231466e-001
5053002.000	6.906082e-001	-7.236168e-001
5058996.000	6.900518e-001	-7.242485e-001
5064990.000	6.894131e-001	-7.248324e-001
5070984.000	6.889164e-001	-7.253926e-001
5076978.000	6.881449e-001	-7.259433e-001
5082972.000	6.875765e-001	-7.267479e-001
5088966.000	6.869881e-001	-7.272382e-001
5094960.000	6.863233e-001	-7.277605e-001
5100954.000	6.857416e-001	-7.283989e-001
5106948.000	6.852034e-001	-7.289833e-001
5112942.000	6.845485e-001	-7.296139e-001
5118936.000	6.838916e-001	-7.301510e-001
5124930.000	6.832624e-001	-7.306756e-001
5130924.000	6.826683e-001	-7.313320e-001
5136918.000	6.820527e-001	-7.318583e-001
5142912.000	6.814004e-001	-7.324842e-001
5148906.000	6.807233e-001	-7.331547e-001
5154900.000	6.801559e-001	-7.336399e-001
5160894.000	6.795100e-001	-7.341803e-001
5166888.000	6.789168e-001	-7.349531e-001
5172882.000	6.783028e-001	-7.354522e-001
5178876.000	6.776396e-001	-7.359609e-001
5184870.000	6.770923e-001	-7.364863e-001
5190864.000	6.764602e-001	-7.372002e-001
5196858.000	6.757823e-001	-7.376792e-001
5202852.000	6.750649e-001	-7.382866e-001
5208846.000	6.745818e-001	-7.389444e-001
5214840.000	6.739168e-001	-7.394553e-001
5220834.000	6.732286e-001	-7.400337e-001
5226828.000	6.727739e-001	-7.405656e-001
5232822.000	6.720297e-001	-7.412120e-001
5238816.000	6.713889e-001	-7.417976e-001
5244810.000	6.707151e-001	-7.422323e-001
5250804.000	6.701776e-001	-7.428519e-001
5256798.000	6.695036e-001	-7.435487e-001
5262792.000	6.689705e-001	-7.440302e-001
5268786.000	6.683129e-001	-7.446436e-001
5274780.000	6.676082e-001	-7.451214e-001
5280774.000	6.669634e-001	-7.458173e-001
5286768.000	6.663611e-001	-7.462793e-001
5292762.000	6.658842e-001	-7.468360e-001
5298756.000	6.650985e-001	-7.474190e-001
5304750.000	6.644504e-001	-7.480544e-001
5310744.000	6.638411e-001	-7.485667e-001
5316738.000	6.631513e-001	-7.489916e-001
5322732.000	6.626025e-001	-7.495581e-001
5328726.000	6.619502e-001	-7.501594e-001
5334720.000	6.613076e-001	-7.506930e-001
5340714.000	6.606452e-001	-7.513087e-001
5346708.000	6.601303e-001	-7.519994e-001
5352702.000	6.594337e-001	-7.524949e-001
5358696.000	6.586827e-001	-7.529559e-001
5364690.000	6.580837e-001	-7.535715e-001
5370684.000	6.574592e-001	-7.541442e-001
5376678.000	6.568831e-001	-7.546527e-001
5382672.000	6.562102e-001	-7.552398e-001
5388666.000	6.555324e-001	-7.557545e-001
5394660.000	6.549741e-001	-7.562551e-001
5400654.000	6.543486e-001	-7.568079e-001
5406648.000	6.537088e-001	-7.573479e-001
5412642.000	6.530690e-001	-7.579593e-001
5418636.000	6.523955e-001	-7.584923e-001
5424630.000	6.517633e-001	-7.590384e-001
5430624.000	6.511585e-001	-7.596215e-001
5436618.000	6.504460e-001	-7.600439e-001
5442612.000	6.498761e-001	-7.607480e-001
5448606.000	6.492668e-001	-7.612527e-001
5454600.000	6.486243e-001	-7.617655e-001
5460594.000	6.479453e-001	-7.623061e-001
5466588.000	6.473963e-001	-7.630050e-001
5472582.000	6.467679e-001	-7.635092e-001
5478576.000	6.461237e-001	-7.639155e-001
5484570.000	6.454368e-001	-7.644817e-001
5490564.000	6.447491e-001	-7.649870e-001
5496558.000	6.441096e-001	-7.656727e-001
5502552.000	6.434864e-001	-7.662068e-001
5508546.000	6.428509e-001	-7.666668e-001
5514540.000	6.422749e-001	-7.672004e-001
5520534.000	6.414933e-001	-7.676273e-001
5526528.000	6.409524e-001	-7.682016e-001
5532522.000	6.402367e-001	-7.688003e-001
5538516.000	6.397211e-001	-7.693736e-001
5544510.000	6.391164e-001	-7.698204e-001
5550504.000	6.383962e-001	-7.704105e-001
5556498.000	6.377108e-001	-7.709584e-001
5562492.000	6.371993e-001	-7.714371e-001
5568486.000	6.364565e-001	-7.720210e-001
5574480.000	6.358006e-001	-7.725650e-001
5580474.000	6.352497e-001	-7.729979e-001
5586468.000	6.345916e-001	-7.736082e-001
5592462.000	6.339801e-001	-7.741668e-001
5598456.000	6.333669e-001	-7.746896e-001
5604450.000	6.325899e-001	-7.752348e-001
5610444.000	6.320695e-001	-7.756736e-001
5616438.000	6.313830e-001	-7.762247e-001
5622432.000	6.307290e-001	-7.768274e-001
5628426.000	6.300074e-001	-7.772051e-001
5634420.000	6.295059e-001	-7.778395e-001
5640414.000	6.287684e-001	-7.784279e-001
5646408.000	6.281286e-001	-7.788031e-001
5652402.000	6.274750e-001	-7.793763e-001
5658396.000	6.268476e-001	-7.797699e-001
5664390.000	6.262539e-001	-7.804062e-001
5670384.000	6.255324e-001	-7.809071e-001
5676378.000	6.249577e-001	-7.814704e-001
5682372.000	6.243120e-001	-7.820158e-001
5688366.000	6.235981e-001	-7.825029e-001
5694360.000	6.230246e-001	-7.829521e-001
5700354.000	6.224375e-001	-7.834758e-001
5706348.000	6.217241e-001	-7.840325e-001
5712342.000	6.210881e-001	-7.844616e-001
5718336.000	6.204552e-001	-7.850521e-001
5724330.000	6.198512e-001	-7.855248e-001
5730324.000	6.191973e-001	-7.860188e-001
5736318.000	6.185558e-001	-7.865443e-001
5742312.000	6.179639e-001	-7.870632e-001
5748306.000	6.172071e-001	-7.875434e-001
5754300.000	6.165968e-001	-7.880566e-001
5760294.000	6.159589e-001	-7.886318e-001
5766288.000	6.152122e-001	-7.890957e-001
5772282.000	6.146788e-001	-7.895463e-001
5778276.000	6.140401e-001	-7.901523e-001
5784270.000	6.133793e-001	-7.906085e-001
5790264.000	6.127385e-001	-7.910956e-001
5796258.000	6.120365e-001	-7.915158e-001
5802252.000	6.112903e-001	-7.921153e-001
5808246.000	6.107141e-001	-7.924895e-001
5814240.000	6.100923e-001	-7.930846e-001
5820234.000	6.094896e-001	-7.935922e-001
5826228.000	6.087785e-001	-7.940784e-001
5832222.000	6.080939e-001	-7.946135e-001
5838216.000	6.075433e-001	-7.951211e-001
5844210.000	6.068464e-001	-7.955936e-001
5850204.000	6.062550e-001	-7.961013e-001
5856198.000	6.056131e-001	-7.965483e-001
5862192.000	6.049410e-001	-7.970687e-001
5868186.000	6.043398e-001	-7.976073e-001
5874180.000	6.036828e-001	-7.979795e-001
5880174.000	6.029841e-001	-7.985579e-001
5886168.000	6.023511e-001	-7.990584e-001
5892162.000	6.016499e-001	-7.994728e-001
5898156.000	6.010108e-001	-8.000693e-001
5904150.000	6.003598e-001	-8.005849e-001
5910144.000	5.998008e-001	-8.009334e-001
5916138.000	5.991477e-001	-8.015404e-001
5922132.000	5.984954e-001	-8.020076e-001
5928126.000	5.977465e-001	-8.024561e-001
5934120.000	5.970996e-001	-8.029694e-001
5940114.000	5.964500e-001	-8.034411e-001
5946108.000	5.958296e-001	-8.039099e-001
5952102.000	5.951778e-001	-8.044575e-001
5958096.000	5.945327e-001	-8.048238e-001
5964090.000	5.938433e-001	-8.054155e-001
5970084.000	5.932971e-001	-8.058375e-001
5976078.000	5.926428e-001	-8.063945e-001
5982072.000	5.918224e-001	-8.068336e-001
5988066.000	5.913381e-001	-8.071691e-001
5994060.000	5.905767e-001	-8.076940e-001
6000054.000	5.900158e-001	-8.083470e-001
6006048.000	5.893531e-001	-8.088493e-001
6012042.000	5.887510e-001	-8.093142e-001
6018036.000	5.880782e-001	-8.097348e-001
6024030.000	5.873990e-001	-8.102358e-001
6030024.000	5.867640e-001	-8.106733e-001
6036018.000	5.861220e-001	-8.112582e-001
6042012.000	5.854032e-001	-8.115871e-001
6048006.000	5.847813e-001	-8.120662e-001
6054000.000	5.841684e-001	-8.125619e-001
6059994.000	5.835268e-001	-8.130583e-001
6065988.000	5.828732e-001	-8.135933e-001
6071982.000	5.821398e-001	-8.139474e-001
6077976.000	5.815279e-001	-8.144012e-001
6083970.000	5.808617e-001	-8.149198e-001
6089964.000	5.801176e-001	-8.153679e-001
6095958.000	5.795944e-001	-8.158356e-001
6101952.000	5.788981e-001	-8.162857e-001
6107946.000	5.782427e-001	-8.168246e-001
6113940.000	5.775648e-001	-8.172697e-001
6119934.000	5.769368e-001	-8.177377e-001
6125928.000	5.763031e-001	-8.182124e-001
6131922.000	5.756869e-001	-8.185984e-001
6137916.000	5.749770e-001	-8.191622e-001
6143910.000	5.742553e-001	-8.195261e-001
6149904.000	5.736457e-001	-8.200042e-001
6155898.000	5.730639e-001	-8.204221e-001
6161892.000	5.723926e-001	-8.209108e-001
6167886.000	5.717178e-001	-8.214604e-001
6173880.000	5.710930e-001	-8.219034e-001
6179874.000	5.704920e-001	-8.223152e-001
6185868.000	5.698187e-001	-8.226980e-001
6191862.000	5.691373e-001	-8.233171e-001
6197856.000	5.685262e-001	-8.236890e-001
6203850.000	5.678531e-001	-8.241693e-001
6209844.000	5.671789e-001	-8.246333e-001
6215838.000	5.664946e-001	-8.250724e-001
6221832.000	5.657964e-001	-8.254791e-001
6227826.000	5.651019e-001	-8.259381e-001
6233820.000	5.645008e-001	-8.263925e-001
6239814.000	5.639025e-001	-8.268437e-001
6245808.000	5.631864e-001	-8.272935e-001
6251802.000	5.626221e-001	-8.277351e-001
6257796.000	5.619045e-001	-8.282099e-001
6263790.000	5.612456e-001	-8.287175e-001
6269784.000	5.605607e-001	-8.291789e-001
6275778.000	5.598478e-001	-8.295107e-001
6281772.000	5.592541e-001	-8.300138e-001
6287766.000	5.585875e-001	-8.303102e-001
6293760.000	5.579643e-001	-8.308550e-001
6299754.000	5.573628e-001	-8.313665e-001
6305748.000	5.566818e-001	-8.317644e-001
6311742.000	5.560761e-001	-8.321643e-001
6317736.000	5.553332e-001	-8.326362e-001
6323730.000	5.546246e-001	-8.331213e-001
6329724.000	5.539987e-001	-8.335200e-001
6335718.000	5.533412e-001	-8.340088e-001
6341712.000	5.527909e-001	-8.343938e-001
6347706.000	5.520883e-001	-8.348805e-001
6353700.000	5.514861e-001	-8.352892e-001
6359694.000	5.508181e-001	-8.357448e-001
6365688.000	5.500689e-001	-8.361202e-001
6371682.000	5.495638e-001	-8.365971e-001
6377676.000	5.487764e-001	-8.370971e-001
6383670.000	5.481286e-001	-8.374610e-001
6389664.000	5.474555e-001	-8.378875e-001
6395658.000	5.468694e-001	-8.383137e-001
6401652.000	5.462109e-001	-8.387768e-001
6407646.000	5.454728e-001	-8.391797e-001
6413640.000	5.448138e-001	-8.395737e-001
6419634.000	5.441514e-001	-8.400609e-001
6425628.000	5.434791e-001	-8.404612e-001
6431622.000	5.429044e-001	-8.409509e-001
6437616.000	5.422163e-001	-8.413280e-001
6443610.000	5.415821e-001	-8.417226e-001
6449604.000	5.408384e-001	-8.421126e-001
6455598.000	5.402066e-001	-8.426571e-001
6461592.000	5.395457e-001	-8.429335e-001
6467586.000	5.389386e-001	-8.433912e-001
6473580.000	5.382601e-001	-8.438803e-001
6479574.000	5.375184e-001	-8.442523e-001
6485568.000	5.369771e-001	-8.447096e-001
6491562.000	5.362968e-001	-8.451325e-001
6497556.000	5.357032e-001	-8.455854e-001
6503550.000	5.350016e-001	-8.459662e-001
6509544.000	5.343860e-001	-8.463261e-001
6515538.000	5.336441e-001	-8.468201e-001
6521532.000	5.329946e-001	-8.472306e-001
6527526.000	5.322229e-001	-8.475325e-001
6533520.000	5.317269e-001	-8.480813e-001
6539514.000	5.310887e-001	-8.483772e-001
6545508.000	5.303871e-001	-8.487280e-001
6551502.000	5.297870e-001	-8.492297e-001
6557496.000	5.290366e-001	-8.496934e-001
6563490.000	5.283601e-001	-8.500704e-001
6569484.000	5.277418e-001	-8.505564e-001
6575478.000	5.271115e-001	-8.508754e-001
6581472.000	5.264312e-001	-8.512549e-001
6587466.000	5.257046e-001	-8.517040e-001
6593460.000	5.251350e-001	-8.520810e-001
6599454.000	5.244598e-001	-8.525323e-001
6605448.000	5.237307e-001	-8.529261e-001
6611442.000	5.231406e-001	-8.533591e-001
6617436.000	5.224506e-001	-8.538051e-001
6623430.000	5.218116e-001	-8.540974e-001
6629424.000	5.211784e-001	-8.546277e-001
6635418.000	5.205180e-001	-8.550391e-001
6641412.000	5.199272e-001	-8.554296e-001
6647406.000	5.192071e-001	-8.557021e-001
6653400.000	5.184792e-001	-8.561723e-001
6659394.000	5.179325e-001	-8.566412e-001
6665388.000	5.172362e-001	-8.570231e-001
6671382.000	5.165787e-001	-8.573972e-001
6677376.000	5.158999e-001	-8.577130e-001
6683370.000	5.152408e-001	-8.581065e-001
6689364.000	5.146323e-001	-8.586797e-001
6695358.000	5.139348e-001	-8.590160e-001
6701352.000	5.131918e-001	-8.594709e-001
6707346.000	5.125555e-001	-8.598452e-001
6713340.000	5.119135e-001	-8.601608e-001
6719334.000	5.112887e-001	-8.605081e-001
6725328.000	5.106272e-001	-8.610307e-001
6731322.000	5.099595e-001	-8.613600e-001
6737316.000	5.093729e-001	-8.618033e-001
6743310.000	5.086127e-001	-8.620888e-001
6749304.000	5.079288e-001	-8.625377e-001
6755298.000	5.073319e-001	-8.628420e-001
6761292.000	5.067102e-001	-8.631945e-001
6767286.000	5.059041e-001	-8.636756e-001
6773280.000	5.054356e-001	-8.641204e-001
6779274.000	5.047028e-001	-8.644984e-001
6785268.000	5.039775e-001	-8.647950e-001
6791262.000	5.034012e-001	-8.651766e-001
6797256.000	5.026838e-001	-8.656086e-001
6803250.000	5.020378e-001	-8.659986e-001
6809244.000	5.013956e-001	-8.663812e-001
6815238.000	5.007454e-001	-8.667408e-001
6821232.000	5.001235e-001	-8.672300e-001
6827226.000	4.995260e-001	-8.675288e-001
6833220.000	4.987819e-001	-8.679398e-001
6839214.000	4.980867e-001	-8.682900e-001
6845208.000	4.974583e-001	-8.687041e-001
6851202.000	4.968445e-001	-8.690733e-001
6857196.000	4.961907e-001	-8.694740e-001
6863190.000	4.955194e-001	-8.697856e-001
6869184.000	4.947830e-001	-8.701569e-001
6875178.000	4.941857e-001	-8.705800e-001
6881172.000	4.935243e-001	-8.709388e-001
6887166.000	4.928776e-001	-8.712990e-001
6893160.000	4.921851e-001	-8.716345e-001
6899154.000	4.914811e-001	-8.720532e-001
6905148.000	4.908551e-001	-8.724556e-001
6911142.000	4.902104e-001	-8.728259e-001
6917136.000	4.895704e-001	-8.731523e-001
6923130.000	4.888813e-001	-8.735519e-001
6929124.000	4.882762e-001	-8.739031e-001
6935118.000	4.876432e-001	-8.743300e-001
6941112.000	4.868944e-001	-8.746828e-001
6947106.000	4.862969e-001	-8.751028e-001
6953100.000	4.855519e-001	-8.753675e-001
6959094.000	4.848984e-001	-8.757993e-001
6965088.000	4.842271e-001	-8.761030e-001
6971082.000	4.834875e-001	-8.765015e-001
6977076.000	4.829801e-001	-8.769623e-001
6983070.000	4.823145e-001	-8.772486e-001
6989064.000	4.816938e-001	-8.775669e-001
6995058.000	4.810027e-001	-8.779780e-001
7001052.000	4.803401e-001	-8.782746e-001
7007046.000	4.796346e-001	-8.786130e-001
7013040.000	4.790208e-001	-8.789637e-001
7019034.000	4.783689e-001	-8.794166e-001
7025028.000	4.777231e-001	-8.797534e-001
7031022.000	4.770305e-001	-8.801700e-001
7037016.000	4.764301e-001	-8.805308e-001
7043010.000	4.756985e-001	-8.807993e-001
7049004.000	4.750577e-001	-8.811122e-001
7054998.000	4.743230e-001	-8.816534e-001
7060992.000	4.737582e-001	-8.820052e-001
7066986.000	4.731426e-001	-8.822985e-001
7072980.000	4.724337e-001	-8.826785e-001
7078974.000	4.718366e-001	-8.829169e-001
7084968.000	4.711449e-001	-8.832902e-001
7090962.000	4.704386e-001	-8.836398e-001
7096956.000	4.697986e-001	-8.839443e-001
7102950.000	4.690806e-001	-8.843391e-001
7108944.000	4.684342e-001	-8.848626e-001
7114938.000	4.678975e-001	-8.850793e-001
7120932.000	4.672214e-001	-8.854132e-001
7126926.000	4.665568e-001	-8.857843e-001
7132920.000	4.658930e-001	-8.861203e-001
7138914.000	4.652337e-001	-8.864968e-001
7144908.000	4.646168e-001	-8.868571e-001
7150902.000	4.638831e-001	-8.872127e-001
7156896.000	4.632226e-001	-8.874455e-001
7162890.000	4.625458e-001	-8.879066e-001
7168884.000	4.619181e-001	-8.882600e-001
7174878.000	4.612117e-001	-8.885467e-001
7180872.000	4.605938e-001	-8.889536e-001
7186866.000	4.599683e-001	-8.892404e-001
7192860.000	4.592319e-001	-8.895718e-001
7198854.000	4.587213e-001	-8.899073e-001
7204848.000	4.580020e-001	-8.902209e-001
7210842.000	4.573272e-001	-8.906017e-001
7216836.000	4.566308e-001	-8.908280e-001
7222830.000	4.560336e-001	-8.912023e-001
7228824.000	4.553486e-001	-8.916393e-001
7234818.000	4.546882e-001	-8.919788e-001
7240812.000	4.540556e-001	-8.923205e-001
7246806.000	4.534165e-001	-8.926081e-001
7252800.000	4.527079e-001	-8.929488e-001
7258794.000	4.520708e-001	-8.932260e-001
7264788.000	4.514629e-001	-8.935658e-001
7270782.000	4.506834e-001	-8.939467e-001
7276776.000	4.500893e-001	-8.943590e-001
7282770.000	4.492918e-001	-8.944915e-001
7288764.000	4.487105e-001	-8.949215e-001
7294758.000	4.480721e-001	-8.952989e-001
7300752.000	4.474015e-001	-8.955341e-001
7306746.000	4.468189e-001	-8.958074e-001
7312740.000	4.461108e-001	-8.962641e-001
7318734.000	4.454564e-001	-8.965372e-001
7324728.000	4.448029e-001	-8.969788e-001
7330722.000	4.441844e-001	-8.973573e-001
7336716.000	4.435296e-001	-8.976349e-001
7342710.000	4.428488e-001	-8.979685e-001
7348704.000	4.422566e-001	-8.982954e-001
7354698.000	4.415054e-001	-8.984671e-001
7360692.000	4.408017e-001	-8.989038e-001
7366686.000	4.402940e-001	-8.991943e-001
7372680.000	4.395162e-001	-8.994246e-001
7378674.000	4.388021e-001	-8.997754e-001
7384668.000	4.382386e-001	-9.001977e-001
7390662.000	4.376544e-001	-9.004268e-001
7396656.000	4.368969e-001	-9.008283e-001
7402650.000	4.363058e-001	-9.011847e-001
7408644.000	4.356500e-001	-9.015099e-001
7414638.000	4.348929e-001	-9.017289e-001
7420632.000	4.341653e-001	-9.018426e-001
7426626.000	4.335527e-001	-9.023985e-001
7432620.000	4.329646e-001	-9.026480e-001
7438614.000	4.322867e-001	-9.029460e-001
7444608.000	4.315625e-001	-9.031906e-001
7450602.000	4.308628e-001	-9.035849e-001
7456596.000	4.302983e-001	-9.038611e-001
7462590.000	4.296365e-001	-9.041770e-001
7468584.000	4.288877e-001	-9.045896e-001
7474578.000	4.282667e-001	-9.048748e-001
7480572.000	4.276631e-001	-9.050888e-001
7486566.000	4.270204e-001	-9.054348e-001
7492560.000	4.263403e-001	-9.058407e-001
7498554.000	4.257309e-001	-9.061653e-001
7504548.000	4.249824e-001	-9.063895e-001
7510542.000	4.243691e-001	-9.067374e-001
7516536.000	4.237292e-001	-9.070083e-001
7522530.000	4.230624e-001	-9.074375e-001
7528524.000	4.224469e-001	-9.075172e-001
7534518.000	4.217703e-001	-9.079579e-001
7540512.000	4.211388e-001	-9.082513e-001
7546506.000	4.204434e-001	-9.085912e-001
7552500.000	4.198430e-001	-9.089465e-001
7558494.000	4.191133e-001	-9.091308e-001
7564488.000	4.186106e-001	-9.094392e-001
7570482.000	4.178272e-001	-9.097754e-001
7576476.000	4.171482e-001	-9.101034e-001
7582470.000	4.165378e-001	-9.103351e-001
7588464.000	4.158978e-001	-9.106157e-001
7594458.000	4.152745e-001	-9.109318e-001
7600452.000	4.146311e-001	-9.112857e-001
7606446.000	4.138655e-001	-9.115750e-001
7612440.000	4.132908e-001	-9.118488e-001
7618434.000	4.125529e-001	-9.120970e-001
7624428.000	4.119281e-001	-9.123683e-001
7630422.000	4.113159e-001	-9.127461e-001
7636416.000	4.106535e-001	-9.129941e-001
7642410.000	4.099311e-001	-9.134045e-001
7648404.000	4.093990e-001	-9.137236e-001
7654398.000	4.087644e-001	-9.139724e-001
7660392.000	4.080233e-001	-9.142263e-001
7666386.000	4.073323e-001	-9.146171e-001
7672380.000	4.066999e-001	-9.147689e-001
7678374.000	4.060751e-001	-9.151389e-001
7684368.000	4.054668e-001	-9.153505e-001
7690362.000	4.048347e-001	-9.157682e-001
7696356.000	4.042421e-001	-9.160031e-001
7702350.000	4.035606e-001	-9.163602e-001
7708344.000	4.029811e-001	-9.166371e-001
7714338.000	4.023157e-001	-9.169286e-001
7720332.000	4.015879e-001	-9.171822e-001
7726326.000	4.009226e-001	-9.173866e-001
7732320.000	4.002665e-001	-9.177644e-001
7738314.000	3.996806e-001	-9.180503e-001
7744308.000	3.990292e-001	-9.183429e-001
7750302.000	3.982673e-001	-9.185674e-001
7756296.000	3.977223e-001	-9.188414e-001
7762290.000	3.969899e-001	-9.191487e-001
7768284.000	3.963121e-001	-9.194268e-001
7774278.000	3.957280e-001	-9.197142e-001
7780272.000	3.951643e-001	-9.200357e-001
7786266.000	3.945246e-001	-9.203412e-001
7792260.000	3.938006e-001	-9.205182e-001
7798254.000	3.931355e-001	-9.209964e-001
7804248.000	3.924160e-001	-9.211965e-001
7810242.000	3.918610e-001	-9.214117e-001
7816236.000	3.912498e-001	-9.217325e-001
7822230.000	3.906402e-001	-9.220563e-001
7828224.000	3.898424e-001	-9.222751e-001
7834218.000	3.892137e-001	-9.225815e-001
7840212.000	3.886096e-001	-9.228157e-001
7846206.000	3.879711e-001	-9.230666e-001
7852200.000	3.873417e-001	-9.233798e-001
7858194.000	3.866599e-001	-9.237026e-001
7864188.000	3.859731e-001	-9.239338e-001
7870182.000	3.853122e-001	-9.242054e-001
7876176.000	3.847663e-001	-9.244825e-001
7882170.000	3.839907e-001	-9.246883e-001
7888164.000	3.833518e-001	-9.249663e-001
7894158.000	3.827878e-001	-9.253642e-001
7900152.000	3.820536e-001	-9.255907e-001
7906146.000	3.814595e-001	-9.258183e-001
7912140.000	3.807236e-001	-9.261403e-001
7918134.000	3.801745e-001	-9.263490e-001
7924128.000	3.795941e-001	-9.266520e-001
7930122.000	3.789240e-001	-9.268736e-001
7936116.000	3.782521e-001	-9.271360e-001
7942110.000	3.776014e-001	-9.274145e-001
7948104.000	3.769593e-001	-9.277894e-001
7954098.000	3.761703e-001	-9.279149e-001
7960092.000	3.756456e-001	-9.282872e-001
7966086.000	3.750005e-001	-9.285445e-001
7972080.000	3.742784e-001	-9.287485e-001
7978074.000	3.737701e-001	-9.289885e-001
7984068.000	3.730843e-001	-9.292369e-001
7990062.000	3.723677e-001	-9.295829e-001
7996056.000	3.716871e-001	-9.298693e-001
8002050.000	3.711264e-001	-9.301001e-001
8008044.000	3.704359e-001	-9.303204e-001
8014038.000	3.697854e-001	-9.305686e-001
8020032.000	3.691348e-001	-9.308279e-001
8026026.000	3.684970e-001	-9.310722e-001
8032020.000	3.679168e-001	-9.313987e-001
8038014.000	3.672596e-001	-9.315673e-001
8044008.000	3.666155e-001	-9.319866e-001
8050002.000	3.659510e-001	-9.320877e-001
8055996.000	3.652926e-001	-9.324319e-001
8061990.000	3.646702e-001	-9.326060e-001
8067984.000	3.640791e-001	-9.327968e-001
8073978.000	3.632739e-001	-9.331306e-001
8079972.000	3.626593e-001	-9.334032e-001
8085966.000	3.620834e-001	-9.335990e-001
8091960.000	3.614018e-001	-9.339040e-001
8097954.000	3.607322e-001	-9.341150e-001
8103948.000	3.601448e-001	-9.345259e-001
8109942.000	3.594518e-001	-9.346631e-001
8115936.000	3.589341e-001	-9.348877e-001
8121930.000	3.581844e-001	-9.351829e-001
8127924.000	3.575992e-001	-9.354085e-001
8133918.000	3.569429e-001	-9.356742e-001
8139912.000	3.562826e-001	-9.359047e-001
8145906.000	3.555964e-001	-9.360470e-001
8151900.000	3.549889e-001	-9.363171e-001
8157894.000	3.543269e-001	-9.366538e-001
8163888.000	3.536682e-001	-9.368399e-001
8169882.000	3.531075e-001	-9.371508e-001
8175876.000	3.524854e-001	-9.374141e-001
8181870.000	3.517271e-001	-9.375876e-001
8187864.000	3.511855e-001	-9.378156e-001
8193858.000	3.504789e-001	-9.380809e-001
8199852.000	3.498650e-001	-9.383677e-001
8205846.000	3.492046e-001	-9.385940e-001
8211840.000	3.485631e-001	-9.388164e-001
8217834.000	3.478928e-001	-9.389662e-001
8223828.000	3.472479e-001	-9.392620e-001
8229822.000	3.465820e-001	-9.394933e-001
8235816.000	3.459712e-001	-9.397064e-001
8241810.000	3.452126e-001	-9.399989e-001
8247804.000	3.446545e-001	-9.401447e-001
8253798.000	3.440912e-001	-9.404560e-001
8259792.000	3.433794e-001	-9.407063e-001
8265786.000	3.426948e-001	-9.409739e-001
8271780.000	3.421464e-001	-9.412357e-001
8277774.000	3.414224e-001	-9.413711e-001
8283768.000	3.408009e-001	-9.416575e-001
8289762.000	3.401752e-001	-9.418522e-001
8295756.000	3.396014e-001	-9.421143e-001
8301750.000	3.389163e-001	-9.423627e-001
8307744.000	3.383018e-001	-9.425355e-001
8313738.000	3.377411e-001	-9.428492e-001
8319732.000	3.369893e-001	-9.430683e-001
8325726.000	3.363979e-001	-9.432102e-001
8331720.000	3.356951e-001	-9.435301e-001
8337714.000	3.350953e-001	-9.437444e-001
8343708.000	3.344120e-001	-9.438592e-001
8349702.000	3.338665e-001	-9.441619e-001
8355696.000	3.331477e-001	-9.444209e-001
8361690.000	3.325658e-001	-9.446413e-001
8367684.000	3.319495e-001	-9.449314e-001
8373678.000	3.313022e-001	-9.450545e-001
8379672.000	3.306365e-001	-9.452568e-001
8385666.000	3.300058e-001	-9.455767e-001
8391660.000	3.294065e-001	-9.457018e-001
8397654.000	3.286768e-001	-9.459905e-001
8403648.000	3.281783e-001	-9.463052e-001
8409642.000	3.273981e-001	-9.464012e-001
8415636.000	3.267671e-001	-9.466306e-001
8421630.000	3.261282e-001	-9.468560e-001
8427624.000	3.255232e-001	-9.471692e-001
8433618.000	3.248254e-001	-9.473687e-001
8439612.000	3.242521e-001	-9.475530e-001
8445606.000	3.236778e-001	-9.477822e-001
8451600.000	3.229653e-001	-9.479756e-001
8457594.000	3.224510e-001	-9.482917e-001
8463588.000	3.216841e-001	-9.483748e-001
8469582.000	3.210698e-001	-9.485761e-001
8475576.000	3.204753e-001	-9.487968e-001
8481570.000	3.197724e-001	-9.486124e-001
8487564.000	3.191154e-001	-9.487982e-001
8493558.000	3.184553e-001	-9.490330e-001
8499552.000	3.178215e-001	-9.493199e-001
8505546.000	3.171743e-001	-9.495466e-001
8511540.000	3.165431e-001	-9.497989e-001
8517534.000	3.159032e-001	-9.499190e-001
8523528.000	3.152910e-001	-9.501543e-001
8529522.000	3.146548e-001	-9.503552e-001
8535516.000	3.140366e-001	-9.505544e-001
8541510.000	3.133343e-001	-9.507603e-001
8547504.000	3.127115e-001	-9.509817e-001
8553498.000	3.121006e-001	-9.511818e-001
8559492.000	3.114909e-001	-9.514466e-001
8565486.000	3.108812e-001	-9.516083e-001
8571480.000	3.102326e-001	-9.518423e-001
8577474.000	3.096219e-001	-9.520354e-001
8583468.000	3.088996e-001	-9.522021e-001
8589462.000	3.083187e-001	-9.524633e-001
8595456.000	3.076989e-001	-9.526270e-001
8601450.000	3.070363e-001	-9.528810e-001
8607444.000	3.064054e-001	-9.530765e-001
8613438.000	3.057969e-001	-9.532457e-001
8619432.000	3.051646e-001	-9.535062e-001
8625426.000	3.045300e-001	-9.536378e-001
8631420.000	3.038910e-001	-9.538728e-001
8637414.000	3.032872e-001	-9.540561e-001
8643408.000	3.026351e-001	-9.543088e-001
8649402.000	3.020021e-001	-9.545364e-001
8655396.000	3.013737e-001	-9.547284e-001
8661390.000	3.007301e-001	-9.549087e-001
8667384.000	3.000856e-001	-9.551224e-001
8673378.000	2.994467e-001	-9.553056e-001
8679372.000	2.988716e-001	-9.554622e-001
8685366.000	2.982175e-001	-9.556865e-001
8691360.000	2.976195e-001	-9.558959e-001
8697354.000	2.969651e-001	-9.561011e-001
8703348.000	2.963654e-001	-9.562705e-001
8709342.000	2.957429e-001	-9.564568e-001
8715336.000	2.950739e-001	-9.566577e-001
8721330.000	2.944517e-001	-9.568989e-001
8727324.000	2.938411e-001	-9.571037e-001
8733318.000	2.931787e-001	-9.573203e-001
8739312.000	2.925978e-001	-9.574274e-001
8745306.000	2.919304e-001	-9.576511e-001
8751300.000	2.913311e-001	-9.578286e-001
8757294.000	2.906889e-001	-9.580319e-001
8763288.000	2.900339e-001	-9.582469e-001
8769282.000	2.894163e-001	-9.584381e-001
8775276.000	2.888056e-001	-9.586484e-001
8781270.000	2.881462e-001	-9.588173e-001
8787264.000	2.875432e-001	-9.589852e-001
8793258.000	2.869417e-001	-9.591865e-001
8799252.000	2.862662e-001	-9.593602e-001
8805246.000	2.856358e-001	-9.595119e-001
8811240.000	2.850337e-001	-9.597347e-001
8817234.000	2.844713e-001	-9.599675e-001
8823228.000	2.838540e-001	-9.600915e-001
8829222.000	2.831884e-001	-9.602839e-001
8835216.000	2.825657e-001	-9.604663e-001
8841210.000	2.818714e-001	-9.606284e-001
8847204.000	2.813002e-001	-9.608061e-001
8853198.000	2.807556e-001	-9.610197e-001
8859192.000	2.800412e-001	-9.612449e-001
8865186.000	2.794564e-001	-9.614003e-001
8871180.000	2.788202e-001	-9.615628e-001
8877174.000	2.781918e-001	-9.617732e-001
8883168.000	2.775983e-001	-9.619678e-001
8889162.000	2.769641e-001	-9.621206e-001
8895156.000	2.763271e-001	-9.623310e-001
8901150.000	2.757348e-001	-9.624935e-001
8907144.000	2.750902e-001	-9.627129e-001
8913138.000	2.743885e-001	-9.628636e-001
8919132.000	2.738615e-001	-9.630257e-001
8925126.000	2.732182e-001	-9.631788e-001
8931120.000	2.725751e-001	-9.633955e-001
8937114.000	2.719872e-001	-9.635820e-001
8943108.000	2.713283e-001	-9.637451e-001
8949102.000	2.706757e-001	-9.638848e-001
8955096.000	2.700961e-001	-9.640742e-001
8961090.000	2.694838e-001	-9.642392e-001
8967084.000	2.688455e-001	-9.644391e-001
8973078.000	2.682181e-001	-9.646827e-001
8979072.000	2.676152e-001	-9.647909e-001
8985066.000	2.670143e-001	-9.649953e-001
8991060.000	2.663733e-001	-9.652202e-001
8997054.000	2.657678e-001	-9.652780e-001
9003048.000	2.651719e-001	-9.655118e-001
9009042.000	2.644972e-001	-9.656750e-001
9015036.000	2.638911e-001	-9.658306e-001
9021030.000	2.632924e-001	-9.659682e-001
9027024.000	2.626277e-001	-9.661567e-001
9033018.000	2.620197e-001	-9.663599e-001
9039012.000	2.614030e-001	-9.665049e-001
9045006.000	2.608255e-001	-9.666977e-001
9051000.000	2.601967e-001	-9.668728e-001
9056994.000	2.595684e-001	-9.669653e-001
9062988.000	2.589544e-001	-9.671795e-001
9068982.000	2.583312e-001	-9.673156e-001
9074976.000	2.577470e-001	-9.675126e-001
9080970.000	2.571024e-001	-9.677144e-001
9086964.000	2.565287e-001	-9.678846e-001
9092958.000	2.558370e-001	-9.680508e-001
9098952.000	2.552670e-001	-9.682124e-001
9104946.000	2.546288e-001	-9.683596e-001
9110940.000	2.540233e-001	-9.685036e-001
9116934.000	2.533943e-001	-9.686413e-001
9122928.000	2.527278e-001	-9.688618e-001
9128922.000	2.521496e-001	-9.690145e-001
9134916.000	2.515073e-001	-9.691295e-001
9140910.000	2.509652e-001	-9.692838e-001
9146904.000	2.502863e-001	-9.694743e-001
9152898.000	2.496961e-001	-9.696188e-001
9158892.000	2.490953e-001	-9.697763e-001
9164886.000	2.484982e-001	-9.699231e-001
9170880.000	2.478365e-001	-9.701146e-001
9176874.000	2.472604e-001	-9.702989e-001
9182868.000	2.466623e-001	-9.704536e-001
9188862.000	2.460047e-001	-9.705976e-001
9194856.000	2.454234e-001	-9.707402e-001
9200850.000	2.448020e-001	-9.709202e-001
9206844.000	2.441878e-001	-9.710584e-001
9212838.000	2.435296e-001	-9.711832e-001
9218832.000	2.429428e-001	-9.713670e-001
9224826.000	2.423315e-001	-9.715370e-001
9230820.000	2.417353e-001	-9.716820e-001
9236814.000	2.411487e-001	-9.718470e-001
9242808.000	2.405294e-001	-9.719589e-001
9248802.000	2.398746e-001	-9.721514e-001
9254796.000	2.392432e-001	-9.723172e-001
9260790.000	2.386981e-001	-9.723861e-001
9266784.000	2.380782e-001	-9.726024e-001
9272778.000	2.374836e-001	-9.727690e-001
9278772.000	2.368130e-001	-9.728913e-001
9284766.000	2.362353e-001	-9.730225e-001
9290760.000	2.355959e-001	-9.732173e-001
9296754.000	2.349998e-001	-9.733822e-001
9302748.000	2.343549e-001	-9.735026e-001
9308742.000	2.337955e-001	-9.736092e-001
9314736.000	2.331570e-001	-9.738057e-001
9320730.000	2.325823e-001	-9.739285e-001
9326724.000	2.319549e-001	-9.740571e-001
9332718.000	2.313377e-001	-9.742314e-001
9338712.000	2.307221e-001	-9.743694e-001
9344706.000	2.301468e-001	-9.744773e-001
9350700.000	2.295471e-001	-9.746710e-001
9356694.000	2.289371e-001	-9.747613e-001
9362688.000	2.283024e-001	-9.748827e-001
9368682.000	2.277484e-001	-9.750760e-001
9374676.000	2.270701e-001	-9.752258e-001
9380670.000	2.264915e-001	-9.753359e-001
9386664.000	2.258530e-001	-9.755101e-001
9392658.000	2.253174e-001	-9.756509e-001
9398652.000	2.246872e-001	-9.758076e-001
9404646.000	2.240444e-001	-9.759405e-001
9410640.000	2.234467e-001	-9.761170e-001
9416634.000	2.228278e-001	-9.762173e-001
9422628.000	2.222697e-001	-9.763487e-001
9428622.000	2.216095e-001	-9.764866e-001
9434616.000	2.210223e-001	-9.766226e-001
9440610.000	2.204292e-001	-9.767585e-001
9446604.000	2.198211e-001	-9.769337e-001
9452598.000	2.192331e-001	-9.770649e-001
9458592.000	2.186184e-001	-9.772413e-001
9464586.000	2.180138e-001	-9.773353e-001
9470580.000	2.174200e-001	-9.775445e-001
9476574.000	2.168195e-001	-9.775991e-001
9482568.000	2.162017e-001	-9.777066e-001
9488562.000	2.156230e-001	-9.778476e-001
9494556.000	2.150018e-001	-9.779681e-001
9500550.000	2.143979e-001	-9.780984e-001
9506544.000	2.138100e-001	-9.782471e-001
9512538.000	2.131838e-001	-9.783846e-001
9518532.000	2.125939e-001	-9.784674e-001
9524526.000	2.119620e-001	-9.786228e-001
9530520.000	2.113382e-001	-9.787714e-001
9536514.000	2.107552e-001	-9.789094e-001
9542508.000	2.101659e-001	-9.790435e-001
9548502.000	2.095624e-001	-9.791433e-001
9554496.000	2.089965e-001	-9.793214e-001
9560490.000	2.083946e-001	-9.794131e-001
9566484.000	2.078062e-001	-9.794937e-001
9572478.000	2.071784e-001	-9.797077e-001
9578472.000	2.065718e-001	-9.797568e-001
9584466.000	2.059052e-001	-9.799428e-001
9590460.000	2.053458e-001	-9.800492e-001
9596454.000	2.047768e-001	-9.801631e-001
9602448.000	2.041683e-001	-9.803125e-001
9608442.000	2.035791e-001	-9.803782e-001
9614436.000	2.029746e-001	-9.805378e-001
9620430.000	2.023629e-001	-9.806900e-001
9626424.000	2.017701e-001	-9.808387e-001
9632418.000	2.011714e-001	-9.809173e-001
9638412.000	2.005697e-001	-9.810748e-001
9644406.000	2.000145e-001	-9.811997e-001
9650400.000	1.993646e-001	-9.813200e-001
9656394.000	1.988079e-001	-9.814515e-001
9662388.000	1.981914e-001	-9.815501e-001
9668382.000	1.975909e-001	-9.816876e-001
9674376.000	1.969970e-001	-9.817737e-001
9680370.000	1.963593e-001	-9.819548e-001
9686364.000	1.957888e-001	-9.820376e-001
9692358.000	1.951948e-001	-9.821398e-001
9698352.000	1.945991e-001	-9.822870e-001
9704346.000	1.940443e-001	-9.824446e-001
9710340.000	1.934159e-001	-9.825181e-001
9716334.000	1.928723e-001	-9.826637e-001
9722328.000	1.922490e-001	-9.827323e-001
9728322.000	1.916351e-001	-9.828663e-001
9734316.000	1.910085e-001	-9.829790e-001
9740310.000	1.904952e-001	-9.831083e-001
9746304.000	1.898904e-001	-9.832381e-001
9752298.000	1.892225e-001	-9.833371e-001
9758292.000	1.886887e-001	-9.834242e-001
9764286.000	1.880863e-001	-9.835781e-001
9770280.000	1.875165e-001	-9.837011e-001
9776274.000	1.869293e-001	-9.837915e-001
9782268.000	1.863222e-001	-9.838685e-001
9788262.000	1.857267e-001	-9.840577e-001
9794256.000	1.850682e-001	-9.841127e-001
9800250.000	1.845579e-001	-9.842437e-001
9806244.000	1.839440e-001	-9.842991e-001
9812238.000	1.833634e-001	-9.844550e-001
9818232.000	1.827551e-001	-9.845486e-001
9824226.000	1.821687e-001	-9.846608e-001
9830220.000	1.816007e-001	-9.847928e-001
9836214.000	1.810156e-001	-9.849227e-001
9842208.000	1.803996e-001	-9.850075e-001
9848202.000	1.798329e-001	-9.851234e-001
9854196.000	1.792272e-001	-9.852243e-001
9860190.000	1.785869e-001	-9.853136e-001
9866184.000	1.780693e-001	-9.854139e-001
9872178.000	1.774235e-001	-9.855236e-001
9878172.000	1.768727e-001	-9.856273e-001
9884166.000	1.762504e-001	-9.857793e-001
9890160.000	1.756444e-001	-9.858818e-001
9896154.000	1.750500e-001	-9.860294e-001
9902148.000	1.744981e-001	-9.861008e-001
9908142.000	1.738967e-001	-9.861988e-001
9914136.000	1.733511e-001	-9.862912e-001
9920130.000	1.727506e-001	-9.864534e-001
9926124.000	1.721458e-001	-9.865241e-001
9932118.000	1.715723e-001	-9.866201e-001
9938112.000	1.709392e-001	-9.867608e-001
9944106.000	1.703606e-001	-9.868588e-001
9950100.000	1.697934e-001	-9.869575e-001
9956094.000	1.691989e-001	-9.869853e-001
9962088.000	1.686542e-001	-9.870924e-001
9968082.000	1.680053e-001	-9.872474e-001
9974076.000	1.674394e-001	-9.873482e-001
9980070.000	1.668689e-001	-9.874413e-001
9986064.000	1.662787e-001	-9.875797e-001
9992058.000	1.657073e-001	-9.876475e-001
9998052.000	1.650897e-001	-9.877852e-001
10004046.000	1.645310e-001	-9.878695e-001
10010040.000	1.639451e-001	-9.878853e-001
10016034.000	1.633963e-001	-9.879786e-001
10022028.000	1.627519e-001	-9.881239e-001
10028022.000	1.622231e-001	-9.881855e-001
10034016.000	1.616104e-001	-9.882780e-001
10040010.000	1.610758e-001	-9.883736e-001
10046004.000	1.604548e-001	-9.885148e-001
10051998.000	1.599271e-001	-9.885899e-001
10057992.000	1.593011e-001	-9.886930e-001
10063986.000	1.587052e-001	-9.888294e-001
10069980.000	1.581407e-001	-9.888902e-001
10075974.000	1.575383e-001	-9.890061e-001
10081968.000	1.569556e-001	-9.890648e-001
10087962.000	1.563431e-001	-9.891578e-001
10093956.000	1.558081e-001	-9.892614e-001
10099950.000	1.551860e-001	-9.893284e-001
10105944.000	1.546688e-001	-9.894022e-001
10111938.000	1.540974e-001	-9.894821e-001
10117932.000	1.534867e-001	-9.895875e-001
10123926.000	1.528916e-001	-9.896986e-001
10129920.000	1.523023e-001	-9.897827e-001
10135914.000	1.517209e-001	-9.898498e-001
10141908.000	1.511359e-001	-9.899346e-001
10147902.000	1.506382e-001	-9.900766e-001
10153896.000	1.500016e-001	-9.900859e-001
10159890.000	1.494295e-001	-9.902259e-001
10165884.000	1.488436e-001	-9.903240e-001
10171878.000	1.483126e-001	-9.904364e-001
10177872.000	1.477103e-001	-9.904788e-001
10183866.000	1.471249e-001	-9.905894e-001
10189860.000	1.465580e-001	-9.907561e-001
10195854.000	1.459682e-001	-9.907874e-001
10201848.000	1.453694e-001	-9.908325e-001
10207842.000	1.448010e-001	-9.909091e-001
10213836.000	1.442222e-001	-9.909877e-001
10219830.000	1.436837e-001	-9.911217e-001
10225824.000	1.431056e-001	-9.912175e-001
10231818.000	1.425134e-001	-9.912784e-001
10237812.000	1.419759e-001	-9.913756e-001
10243806.000	1.413708e-001	-9.914630e-001
10249800.000	1.408286e-001	-9.915569e-001
10255794.000	1.402836e-001	-9.917215e-001
10261788.000	1.396722e-001	-9.917157e-001
10267782.000	1.391270e-001	-9.918319e-001
10273776.000	1.385616e-001	-9.919245e-001
10279770.000	1.379605e-001	-9.920129e-001
10285764.000	1.373845e-001	-9.921016e-001
10291758.000	1.368371e-001	-9.921731e-001
10297752.000	1.362457e-001	-9.922552e-001
10303746.000	1.356783e-001	-9.923212e-001
10309740.000	1.351112e-001	-9.923816e-001
10315734.000	1.345434e-001	-9.925057e-001
10321728.000	1.340008e-001	-9.925614e-001
10327722.000	1.333752e-001	-9.926686e-001
10333716.000	1.328032e-001	-9.927845e-001
10339710.000	1.322929e-001	-9.928179e-001
10345704.000	1.317235e-001	-9.929198e-001
10351698.000	1.311142e-001	-9.929486e-001
10357692.000	1.305640e-001	-9.930782e-001
10363686.000	1.300365e-001	-9.930774e-001
10369680.000	1.293906e-001	-9.931578e-001
10375674.000	1.288967e-001	-9.932651e-001
10381668.000	1.282935e-001	-9.933623e-001
10387662.000	1.277111e-001	-9.933801e-001
10393656.000	1.271791e-001	-9.935133e-001
10399650.000	1.265685e-001	-9.935594e-001
10405644.000	1.259971e-001	-9.936256e-001
10411638.000	1.254329e-001	-9.937365e-001
10417632.000	1.248603e-001	-9.937646e-001
10423626.000	1.243015e-001	-9.938428e-001
10429620.000	1.237434e-001	-9.939262e-001
10435614.000	1.231432e-001	-9.939689e-001
10441608.000	1.225807e-001	-9.940558e-001
10447602.000	1.220093e-001	-9.940868e-001
10453596.000	1.214292e-001	-9.942018e-001
10459590.000	1.208935e-001	-9.943020e-001
10465584.000	1.204036e-001	-9.943007e-001
10471578.000	1.197671e-001	-9.944311e-001
10477572.000	1.191888e-001	-9.944272e-001
10483566.000	1.186643e-001	-9.945167e-001
10489560.000	1.180771e-001	-9.946101e-001
10495554.000	1.175012e-001	-9.946498e-001
10501548.000	1.169621e-001	-9.947194e-001
10507542.000	1.163909e-001	-9.948263e-001
10513536.000	1.157995e-001	-9.948806e-001
10519530.000	1.152602e-001	-9.949745e-001
10525524.000	1.146550e-001	-9.949865e-001
10531518.000	1.141592e-001	-9.950929e-001
10537512.000	1.135597e-001	-9.951716e-001
10543506.000	1.129934e-001	-9.952125e-001
10549500.000	1.124659e-001	-9.952654e-001
10555494.000	1.118877e-001	-9.953082e-001
10561488.000	1.113362e-001	-9.953754e-001
10567482.000	1.107739e-001	-9.953897e-001
10573476.000	1.102216e-001	-9.955277e-001
10579470.000	1.096380e-001	-9.955738e-001
10585464.000	1.090482e-001	-9.956561e-001
10591458.000	1.085427e-001	-9.957427e-001
10597452.000	1.079264e-001	-9.957643e-001
10603446.000	1.073924e-001	-9.958490e-001
10609440.000	1.068273e-001	-9.959027e-001
10615434.000	1.062470e-001	-9.959463e-001
10621428.000	1.056871e-001	-9.960142e-001
10627422.000	1.051613e-001	-9.960727e-001
10633416.000	1.045658e-001	-9.961297e-001
10639410.000	1.040092e-001	-9.962006e-001
10645404.000	1.034912e-001	-9.962467e-001
10651398.000	1.029121e-001	-9.963137e-001
10657392.000	1.023749e-001	-9.964173e-001
10663386.000	1.017571e-001	-9.963806e-001
10669380.000	1.012946e-001	-9.965403e-001
10675374.000	1.006486e-001	-9.965592e-001
10681368.000	1.001116e-001	-9.965694e-001
10687362.000	9.957924e-002	-9.966826e-001
10693356.000	9.901840e-002	-9.967365e-001
10699350.000	9.843013e-002	-9.968031e-001
10705344.000	9.789020e-002	-9.969128e-001
10711338.000	9.732943e-002	-9.968947e-001
10717332.000	9.683272e-002	-9.969801e-001
10723326.000	9.626857e-002	-9.970029e-001
10729320.000	9.568084e-002	-9.970611e-001
10735314.000	9.514668e-002	-9.971823e-001
10741308.000	9.459137e-002	-9.971559e-001
10747302.000	9.402536e-002	-9.971615e-001
10753296.000	9.345418e-002	-9.972377e-001
10759290.000	9.288318e-002	-9.973284e-001
10765284.000	9.232192e-002	-9.973745e-001
10771278.000	9.187253e-002	-9.974751e-001
10777272.000	9.125927e-002	-9.974729e-001
10783266.000	9.070191e-002	-9.975668e-001
10789260.000	9.015902e-002	-9.975538e-001
10795254.000	8.962847e-002	-9.976199e-001
10801248.000	8.899790e-002	-9.977078e-001
10807242.000	8.850069e-002	-9.977616e-001
10813236.000	8.797149e-002	-9.977692e-001
10819230.000	8.741945e-002	-9.978213e-001
10825224.000	8.680701e-002	-9.979524e-001
10831218.000	8.627240e-002	-9.979172e-001
10837212.000	8.576380e-002	-9.979878e-001
10843206.000	8.520320e-002	-9.980374e-001
10849200.000	8.467985e-002	-9.980927e-001
10855194.000	8.413027e-002	-9.981220e-001
10861188.000	8.354137e-002	-9.981412e-001
10867182.000	8.300726e-002	-9.982355e-001
10873176.000	8.247207e-002	-9.982828e-001
10879170.000	8.189141e-002	-9.983805e-001
10885164.000	8.132862e-002	-9.984003e-001
10891158.000	8.079951e-002	-9.983958e-001
10897152.000	8.026518e-002	-9.984674e-001
10903146.000	7.972911e-002	-9.985119e-001
10909140.000	7.914256e-002	-9.985581e-001
10915134.000	7.860655e-002	-9.986547e-001
10921128.000	7.808122e-002	-9.985992e-001
10927122.000	7.750281e-002	-9.986688e-001
10933116.000	7.700401e-002	-9.987496e-001
10939110.000	7.642463e-002	-9.987426e-001
10945104.000	7.586204e-002	-9.987707e-001
10951098.000	7.533427e-002	-9.988383e-001
10957092.000	7.483966e-002	-9.989197e-001
10963086.000	7.422072e-002	-9.989271e-001
10969080.000	7.367222e-002	-9.989639e-001
10975074.000	7.315958e-002	-9.990097e-001
10981068.000	7.260577e-002	-9.990093e-001
10987062.000	7.205553e-002	-9.991390e-001
10993056.000	7.151645e-002	-9.990758e-001
10999050.000	7.098107e-002	-9.991603e-001
11005044.000	7.044579e-002	-9.992581e-001
11011038.000	6.989285e-002	-9.992375e-001
11017032.000	6.934514e-002	-9.992776e-001
11023026.000	6.879826e-002	-9.992871e-001
11029020.000	6.828848e-002	-9.993324e-001
11035014.000	6.775873e-002	-9.993493e-001
11041008.000	6.715524e-002	-9.994143e-001
11047002.000	6.660572e-002	-9.994753e-001
11052996.000	6.607842e-002	-9.994918e-001
11058990.000	6.553286e-002	-9.995293e-001
11064984.000	6.500655e-002	-9.996199e-001
11070978.000	6.445284e-002	-9.996193e-001
11076972.000	6.395306e-002	-9.996767e-001
11082966.000	6.338626e-002	-9.997460e-001
11088960.000	6.285650e-002	-9.997331e-001
11094954.000	6.228899e-002	-9.997660e-001
11100948.000	6.178800e-002	-9.997378e-001
11106942.000	6.124376e-002	-9.997497e-001
11112936.000	6.065926e-002	-9.997775e-001
11118930.000	6.014161e-002	-9.998374e-001
11124924.000	5.961431e-002	-9.998859e-001
11130918.000	5.903484e-002	-9.999472e-001
11136912.000	5.850944e-002	-9.999713e-001
11142906.000	5.802083e-002	-1.000043e+000
11148900.000	5.745758e-002	-1.000064e+000
11154894.000	5.694289e-002	-1.000106e+000
11160888.000	5.638707e-002	-1.000085e+000
11166882.000	5.587849e-002	-1.000175e+000
11172876.000	5.533664e-002	-1.000147e+000
11178870.000	5.478312e-002	-1.000223e+000
11184864.000	5.423444e-002	-1.000234e+000
11190858.000	5.372933e-002	-1.000262e+000
11196852.000	5.317196e-002	-1.000283e+000
11202846.000	5.264528e-002	-1.000308e+000
11208840.000	5.211396e-002	-1.000347e+000
11214834.000	5.157840e-002	-1.000390e+000
11220828.000	5.106506e-002	-1.000371e+000
11226822.000	5.053333e-002	-1.000395e+000
11232816.000	4.998559e-002	-1.000430e+000
11238810.000	4.947665e-002	-1.000489e+000
11244804.000	4.890227e-002	-1.000506e+000
11250798.000	4.836273e-002	-1.000539e+000
11256792.000	4.779598e-002	-1.000544e+000
11262786.000	4.731026e-002	-1.000550e+000
11268780.000	4.679755e-002	-1.000604e+000
11274774.000	4.620245e-002	-1.000624e+000
11280768.000	4.570263e-002	-1.000639e+000
11286762.000	4.519323e-002	-1.000689e+000
11292756.000	4.464980e-002	-1.000714e+000
11298750.000	4.411393e-002	-1.000690e+000
11304744.000	4.356363e-002	-1.000714e+000
11310738.000	4.306254e-002	-1.000799e+000
11316732.000	4.251916e-002	-1.000889e+000
11322726.000	4.198405e-002	-1.000853e+000
11328720.000	4.144156e-002	-1.000865e+000
11334714.000	4.093246e-002	-1.000841e+000
11340708.000	4.041079e-002	-1.000830e+000
11346702.000	3.985484e-002	-1.000879e+000
11352696.000	3.931075e-002	-1.000923e+000
11358690.000	3.883085e-002	-1.000914e+000
11364684.000	3.828937e-002	-1.000930e+000
11370678.000	3.775468e-002	-1.000979e+000
11376672.000	3.719495e-002	-1.000994e+000
11382666.000	3.672116e-002	-1.001053e+000
11388660.000	3.617137e-002	-1.001074e+000
11394654.000	3.560948e-002	-1.001108e+000
11400648.000	3.510377e-002	-1.001101e+000
11406642.000	3.456068e-002	-1.001144e+000
11412636.000	3.406640e-002	-1.001155e+000
11418630.000	3.359049e-002	-1.001157e+000
11424624.000	3.307129e-002	-1.001139e+000
11430618.000	3.250515e-002	-1.001223e+000
11436612.000	3.200381e-002	-1.001225e+000
11442606.000	3.144508e-002	-1.001238e+000
11448600.000	3.091896e-002	-1.001262e+000
11454594.000	3.038201e-002	-1.001262e+000
11460588.000	2.987436e-002	-1.001298e+000
11466582.000	2.936090e-002	-1.001377e+000
11472576.000	2.882037e-002	-1.001362e+000
11478570.000	2.831462e-002	-1.001321e+000
11484564.000	2.782321e-002	-1.001379e+000
11490558.000	2.727944e-002	-1.001410e+000
11496552.000	2.671571e-002	-1.001398e+000
11502546.000	2.623831e-002	-1.001386e+000
11508540.000	2.568205e-002	-1.001380e+000
11514534.000	2.512405e-002	-1.001377e+000
11520528.000	2.462403e-002	-1.001444e+000
11526522.000	2.409025e-002	-1.001426e+000
11532516.000	2.363687e-002	-1.001492e+000
11538510.000	2.307001e-002	-1.001454e+000
11544504.000	2.256147e-002	-1.001487e+000
11550498.000	2.198831e-002	-1.001476e+000
11556492.000	2.153124e-002	-1.001543e+000
11562486.000	2.096594e-002	-1.001508e+000
11568480.000	2.047917e-002	-1.001531e+000
11574474.000	1.992920e-002	-1.001535e+000
11580468.000	1.947114e-002	-1.001584e+000
11586462.000	1.892345e-002	-1.001568e+000
11592456.000	1.840260e-002	-1.001553e+000
11598450.000	1.792574e-002	-1.001601e+000
11604444.000	1.739532e-002	-1.001605e+000
11610438.000	1.683025e-002	-1.001673e+000
11616432.000	1.629486e-002	-1.001609e+000
11622426.000	1.584438e-002	-1.001644e+000
11628420.000	1.525699e-002	-1.001650e+000
11634414.000	1.477341e-002	-1.001597e+000
11640408.000	1.427262e-002	-1.001609e+000
11646402.000	1.382417e-002	-1.001684e+000
11652396.000	1.321121e-002	-1.001636e+000
11658390.000	1.274219e-002	-1.001665e+000
11664384.000	1.221454e-002	-1.001644e+000
11670378.000	1.172206e-002	-1.001679e+000
11676372.000	1.119535e-002	-1.001660e+000
11682366.000	1.066255e-002	-1.001731e+000
11688360.000	1.016178e-002	-1.001675e+000
11694354.000	9.688968e-003	-1.001692e+000
11700348.000	9.125154e-003	-1.001687e+000
11706342.000	8.656115e-003	-1.001730e+000
11712336.000	8.146282e-003	-1.001708e+000
11718330.000	7.622236e-003	-1.001694e+000
11724324.000	7.074505e-003	-1.001680e+000
11730318.000	6.560980e-003	-1.001717e+000
11736312.000	6.069186e-003	-1.001778e+000
11742306.000	5.533050e-003	-1.001734e+000
11748300.000	5.006290e-003	-1.001747e+000
11754294.000	4.537734e-003	-1.001729e+000
11760288.000	4.030291e-003	-1.001715e+000
11766282.000	3.476901e-003	-1.001718e+000
11772276.000	2.977303e-003	-1.001717e+000
11778270.000	2.457378e-003	-1.001748e+000
11784264.000	1.949394e-003	-1.001761e+000
11790258.000	1.418978e-003	-1.001764e+000
11796252.000	9.381285e-004	-1.001731e+000
11802246.000	4.000412e-004	-1.001761e+000
11808240.000	-5.190960e-005	-1.001771e+000
11814234.000	-5.645772e-004	-1.001780e+000
11820228.000	-1.116474e-003	-1.001744e+000
11826222.000	-1.596365e-003	-1.001695e+000
11832216.000	-2.117731e-003	-1.001692e+000
11838210.000	-2.601353e-003	-1.001787e+000
11844204.000	-3.138434e-003	-1.001719e+000
11850198.000	-3.634748e-003	-1.001718e+000
11856192.000	-4.150927e-003	-1.001752e+000
11862186.000	-4.672774e-003	-1.001722e+000
11868180.000	-5.176753e-003	-1.001694e+000
11874174.000	-5.647638e-003	-1.001736e+000
11880168.000	-6.153424e-003	-1.001702e+000
11886162.000	-6.659231e-003	-1.001690e+000
11892156.000	-7.169077e-003	-1.001703e+000
11898150.000	-7.681568e-003	-1.001730e+000
11904144.000	-8.217547e-003	-1.001694e+000
11910138.000	-8.742197e-003	-1.001687e+000
11916132.000	-9.229350e-003	-1.001666e+000
11922126.000	-9.712003e-003	-1.001637e+000
11928120.000	-1.018448e-002	-1.001671e+000
11934114.000	-1.074222e-002	-1.001666e+000
11940108.000	-1.126682e-002	-1.001710e+000
11946102.000	-1.169715e-002	-1.001730e+000
11952096.000	-1.220660e-002	-1.001686e+000
11958090.000	-1.270314e-002	-1.001712e+000
11964084.000	-1.319955e-002	-1.001662e+000
11970078.000	-1.374556e-002	-1.001634e+000
11976072.000	-1.424464e-002	-1.001687e+000
11982066.000	-1.472727e-002	-1.001663e+000
11988060.000	-1.521534e-002	-1.001656e+000
11994054.000	-1.574639e-002	-1.001623e+000
12000048.000	-1.622041e-002	-1.001659e+000
12006042.000	-1.667882e-002	-1.001601e+000
12012036.000	-1.723687e-002	-1.001626e+000
12018030.000	-1.774981e-002	-1.001592e+000
12024024.000	-1.826911e-002	-1.001637e+000
12030018.000	-1.873833e-002	-1.001646e+000
12036012.000	-1.924844e-002	-1.001601e+000
12042006.000	-1.971705e-002	-1.001564e+000
12048000.000	-2.021795e-002	-1.001623e+000
12053994.000	-2.075382e-002	-1.001568e+000
12059988.000	-2.121938e-002	-1.001558e+000
12065982.000	-2.170446e-002	-1.001538e+000
12071976.000	-2.220137e-002	-1.001533e+000
12077970.000	-2.270238e-002	-1.001497e+000
12083964.000	-2.322457e-002	-1.001533e+000
12089958.000	-2.368069e-002	-1.001550e+000
12095952.000	-2.418615e-002	-1.001504e+000
12101946.000	-2.470782e-002	-1.001492e+000
12107940.000	-2.518276e-002	-1.001487e+000
12113934.000	-2.569599e-002	-1.001505e+000
12119928.000	-2.619751e-002	-1.001462e+000
12125922.000	-2.666864e-002	-1.001434e+000
12131916.000	-2.717745e-002	-1.001464e+000
12137910.000	-2.765566e-002	-1.001422e+000
12143904.000	-2.817280e-002	-1.001422e+000
12149898.000	-2.868553e-002	-1.001406e+000
12155892.000	-2.918364e-002	-1.001428e+000
12161886.000	-2.963189e-002	-1.001326e+000
12167880.000	-3.018515e-002	-1.001313e+000
12173874.000	-3.061685e-002	-1.001333e+000
12179868.000	-3.112283e-002	-1.001318e+000
12185862.000	-3.164302e-002	-1.001313e+000
12191856.000	-3.211808e-002	-1.001280e+000
12197850.000	-3.259976e-002	-1.001334e+000
12203844.000	-3.316799e-002	-1.001249e+000
12209838.000	-3.359738e-002	-1.001273e+000
12215832.000	-3.408721e-002	-1.001225e+000
12221826.000	-3.457268e-002	-1.001255e+000
12227820.000	-3.504655e-002	-1.001166e+000
12233814.000	-3.557231e-002	-1.001155e+000
12239808.000	-3.606127e-002	-1.001195e+000
12245802.000	-3.653378e-002	-1.001143e+000
12251796.000	-3.704845e-002	-1.001138e+000
12257790.000	-3.751109e-002	-1.001112e+000
12263784.000	-3.797176e-002	-1.001084e+000
12269778.000	-3.852024e-002	-1.001053e+000
12275772.000	-3.898084e-002	-1.001051e+000
12281766.000	-3.945347e-002	-1.001094e+000
12287760.000	-3.996131e-002	-1.001028e+000
12293754.000	-4.044398e-002	-1.001085e+000
12299748.000	-4.091995e-002	-1.000982e+000
12305742.000	-4.140473e-002	-1.001009e+000
12311736.000	-4.188513e-002	-1.000960e+000
12317730.000	-4.240503e-002	-1.000979e+000
12323724.000	-4.290955e-002	-1.000926e+000
12329718.000	-4.337176e-002	-1.000927e+000
12335712.000	-4.384246e-002	-1.000917e+000
12341706.000	-4.435078e-002	-1.000864e+000
12347700.000	-4.486631e-002	-1.000858e+000
12353694.000	-4.537340e-002	-1.000796e+000
12359688.000	-4.581631e-002	-1.000787e+000
12365682.000	-4.628046e-002	-1.000777e+000
12371676.000	-4.677067e-002	-1.000710e+000
12377670.000	-4.725661e-002	-1.000708e+000
12383664.000	-4.775289e-002	-1.000659e+000
12389658.000	-4.825147e-002	-1.000663e+000
12395652.000	-4.875765e-002	-1.000703e+000
12401646.000	-4.919666e-002	-1.000585e+000
12407640.000	-4.968874e-002	-1.000585e+000
12413634.000	-5.016503e-002	-1.000605e+000
12419628.000	-5.060871e-002	-1.000586e+000
12425622.000	-5.111508e-002	-1.000527e+000
12431616.000	-5.159537e-002	-1.000515e+000
12437610.000	-5.209415e-002	-1.000481e+000
12443604.000	-5.252356e-002	-1.000500e+000
12449598.000	-5.302113e-002	-1.000399e+000
12455592.000	-5.355103e-002	-1.000354e+000
12461586.000	-5.397333e-002	-1.000432e+000
12467580.000	-5.449910e-002	-1.000362e+000
12473574.000	-5.496760e-002	-1.000303e+000
12479568.000	-5.547696e-002	-1.000270e+000
12485562.000	-5.592961e-002	-1.000247e+000
12491556.000	-5.642120e-002	-1.000208e+000
12497550.000	-5.691200e-002	-1.000227e+000
12503544.000	-5.737942e-002	-1.000206e+000
12509538.000	-5.785418e-002	-1.000179e+000
12515532.000	-5.827086e-002	-1.000118e+000
12521526.000	-5.882148e-002	-1.000125e+000
12527520.000	-5.928822e-002	-1.000077e+000
12533514.000	-5.975916e-002	-1.000051e+000
12539508.000	-6.026222e-002	-1.000003e+000
12545502.000	-6.071533e-002	-9.999734e-001
12551496.000	-6.118347e-002	-9.998939e-001
12557490.000	-6.163631e-002	-9.999251e-001
12563484.000	-6.217940e-002	-9.999018e-001
12569478.000	-6.263903e-002	-9.998738e-001
12575472.000	-6.310969e-002	-9.998363e-001
12581466.000	-6.358371e-002	-9.998241e-001
12587460.000	-6.404519e-002	-9.997752e-001
12593454.000	-6.453751e-002	-9.996993e-001
12599448.000	-6.500844e-002	-9.996773e-001
12605442.000	-6.544040e-002	-9.996929e-001
12611436.000	-6.597558e-002	-9.996671e-001
12617430.000	-6.640629e-002	-9.996090e-001
12623424.000	-6.687017e-002	-9.995599e-001
12629418.000	-6.736435e-002	-9.995809e-001
12635412.000	-6.788919e-002	-9.995733e-001
12641406.000	-6.833894e-002	-9.994954e-001
12647400.000	-6.876995e-002	-9.994922e-001
12653394.000	-6.925336e-002	-9.994494e-001
12659388.000	-6.970920e-002	-9.994305e-001
12665382.000	-7.020754e-002	-9.993889e-001
12671376.000	-7.071303e-002	-9.992748e-001
12677370.000	-7.120675e-002	-9.992607e-001
12683364.000	-7.168207e-002	-9.992266e-001
12689358.000	-7.209747e-002	-9.992336e-001
12695352.000	-7.256670e-002	-9.991646e-001
12701346.000	-7.298515e-002	-9.991744e-001
12707340.000	-7.351066e-002	-9.990982e-001
12713334.000	-7.396056e-002	-9.990877e-001
12719328.000	-7.447868e-002	-9.990148e-001
12725322.000	-7.491804e-002	-9.989705e-001
12731316.000	-7.535016e-002	-9.990020e-001
12737310.000	-7.586413e-002	-9.989403e-001
12743304.000	-7.632462e-002	-9.988985e-001
12749298.000	-7.685569e-002	-9.988980e-001
12755292.000	-7.727211e-002	-9.988432e-001
12761286.000	-7.772192e-002	-9.988387e-001
12767280.000	-7.819651e-002	-9.987911e-001
12773274.000	-7.866275e-002	-9.987089e-001
12779268.000	-7.913400e-002	-9.986955e-001
12785262.000	-7.961584e-002	-9.986430e-001
12791256.000	-8.007821e-002	-9.986175e-001
12797250.000	-8.054202e-002	-9.986099e-001
12803244.000	-8.096294e-002	-9.985294e-001
12809238.000	-8.143971e-002	-9.984812e-001
12815232.000	-8.189255e-002	-9.984395e-001
12821226.000	-8.232805e-002	-9.984323e-001
12827220.000	-8.282973e-002	-9.983686e-001
12833214.000	-8.329662e-002	-9.983959e-001
12839208.000	-8.375108e-002	-9.983241e-001
12845202.000	-8.419634e-002	-9.982530e-001
12851196.000	-8.470402e-002	-9.982355e-001
12857190.000	-8.513468e-002	-9.981993e-001
12863184.000	-8.559595e-002	-9.981476e-001
12869178.000	-8.608542e-002	-9.980661e-001
12875172.000	-8.652617e-002	-9.980094e-001
12881166.000	-8.698977e-002	-9.980435e-001
12887160.000	-8.751901e-002	-9.979914e-001
12893154.000	-8.797070e-002	-9.979382e-001
12899148.000	-8.838361e-002	-9.979181e-001
12905142.000	-8.886754e-002	-9.978708e-001
12911136.000	-8.936248e-002	-9.978630e-001
12917130.000	-8.977503e-002	-9.977805e-001
12923124.000	-9.023721e-002	-9.977502e-001
12929118.000	-9.075024e-002	-9.977121e-001
12935112.000	-9.114063e-002	-9.976299e-001
12941106.000	-9.158945e-002	-9.976386e-001
12947100.000	-9.208392e-002	-9.975615e-001
12953094.000	-9.254400e-002	-9.975007e-001
12959088.000	-9.304298e-002	-9.974630e-001
12965082.000	-9.349417e-002	-9.974462e-001
12971076.000	-9.392451e-002	-9.973526e-001
12977070.000	-9.438576e-002	-9.973315e-001
12983064.000	-9.484524e-002	-9.973211e-001
12989058.000	-9.524277e-002	-9.972000e-001
12995052.000	-9.576312e-002	-9.972028e-001
13001046.000	-9.619972e-002	-9.971444e-001
13007040.000	-9.667099e-002	-9.971297e-001
13013034.000	-9.714196e-002	-9.970588e-001
13019028.000	-9.753930e-002	-9.970498e-001
13025022.000	-9.804448e-002	-9.969700e-001
13031016.000	-9.852346e-002	-9.968951e-001
13037010.000	-9.894622e-002	-9.968916e-001
13043004.000	-9.942757e-002	-9.968889e-001
13048998.000	-9.991239e-002	-9.968165e-001
13054992.000	-1.003392e-001	-9.968100e-001
13060986.000	-1.008068e-001	-9.967390e-001
13066980.000	-1.012391e-001	-9.967165e-001
13072974.000	-1.016998e-001	-9.966854e-001
13078968.000	-1.021491e-001	-9.965679e-001
13084962.000	-1.026497e-001	-9.965532e-001
13090956.000	-1.031148e-001	-9.965327e-001
13096950.000	-1.034946e-001	-9.964718e-001
13102944.000	-1.039393e-001	-9.964075e-001
13108938.000	-1.044427e-001	-9.963648e-001
13114932.000	-1.048944e-001	-9.962660e-001
13120926.000	-1.053095e-001	-9.962565e-001
13126920.000	-1.057585e-001	-9.962020e-001
13132914.000	-1.062154e-001	-9.961565e-001
13138908.000	-1.066835e-001	-9.961730e-001
13144902.000	-1.071473e-001	-9.960741e-001
13150896.000	-1.075889e-001	-9.960089e-001
13156890.000	-1.080368e-001	-9.959504e-001
13162884.000	-1.084537e-001	-9.959272e-001
13168878.000	-1.089467e-001	-9.959146e-001
13174872.000	-1.094059e-001	-9.958669e-001
13180866.000	-1.098166e-001	-9.957936e-001
13186860.000	-1.102912e-001	-9.957196e-001
13192854.000	-1.107296e-001	-9.957230e-001
13198848.000	-1.112209e-001	-9.956607e-001
13204842.000	-1.116530e-001	-9.955791e-001
13210836.000	-1.120823e-001	-9.955483e-001
13216830.000	-1.125170e-001	-9.955211e-001
13222824.000	-1.129982e-001	-9.954935e-001
13228818.000	-1.134699e-001	-9.954119e-001
13234812.000	-1.139022e-001	-9.953814e-001
13240806.000	-1.143287e-001	-9.952896e-001
13246800.000	-1.148123e-001	-9.952503e-001
13252794.000	-1.152460e-001	-9.951807e-001
13258788.000	-1.156796e-001	-9.951379e-001
13264782.000	-1.161484e-001	-9.950555e-001
13270776.000	-1.165427e-001	-9.949974e-001
13276770.000	-1.170332e-001	-9.949572e-001
13282764.000	-1.175055e-001	-9.949411e-001
13288758.000	-1.179199e-001	-9.948540e-001
13294752.000	-1.183485e-001	-9.948446e-001
13300746.000	-1.187530e-001	-9.947729e-001
13306740.000	-1.192426e-001	-9.947203e-001
13312734.000	-1.196705e-001	-9.946881e-001
13318728.000	-1.201014e-001	-9.947005e-001
13324722.000	-1.206291e-001	-9.946019e-001
13330716.000	-1.210468e-001	-9.945121e-001
13336710.000	-1.214847e-001	-9.944650e-001
13342704.000	-1.219276e-001	-9.943815e-001
13348698.000	-1.223800e-001	-9.943422e-001
13354692.000	-1.228210e-001	-9.942545e-001
13360686.000	-1.232365e-001	-9.942267e-001
13366680.000	-1.237048e-001	-9.942190e-001
13372674.000	-1.241511e-001	-9.941459e-001
13378668.000	-1.246091e-001	-9.940836e-001
13384662.000	-1.249755e-001	-9.940172e-001
13390656.000	-1.254554e-001	-9.939580e-001
13396650.000	-1.258934e-001	-9.939258e-001
13402644.000	-1.263611e-001	-9.937974e-001
13408638.000	-1.268290e-001	-9.937634e-001
13414632.000	-1.272554e-001	-9.937533e-001
13420626.000	-1.276913e-001	-9.936775e-001
13426620.000	-1.281083e-001	-9.936328e-001
13432614.000	-1.285474e-001	-9.935863e-001
13438608.000	-1.289764e-001	-9.934902e-001
13444602.000	-1.294689e-001	-9.934558e-001
13450596.000	-1.299011e-001	-9.934111e-001
13456590.000	-1.303423e-001	-9.933500e-001
13462584.000	-1.307454e-001	-9.932880e-001
13468578.000	-1.311657e-001	-9.932317e-001
13474572.000	-1.316475e-001	-9.931808e-001
13480566.000	-1.320294e-001	-9.931262e-001
13486560.000	-1.324925e-001	-9.930333e-001
13492554.000	-1.329097e-001	-9.930244e-001
13498548.000	-1.333465e-001	-9.929281e-001
13504542.000	-1.338240e-001	-9.928632e-001
13510536.000	-1.342488e-001	-9.928403e-001
13516530.000	-1.346832e-001	-9.927611e-001
13522524.000	-1.351045e-001	-9.927019e-001
13528518.000	-1.355569e-001	-9.926608e-001
13534512.000	-1.359617e-001	-9.925656e-001
13540506.000	-1.364387e-001	-9.925316e-001
13546500.000	-1.368798e-001	-9.924264e-001
13552494.000	-1.373242e-001	-9.923760e-001
13558488.000	-1.377422e-001	-9.923525e-001
13564482.000	-1.381548e-001	-9.922889e-001
13570476.000	-1.385772e-001	-9.922441e-001
13576470.000	-1.390306e-001	-9.921935e-001
13582464.000	-1.395140e-001	-9.921486e-001
13588458.000	-1.398994e-001	-9.920662e-001
13594452.000	-1.403319e-001	-9.920280e-001
13600446.000	-1.407210e-001	-9.919117e-001
13606440.000	-1.411807e-001	-9.919066e-001
13612434.000	-1.415849e-001	-9.918037e-001
13618428.000	-1.420828e-001	-9.917609e-001
13624422.000	-1.424842e-001	-9.917032e-001
13630416.000	-1.429143e-001	-9.915940e-001
13636410.000	-1.433671e-001	-9.915782e-001
13642404.000	-1.437902e-001	-9.915135e-001
13648398.000	-1.441963e-001	-9.914520e-001
13654392.000	-1.446713e-001	-9.913957e-001
13660386.000	-1.451239e-001	-9.912819e-001
13666380.000	-1.455376e-001	-9.912322e-001
13672374.000	-1.459350e-001	-9.912238e-001
13678368.000	-1.463978e-001	-9.910971e-001
13684362.000	-1.467977e-001	-9.910758e-001
13690356.000	-1.472597e-001	-9.910072e-001
13696350.000	-1.476411e-001	-9.909435e-001
13702344.000	-1.481854e-001	-9.909255e-001
13708338.000	-1.485222e-001	-9.908198e-001
13714332.000	-1.489623e-001	-9.907427e-001
13720326.000	-1.494141e-001	-9.906644e-001
13726320.000	-1.498238e-001	-9.905971e-001
13732314.000	-1.502719e-001	-9.905692e-001
13738308.000	-1.506394e-001	-9.904605e-001
13744302.000	-1.510816e-001	-9.903402e-001
13750296.000	-1.515915e-001	-9.903544e-001
13756290.000	-1.519559e-001	-9.902994e-001
13762284.000	-1.523903e-001	-9.902633e-001
13768278.000	-1.528124e-001	-9.901882e-001
13774272.000	-1.532822e-001	-9.901129e-001
13780266.000	-1.536718e-001	-9.900418e-001
13786260.000	-1.540888e-001	-9.899509e-001
13792254.000	-1.545446e-001	-9.898827e-001
13798248.000	-1.549676e-001	-9.898226e-001
13804242.000	-1.553551e-001	-9.897789e-001
13810236.000	-1.558236e-001	-9.896638e-001
13816230.000	-1.562196e-001	-9.896172e-001
13822224.000	-1.566696e-001	-9.895770e-001
13828218.000	-1.570756e-001	-9.895483e-001
13834212.000	-1.574683e-001	-9.894964e-001
13840206.000	-1.579012e-001	-9.893723e-001
13846200.000	-1.583622e-001	-9.892733e-001
13852194.000	-1.587804e-001	-9.891727e-001
13858188.000	-1.591192e-001	-9.891705e-001
13864182.000	-1.596062e-001	-9.890800e-001
13870176.000	-1.600188e-001	-9.890025e-001
13876170.000	-1.604415e-001	-9.888867e-001
13882164.000	-1.608434e-001	-9.888213e-001
13888158.000	-1.612798e-001	-9.887542e-001
13894152.000	-1.616954e-001	-9.887333e-001
13900146.000	-1.621056e-001	-9.886860e-001
13906140.000	-1.624940e-001	-9.886788e-001
13912134.000	-1.629956e-001	-9.884882e-001
13918128.000	-1.633835e-001	-9.884546e-001
13924122.000	-1.638112e-001	-9.883276e-001
13930116.000	-1.642072e-001	-9.882897e-001
13936110.000	-1.646278e-001	-9.883196e-001
13942104.000	-1.650416e-001	-9.881994e-001
13948098.000	-1.654992e-001	-9.880692e-001
13954092.000	-1.659025e-001	-9.880439e-001
13960086.000	-1.663359e-001	-9.879736e-001
13966080.000	-1.667499e-001	-9.879387e-001
13972074.000	-1.671924e-001	-9.878626e-001
13978068.000	-1.675639e-001	-9.877749e-001
13984062.000	-1.679963e-001	-9.877158e-001
13990056.000	-1.684209e-001	-9.876187e-001
13996050.000	-1.688087e-001	-9.875680e-001
14002044.000	-1.692180e-001	-9.875044e-001
14008038.000	-1.696134e-001	-9.874617e-001
14014032.000	-1.700616e-001	-9.873662e-001
14020026.000	-1.705196e-001	-9.872687e-001
14026020.000	-1.708640e-001	-9.872042e-001
14032014.000	-1.713397e-001	-9.871466e-001
14038008.000	-1.717358e-001	-9.870489e-001
14044002.000	-1.720979e-001	-9.869969e-001
14049996.000	-1.725903e-001	-9.869042e-001
14055990.000	-1.729767e-001	-9.868604e-001
14061984.000	-1.734128e-001	-9.867666e-001
14067978.000	-1.738039e-001	-9.866688e-001
14073972.000	-1.742350e-001	-9.866283e-001
14079966.000	-1.746408e-001	-9.865188e-001
14085960.000	-1.749947e-001	-9.864558e-001
14091954.000	-1.754724e-001	-9.864072e-001
14097948.000	-1.758642e-001	-9.863037e-001
14103942.000	-1.763148e-001	-9.861810e-001
14109936.000	-1.766937e-001	-9.861911e-001
14115930.000	-1.771182e-001	-9.860944e-001
14121924.000	-1.775435e-001	-9.860562e-001
14127918.000	-1.779055e-001	-9.859548e-001
14133912.000	-1.783512e-001	-9.858598e-001
14139906.000	-1.787397e-001	-9.858193e-001
14145900.000	-1.791518e-001	-9.857348e-001
14151894.000	-1.795568e-001	-9.856083e-001
14157888.000	-1.799549e-001	-9.855557e-001
14163882.000	-1.804061e-001	-9.854897e-001
14169876.000	-1.807812e-001	-9.854202e-001
14175870.000	-1.812791e-001	-9.853982e-001
14181864.000	-1.816561e-001	-9.852848e-001
14187858.000	-1.820957e-001	-9.852260e-001
14193852.000	-1.824853e-001	-9.851072e-001
14199846.000	-1.828610e-001	-9.850568e-001
14205840.000	-1.832797e-001	-9.849542e-001
14211834.000	-1.836927e-001	-9.849059e-001
14217828.000	-1.840825e-001	-9.848411e-001
14223822.000	-1.844933e-001	-9.847641e-001
14229816.000	-1.849496e-001	-9.846895e-001
14235810.000	-1.853486e-001	-9.846065e-001
14241804.000	-1.857274e-001	-9.845498e-001
14247798.000	-1.861322e-001	-9.844189e-001
14253792.000	-1.865532e-001	-9.844057e-001
14259786.000	-1.869590e-001	-9.843048e-001
14265780.000	-1.873749e-001	-9.842185e-001
14271774.000	-1.877598e-001	-9.841697e-001
14277768.000	-1.881784e-001	-9.841168e-001
14283762.000	-1.886097e-001	-9.840255e-001
14289756.000	-1.889485e-001	-9.839273e-001
14295750.000	-1.893607e-001	-9.838180e-001
14301744.000	-1.898650e-001	-9.838297e-001
14307738.000	-1.902850e-001	-9.836812e-001
14313732.000	-1.906694e-001	-9.836012e-001
14319726.000	-1.910900e-001	-9.835449e-001
14325720.000	-1.915070e-001	-9.834866e-001
14331714.000	-1.919117e-001	-9.833805e-001
14337708.000	-1.922924e-001	-9.832740e-001
14343702.000	-1.926848e-001	-9.832534e-001
14349696.000	-1.931112e-001	-9.831120e-001
14355690.000	-1.935022e-001	-9.830365e-001
14361684.000	-1.938852e-001	-9.830023e-001
14367678.000	-1.943048e-001	-9.829786e-001
14373672.000	-1.947006e-001	-9.829016e-001
14379666.000	-1.951232e-001	-9.828173e-001
14385660.000	-1.955313e-001	-9.827331e-001
14391654.000	-1.959087e-001	-9.826291e-001
14397648.000	-1.963697e-001	-9.825056e-001
14403642.000	-1.966900e-001	-9.824366e-001
14409636.000	-1.971209e-001	-9.823319e-001
14415630.000	-1.975105e-001	-9.822931e-001
14421624.000	-1.979519e-001	-9.822323e-001
14427618.000	-1.983744e-001	-9.821567e-001
14433612.000	-1.987282e-001	-9.820684e-001
14439606.000	-1.991257e-001	-9.819939e-001
14445600.000	-1.995704e-001	-9.818979e-001
14451594.000	-1.999299e-001	-9.817897e-001
14457588.000	-2.003419e-001	-9.817512e-001
14463582.000	-2.007490e-001	-9.816882e-001
14469576.000	-2.011225e-001	-9.815364e-001
14475570.000	-2.015504e-001	-9.814923e-001
14481564.000	-2.019543e-001	-9.813801e-001
14487558.000	-2.023254e-001	-9.812813e-001
14493552.000	-2.027156e-001	-9.812163e-001
14499546.000	-2.030982e-001	-9.812069e-001
14505540.000	-2.034603e-001	-9.810702e-001
14511534.000	-2.039271e-001	-9.810503e-001
14517528.000	-2.043390e-001	-9.808793e-001
14523522.000	-2.046704e-001	-9.808317e-001
14529516.000	-2.051757e-001	-9.808039e-001
14535510.000	-2.055071e-001	-9.806309e-001
14541504.000	-2.059280e-001	-9.806026e-001
14547498.000	-2.062839e-001	-9.805114e-001
14553492.000	-2.066665e-001	-9.804312e-001
14559486.000	-2.070860e-001	-9.803556e-001
14565480.000	-2.074735e-001	-9.802635e-001
14571474.000	-2.078484e-001	-9.801098e-001
14577468.000	-2.082688e-001	-9.800910e-001
14583462.000	-2.086965e-001	-9.799907e-001
14589456.000	-2.090531e-001	-9.799076e-001
14595450.000	-2.094368e-001	-9.797730e-001
14601444.000	-2.098423e-001	-9.797207e-001
14607438.000	-2.102204e-001	-9.796553e-001
14613432.000	-2.106102e-001	-9.795336e-001
14619426.000	-2.109900e-001	-9.794971e-001
14625420.000	-2.113976e-001	-9.794028e-001
14631414.000	-2.117912e-001	-9.793098e-001
14637408.000	-2.122421e-001	-9.792094e-001
14643402.000	-2.126061e-001	-9.791644e-001
14649396.000	-2.130138e-001	-9.790317e-001
14655390.000	-2.134086e-001	-9.790116e-001
14661384.000	-2.137612e-001	-9.789131e-001
14667378.000	-2.141800e-001	-9.788364e-001
14673372.000	-2.145539e-001	-9.786616e-001
14679366.000	-2.149609e-001	-9.786305e-001
14685360.000	-2.152987e-001	-9.785240e-001
14691354.000	-2.156558e-001	-9.784269e-001
14697348.000	-2.161366e-001	-9.783848e-001
14703342.000	-2.164785e-001	-9.782649e-001
14709336.000	-2.168860e-001	-9.782104e-001
14715330.000	-2.172461e-001	-9.780857e-001
14721324.000	-2.176611e-001	-9.779933e-001
14727318.000	-2.180646e-001	-9.779276e-001
14733312.000	-2.184335e-001	-9.778843e-001
14739306.000	-2.188399e-001	-9.777284e-001
14745300.000	-2.191721e-001	-9.776498e-001
14751294.000	-2.196155e-001	-9.775615e-001
14757288.000	-2.200056e-001	-9.774543e-001
14763282.000	-2.203835e-001	-9.773970e-001
14769276.000	-2.208058e-001	-9.772910e-001
14775270.000	-2.211745e-001	-9.772313e-001
14781264.000	-2.215339e-001	-9.771677e-001
14787258.000	-2.219225e-001	-9.770604e-001
14793252.000	-2.223191e-001	-9.769730e-001
14799246.000	-2.227259e-001	-9.768541e-001
14805240.000	-2.230502e-001	-9.767889e-001
14811234.000	-2.234392e-001	-9.767062e-001
14817228.000	-2.238559e-001	-9.765851e-001
14823222.000	-2.242767e-001	-9.764760e-001
14829216.000	-2.245900e-001	-9.763910e-001
14835210.000	-2.249938e-001	-9.762844e-001
14841204.000	-2.253841e-001	-9.762177e-001
14847198.000	-2.257725e-001	-9.761278e-001
14853192.000	-2.261313e-001	-9.760569e-001
14859186.000	-2.265074e-001	-9.759237e-001
14865180.000	-2.269080e-001	-9.758880e-001
14871174.000	-2.272738e-001	-9.757988e-001
14877168.000	-2.276723e-001	-9.756681e-001
14883162.000	-2.280641e-001	-9.755766e-001
14889156.000	-2.284053e-001	-9.754760e-001
14895150.000	-2.288142e-001	-9.754353e-001
14901144.000	-2.292084e-001	-9.753257e-001
14907138.000	-2.295665e-001	-9.752457e-001
14913132.000	-2.299588e-001	-9.751822e-001
14919126.000	-2.303900e-001	-9.750985e-001
14925120.000	-2.307437e-001	-9.750077e-001
14931114.000	-2.311123e-001	-9.749805e-001
14937108.000	-2.314547e-001	-9.747949e-001
14943102.000	-2.318655e-001	-9.747391e-001
14949096.000	-2.322059e-001	-9.745969e-001
14955090.000	-2.326100e-001	-9.745213e-001
14961084.000	-2.330418e-001	-9.744753e-001
14967078.000	-2.334110e-001	-9.744152e-001
14973072.000	-2.338005e-001	-9.742764e-001
14979066.000	-2.341629e-001	-9.742293e-001
14985060.000	-2.345607e-001	-9.741513e-001
14991054.000	-2.349608e-001	-9.740580e-001
14997048.000	-2.352941e-001	-9.739202e-001
15003042.000	-2.357125e-001	-9.737776e-001
15009036.000	-2.360729e-001	-9.737679e-001
15015030.000	-2.364428e-001	-9.736825e-001
15021024.000	-2.368278e-001	-9.736176e-001
15027018.000	-2.371846e-001	-9.734959e-001
15033012.000	-2.375833e-001	-9.733680e-001
15039006.000	-2.379271e-001	-9.733423e-001
15045000.000	-2.383331e-001	-9.731851e-001
15050994.000	-2.387065e-001	-9.731292e-001
15056988.000	-2.391058e-001	-9.730073e-001
15062982.000	-2.394152e-001	-9.729205e-001
15068976.000	-2.398304e-001	-9.727822e-001
15074970.000	-2.402409e-001	-9.727812e-001
15080964.000	-2.405739e-001	-9.726967e-001
15086958.000	-2.409575e-001	-9.726242e-001
15092952.000	-2.413415e-001	-9.725131e-001
15098946.000	-2.417589e-001	-9.724495e-001
15104940.000	-2.420934e-001	-9.722680e-001
15110934.000	-2.424802e-001	-9.722211e-001
15116928.000	-2.428460e-001	-9.720711e-001
15122922.000	-2.432003e-001	-9.719882e-001
15128916.000	-2.435944e-001	-9.719203e-001
15134910.000	-2.439663e-001	-9.718523e-001
15140904.000	-2.443533e-001	-9.717635e-001
15146898.000	-2.446696e-001	-9.716063e-001
15152892.000	-2.451013e-001	-9.716026e-001
15158886.000	-2.454621e-001	-9.714746e-001
15164880.000	-2.458130e-001	-9.713935e-001
15170874.000	-2.462510e-001	-9.712564e-001
15176868.000	-2.465653e-001	-9.711957e-001
15182862.000	-2.469420e-001	-9.710847e-001
15188856.000	-2.473273e-001	-9.709350e-001
15194850.000	-2.477152e-001	-9.709010e-001
15200844.000	-2.480743e-001	-9.707761e-001
15206838.000	-2.484162e-001	-9.706745e-001
15212832.000	-2.487750e-001	-9.706076e-001
15218826.000	-2.491573e-001	-9.704670e-001
15224820.000	-2.495585e-001	-9.703996e-001
15230814.000	-2.499182e-001	-9.703324e-001
15236808.000	-2.503261e-001	-9.701877e-001
15242802.000	-2.506404e-001	-9.700923e-001
15248796.000	-2.510081e-001	-9.700354e-001
15254790.000	-2.513650e-001	-9.699409e-001
15260784.000	-2.517606e-001	-9.698579e-001
15266778.000	-2.521761e-001	-9.697914e-001
15272772.000	-2.525211e-001	-9.696978e-001
15278766.000	-2.528762e-001	-9.695876e-001
15284760.000	-2.533014e-001	-9.694794e-001
15290754.000	-2.536107e-001	-9.693797e-001
15296748.000	-2.539920e-001	-9.692471e-001
15302742.000	-2.543014e-001	-9.691796e-001
15308736.000	-2.547279e-001	-9.691527e-001
15314730.000	-2.550482e-001	-9.690000e-001
15320724.000	-2.554507e-001	-9.689101e-001
15326718.000	-2.557946e-001	-9.687922e-001
15332712.000	-2.561811e-001	-9.687074e-001
15338706.000	-2.565722e-001	-9.686321e-001
15344700.000	-2.569107e-001	-9.684814e-001
15350694.000	-2.572897e-001	-9.683641e-001
15356688.000	-2.576466e-001	-9.682573e-001
15362682.000	-2.579910e-001	-9.681668e-001
15368676.000	-2.583691e-001	-9.681326e-001
15374670.000	-2.587227e-001	-9.680205e-001
15380664.000	-2.591018e-001	-9.679305e-001
15386658.000	-2.594369e-001	-9.678141e-001
15392652.000	-2.598528e-001	-9.677514e-001
15398646.000	-2.602154e-001	-9.676688e-001
15404640.000	-2.605975e-001	-9.675659e-001
15410634.000	-2.609242e-001	-9.674588e-001
15416628.000	-2.613000e-001	-9.673558e-001
15422622.000	-2.616236e-001	-9.672818e-001
15428616.000	-2.620125e-001	-9.671022e-001
15434610.000	-2.623699e-001	-9.670781e-001
15440604.000	-2.627965e-001	-9.669746e-001
15446598.000	-2.630991e-001	-9.668396e-001
15452592.000	-2.634735e-001	-9.667310e-001
15458586.000	-2.638374e-001	-9.666755e-001
15464580.000	-2.642114e-001	-9.665612e-001
15470574.000	-2.645775e-001	-9.664735e-001
15476568.000	-2.649285e-001	-9.663778e-001
15482562.000	-2.652893e-001	-9.662569e-001
15488556.000	-2.656677e-001	-9.661792e-001
15494550.000	-2.660280e-001	-9.660037e-001
15500544.000	-2.663666e-001	-9.659833e-001
15506538.000	-2.667414e-001	-9.657928e-001
15512532.000	-2.671064e-001	-9.657541e-001
15518526.000	-2.674746e-001	-9.656659e-001
15524520.000	-2.678125e-001	-9.655110e-001
15530514.000	-2.681198e-001	-9.654596e-001
15536508.000	-2.684988e-001	-9.653784e-001
15542502.000	-2.689393e-001	-9.652980e-001
15548496.000	-2.692679e-001	-9.652027e-001
15554490.000	-2.695737e-001	-9.650699e-001
15560484.000	-2.699917e-001	-9.650011e-001
15566478.000	-2.703104e-001	-9.648120e-001
15572472.000	-2.706488e-001	-9.647722e-001
15578466.000	-2.710042e-001	-9.646629e-001
15584460.000	-2.714251e-001	-9.645494e-001
15590454.000	-2.717572e-001	-9.645371e-001
15596448.000	-2.721231e-001	-9.643328e-001
15602442.000	-2.724892e-001	-9.642620e-001
15608436.000	-2.728197e-001	-9.641820e-001
15614430.000	-2.731712e-001	-9.640565e-001
15620424.000	-2.735045e-001	-9.639322e-001
15626418.000	-2.738717e-001	-9.638114e-001
15632412.000	-2.742279e-001	-9.637592e-001
15638406.000	-2.745723e-001	-9.636755e-001
15644400.000	-2.749289e-001	-9.635381e-001
15650394.000	-2.753310e-001	-9.634419e-001
15656388.000	-2.757075e-001	-9.633887e-001
15662382.000	-2.760162e-001	-9.632121e-001
15668376.000	-2.763595e-001	-9.631262e-001
15674370.000	-2.766901e-001	-9.630322e-001
15680364.000	-2.771105e-001	-9.629152e-001
15686358.000	-2.774790e-001	-9.628228e-001
15692352.000	-2.777870e-001	-9.627150e-001
15698346.000	-2.781530e-001	-9.625985e-001
15704340.000	-2.784889e-001	-9.624586e-001
15710334.000	-2.788438e-001	-9.624217e-001
15716328.000	-2.792341e-001	-9.623745e-001
15722322.000	-2.795450e-001	-9.622528e-001
15728316.000	-2.799080e-001	-9.621401e-001
15734310.000	-2.802927e-001	-9.620312e-001
15740304.000	-2.806621e-001	-9.619222e-001
15746298.000	-2.809654e-001	-9.618331e-001
15752292.000	-2.813266e-001	-9.617222e-001
15758286.000	-2.816646e-001	-9.616569e-001
15764280.000	-2.820600e-001	-9.615346e-001
15770274.000	-2.823759e-001	-9.614088e-001
15776268.000	-2.827721e-001	-9.612825e-001
15782262.000	-2.831024e-001	-9.611979e-001
15788256.000	-2.834022e-001	-9.611168e-001
15794250.000	-2.837674e-001	-9.610198e-001
15800244.000	-2.841480e-001	-9.609098e-001
15806238.000	-2.844989e-001	-9.608126e-001
15812232.000	-2.848183e-001	-9.606823e-001
15818226.000	-2.852061e-001	-9.606694e-001
15824220.000	-2.855646e-001	-9.605212e-001
15830214.000	-2.858785e-001	-9.603806e-001
15836208.000	-2.862522e-001	-9.602856e-001
15842202.000	-2.865965e-001	-9.601841e-001
15848196.000	-2.869930e-001	-9.600728e-001
15854190.000	-2.872598e-001	-9.600119e-001
15860184.000	-2.875905e-001	-9.599070e-001
15866178.000	-2.879681e-001	-9.597411e-001
15872172.000	-2.883646e-001	-9.596447e-001
15878166.000	-2.886348e-001	-9.595366e-001
15884160.000	-2.889631e-001	-9.593860e-001
15890154.000	-2.893280e-001	-9.592980e-001
15896148.000	-2.896587e-001	-9.591873e-001
15902142.000	-2.900232e-001	-9.591126e-001
15908136.000	-2.904321e-001	-9.590436e-001
15914130.000	-2.907306e-001	-9.589381e-001
15920124.000	-2.910886e-001	-9.588014e-001
15926118.000	-2.914005e-001	-9.587218e-001
15932112.000	-2.917764e-001	-9.585769e-001
15938106.000	-2.921831e-001	-9.585387e-001
15944100.000	-2.924746e-001	-9.583866e-001
15950094.000	-2.927870e-001	-9.582505e-001
15956088.000	-2.931511e-001	-9.581745e-001
15962082.000	-2.934644e-001	-9.580974e-001
15968076.000	-2.938528e-001	-9.580203e-001
15974070.000	-2.941801e-001	-9.578842e-001
15980064.000	-2.945170e-001	-9.577989e-001
15986058.000	-2.948586e-001	-9.577334e-001
15992052.000	-2.952265e-001	-9.575402e-001
15998046.000	-2.955534e-001	-9.574815e-001
16004040.000	-2.959058e-001	-9.573420e-001
16010034.000	-2.962564e-001	-9.572559e-001
16016028.000	-2.966195e-001	-9.571644e-001
16022022.000	-2.969435e-001	-9.570851e-001
16028016.000	-2.972588e-001	-9.569367e-001
16034010.000	-2.975923e-001	-9.567972e-001
16040004.000	-2.979764e-001	-9.566711e-001
16045998.000	-2.983180e-001	-9.565345e-001
16051992.000	-2.986436e-001	-9.565139e-001
16057986.000	-2.989904e-001	-9.564085e-001
16063980.000	-2.993612e-001	-9.562995e-001
16069974.000	-2.996635e-001	-9.561860e-001
16075968.000	-3.000371e-001	-9.561359e-001
16081962.000	-3.003673e-001	-9.559702e-001
16087956.000	-3.006722e-001	-9.558347e-001
16093950.000	-3.010401e-001	-9.557303e-001
16099944.000	-3.013544e-001	-9.556327e-001
16105938.000	-3.017503e-001	-9.555630e-001
16111932.000	-3.020316e-001	-9.554038e-001
16117926.000	-3.024169e-001	-9.552639e-001
16123920.000	-3.027672e-001	-9.552070e-001
16129914.000	-3.030691e-001	-9.551021e-001
16135908.000	-3.034284e-001	-9.549985e-001
16141902.000	-3.037016e-001	-9.549165e-001
16147896.000	-3.041150e-001	-9.547649e-001
16153890.000	-3.044282e-001	-9.546308e-001
16159884.000	-3.047515e-001	-9.545386e-001
16165878.000	-3.050847e-001	-9.544603e-001
16171872.000	-3.054585e-001	-9.542862e-001
16177866.000	-3.058229e-001	-9.541723e-001
16183860.000	-3.060979e-001	-9.540881e-001
16189854.000	-3.064413e-001	-9.539516e-001
16195848.000	-3.067506e-001	-9.538975e-001
16201842.000	-3.071398e-001	-9.538135e-001
16207836.000	-3.074859e-001	-9.536929e-001
16213830.000	-3.077984e-001	-9.535685e-001
16219824.000	-3.081192e-001	-9.534482e-001
16225818.000	-3.085174e-001	-9.533966e-001
16231812.000	-3.088330e-001	-9.533316e-001
16237806.000	-3.091499e-001	-9.531911e-001
16243800.000	-3.094784e-001	-9.531007e-001
16249794.000	-3.098406e-001	-9.529151e-001
16255788.000	-3.101586e-001	-9.528125e-001
16261782.000	-3.105139e-001	-9.527329e-001
16267776.000	-3.108232e-001	-9.526265e-001
16273770.000	-3.111364e-001	-9.525107e-001
16279764.000	-3.114914e-001	-9.524089e-001
16285758.000	-3.118440e-001	-9.523519e-001
16291752.000	-3.121571e-001	-9.521910e-001
16297746.000	-3.124786e-001	-9.521203e-001
16303740.000	-3.128561e-001	-9.519790e-001
16309734.000	-3.131437e-001	-9.518805e-001
16315728.000	-3.135115e-001	-9.517645e-001
16321722.000	-3.138086e-001	-9.516671e-001
16327716.000	-3.141700e-001	-9.515234e-001
16333710.000	-3.145247e-001	-9.514585e-001
16339704.000	-3.148084e-001	-9.513442e-001
16345698.000	-3.151366e-001	-9.512097e-001
16351692.000	-3.154615e-001	-9.510662e-001
16357686.000	-3.158009e-001	-9.510052e-001
16363680.000	-3.161398e-001	-9.508974e-001
16369674.000	-3.164672e-001	-9.508079e-001
16375668.000	-3.168265e-001	-9.506894e-001
16381662.000	-3.171412e-001	-9.505759e-001
16387656.000	-3.174532e-001	-9.504628e-001
16393650.000	-3.177999e-001	-9.503325e-001
16399644.000	-3.181498e-001	-9.502451e-001
16405638.000	-3.184684e-001	-9.501187e-001
16411632.000	-3.187567e-001	-9.499772e-001
16417626.000	-3.191208e-001	-9.499097e-001
16423620.000	-3.194570e-001	-9.497408e-001
16429614.000	-3.197537e-001	-9.496876e-001
16435608.000	-3.201359e-001	-9.496204e-001
16441602.000	-3.204718e-001	-9.494710e-001
16447596.000	-3.207436e-001	-9.493404e-001
16453590.000	-3.210957e-001	-9.491979e-001
16459584.000	-3.214501e-001	-9.491338e-001
16465578.000	-3.217172e-001	-9.489435e-001
16471572.000	-3.220626e-001	-9.489228e-001
16477566.000	-3.223805e-001	-9.487908e-001
16483560.000	-3.227553e-001	-9.486784e-001
16489554.000	-3.230450e-001	-9.485827e-001
16495548.000	-3.234074e-001	-9.484957e-001
16501542.000	-3.237342e-001	-9.483570e-001
16507536.000	-3.240359e-001	-9.482112e-001
16513530.000	-3.243077e-001	-9.481023e-001
16519524.000	-3.246794e-001	-9.479566e-001
16525518.000	-3.249815e-001	-9.478844e-001
16531512.000	-3.253844e-001	-9.477537e-001
16537506.000	-3.256221e-001	-9.476395e-001
16543500.000	-3.259289e-001	-9.475753e-001
16549494.000	-3.262851e-001	-9.474088e-001
16555488.000	-3.265831e-001	-9.473290e-001
16561482.000	-3.269575e-001	-9.472376e-001
16567476.000	-3.272776e-001	-9.471245e-001
16573470.000	-3.276161e-001	-9.469781e-001
16579464.000	-3.278647e-001	-9.468082e-001
16585458.000	-3.282444e-001	-9.467235e-001
16591452.000	-3.285534e-001	-9.466647e-001
16597446.000	-3.288918e-001	-9.465446e-001
16603440.000	-3.292389e-001	-9.464722e-001
16609434.000	-3.295535e-001	-9.463442e-001
16615428.000	-3.298775e-001	-9.462190e-001
16621422.000	-3.301705e-001	-9.460868e-001
16627416.000	-3.305499e-001	-9.460229e-001
16633410.000	-3.308616e-001	-9.458814e-001
16639404.000	-3.311379e-001	-9.457703e-001
16645398.000	-3.315263e-001	-9.457268e-001
16651392.000	-3.318078e-001	-9.455452e-001
16657386.000	-3.321560e-001	-9.454344e-001
16663380.000	-3.324501e-001	-9.453145e-001
16669374.000	-3.328208e-001	-9.451761e-001
16675368.000	-3.330912e-001	-9.450467e-001
16681362.000	-3.334332e-001	-9.450111e-001
16687356.000	-3.337023e-001	-9.449179e-001
16693350.000	-3.340498e-001	-9.447848e-001
16699344.000	-3.343619e-001	-9.446119e-001
16705338.000	-3.347131e-001	-9.445485e-001
16711332.000	-3.350761e-001	-9.444521e-001
16717326.000	-3.353602e-001	-9.443256e-001
16723320.000	-3.356520e-001	-9.442120e-001
16729314.000	-3.360193e-001	-9.441365e-001
16735308.000	-3.363008e-001	-9.439515e-001
16741302.000	-3.366007e-001	-9.438248e-001
16747296.000	-3.369410e-001	-9.437203e-001
16753290.000	-3.371891e-001	-9.435400e-001
16759284.000	-3.375814e-001	-9.435302e-001
16765278.000	-3.379040e-001	-9.434153e-001
16771272.000	-3.382119e-001	-9.432834e-001
16777266.000	-3.385327e-001	-9.430844e-001
16783260.000	-3.388280e-001	-9.430267e-001
16789254.000	-3.391677e-001	-9.429351e-001
16795248.000	-3.394396e-001	-9.427793e-001
16801242.000	-3.398068e-001	-9.426861e-001
16807236.000	-3.401355e-001	-9.425947e-001
16813230.000	-3.403688e-001	-9.424169e-001
16819224.000	-3.407356e-001	-9.423328e-001
16825218.000	-3.410481e-001	-9.422129e-001
16831212.000	-3.413218e-001	-9.420895e-001
16837206.000	-3.416647e-001	-9.420004e-001
16843200.000	-3.419496e-001	-9.418327e-001
16849194.000	-3.423155e-001	-9.418064e-001
16855188.000	-3.426063e-001	-9.416205e-001
16861182.000	-3.429569e-001	-9.415369e-001
16867176.000	-3.432463e-001	-9.414295e-001
16873170.000	-3.436321e-001	-9.413627e-001
16879164.000	-3.438972e-001	-9.412677e-001
16885158.000	-3.442024e-001	-9.410233e-001
16891152.000	-3.445371e-001	-9.409750e-001
16897146.000	-3.448246e-001	-9.408878e-001
16903140.000	-3.451581e-001	-9.408087e-001
16909134.000	-3.454474e-001	-9.406528e-001
16915128.000	-3.458097e-001	-9.405917e-001
16921122.000	-3.460505e-001	-9.404091e-001
16927116.000	-3.464024e-001	-9.402886e-001
16933110.000	-3.467340e-001	-9.402132e-001
16939104.000	-3.470396e-001	-9.400791e-001
16945098.000	-3.473251e-001	-9.399682e-001
16951092.000	-3.476823e-001	-9.398731e-001
16957086.000	-3.479322e-001	-9.397997e-001
16963080.000	-3.482854e-001	-9.396443e-001
16969074.000	-3.486050e-001	-9.395075e-001
16975068.000	-3.488907e-001	-9.393989e-001
16981062.000	-3.492261e-001	-9.393103e-001
16987056.000	-3.495252e-001	-9.391387e-001
16993050.000	-3.498454e-001	-9.390505e-001
16999044.000	-3.501488e-001	-9.389246e-001
17005038.000	-3.504652e-001	-9.387766e-001
17011032.000	-3.507919e-001	-9.387560e-001
17017026.000	-3.510283e-001	-9.385380e-001
17023020.000	-3.513637e-001	-9.384615e-001
17029014.000	-3.516835e-001	-9.383779e-001
17035008.000	-3.519987e-001	-9.382182e-001
17041002.000	-3.522751e-001	-9.381133e-001
17046996.000	-3.526210e-001	-9.379720e-001
17052990.000	-3.528892e-001	-9.378166e-001
17058984.000	-3.532502e-001	-9.377353e-001
17064978.000	-3.535197e-001	-9.375978e-001
17070972.000	-3.538271e-001	-9.375172e-001
17076966.000	-3.541807e-001	-9.373931e-001
17082960.000	-3.544721e-001	-9.372652e-001
17088954.000	-3.547683e-001	-9.371419e-001
17094948.000	-3.550655e-001	-9.369911e-001
17100942.000	-3.553790e-001	-9.369136e-001
17106936.000	-3.556658e-001	-9.368361e-001
17112930.000	-3.560160e-001	-9.367022e-001
17118924.000	-3.563129e-001	-9.366446e-001
17124918.000	-3.566276e-001	-9.365235e-001
17130912.000	-3.569093e-001	-9.363846e-001
17136906.000	-3.572226e-001	-9.362495e-001
17142900.000	-3.575070e-001	-9.360959e-001
17148894.000	-3.578459e-001	-9.359538e-001
17154888.000	-3.581319e-001	-9.358670e-001
17160882.000	-3.584730e-001	-9.358267e-001
17166876.000	-3.587600e-001	-9.356650e-001
17172870.000	-3.590395e-001	-9.355225e-001
17178864.000	-3.593736e-001	-9.354259e-001
17184858.000	-3.596904e-001	-9.352818e-001
17190852.000	-3.599575e-001	-9.351644e-001
17196846.000	-3.602353e-001	-9.349926e-001
17202840.000	-3.605830e-001	-9.349187e-001
17208834.000	-3.608712e-001	-9.348281e-001
17214828.000	-3.611729e-001	-9.346748e-001
17220822.000	-3.615032e-001	-9.346022e-001
17226816.000	-3.617745e-001	-9.344581e-001
17232810.000	-3.620735e-001	-9.343290e-001
17238804.000	-3.624195e-001	-9.342418e-001
17244798.000	-3.627273e-001	-9.341196e-001
17250792.000	-3.629967e-001	-9.339726e-001
17256786.000	-3.633085e-001	-9.338514e-001
17262780.000	-3.636068e-001	-9.337588e-001
17268774.000	-3.639077e-001	-9.335982e-001
17274768.000	-3.642357e-001	-9.335968e-001
17280762.000	-3.645380e-001	-9.334078e-001
17286756.000	-3.648176e-001	-9.332688e-001
17292750.000	-3.651568e-001	-9.331365e-001
17298744.000	-3.654476e-001	-9.330300e-001
17304738.000	-3.657154e-001	-9.329359e-001
17310732.000	-3.660311e-001	-9.328041e-001
17316726.000	-3.663284e-001	-9.326788e-001
17322720.000	-3.666567e-001	-9.326069e-001
17328714.000	-3.669222e-001	-9.324541e-001
17334708.000	-3.672068e-001	-9.323955e-001
17340702.000	-3.675666e-001	-9.322598e-001
17346696.000	-3.678232e-001	-9.321268e-001
17352690.000	-3.681070e-001	-9.320042e-001
17358684.000	-3.684489e-001	-9.319106e-001
17364678.000	-3.687510e-001	-9.318133e-001
17370672.000	-3.690641e-001	-9.316677e-001
17376666.000	-3.693397e-001	-9.315799e-001
17382660.000	-3.696287e-001	-9.314032e-001
17388654.000	-3.699424e-001	-9.313209e-001
17394648.000	-3.702060e-001	-9.312074e-001
17400642.000	-3.705259e-001	-9.310579e-001
17406636.000	-3.708440e-001	-9.309333e-001
17412630.000	-3.711706e-001	-9.308178e-001
17418624.000	-3.714454e-001	-9.306895e-001
17424618.000	-3.717232e-001	-9.306402e-001
17430612.000	-3.720387e-001	-9.304961e-001
17436606.000	-3.723709e-001	-9.303513e-001
17442600.000	-3.726079e-001	-9.302365e-001
17448594.000	-3.729054e-001	-9.301662e-001
17454588.000	-3.732537e-001	-9.299502e-001
17460582.000	-3.734984e-001	-9.298483e-001
17466576.000	-3.738330e-001	-9.298182e-001
17472570.000	-3.740871e-001	-9.295925e-001
17478564.000	-3.743861e-001	-9.295535e-001
17484558.000	-3.747074e-001	-9.293863e-001
17490552.000	-3.750186e-001	-9.292701e-001
17496546.000	-3.753049e-001	-9.291377e-001
17502540.000	-3.756192e-001	-9.290960e-001
17508534.000	-3.758737e-001	-9.289425e-001
17514528.000	-3.761737e-001	-9.288247e-001
17520522.000	-3.764550e-001	-9.287174e-001
17526516.000	-3.767519e-001	-9.285379e-001
17532510.000	-3.770358e-001	-9.284438e-001
17538504.000	-3.773525e-001	-9.283545e-001
17544498.000	-3.776286e-001	-9.281952e-001
17550492.000	-3.779483e-001	-9.280755e-001
17556486.000	-3.782448e-001	-9.279944e-001
17562480.000	-3.785032e-001	-9.278437e-001
17568474.000	-3.788236e-001	-9.277586e-001
17574468.000	-3.790863e-001	-9.276232e-001
17580462.000	-3.794357e-001	-9.275252e-001
17586456.000	-3.797260e-001	-9.273704e-001
17592450.000	-3.800282e-001	-9.272643e-001
17598444.000	-3.802829e-001	-9.271357e-001
17604438.000	-3.805827e-001	-9.270138e-001
17610432.000	-3.808725e-001	-9.268441e-001
17616426.000	-3.811801e-001	-9.267459e-001
17622420.000	-3.814831e-001	-9.266843e-001
17628414.000	-3.817268e-001	-9.265848e-001
17634408.000	-3.820573e-001	-9.264260e-001
17640402.000	-3.823548e-001	-9.262707e-001
17646396.000	-3.826214e-001	-9.261884e-001
17652390.000	-3.828845e-001	-9.260492e-001
17658384.000	-3.832216e-001	-9.259676e-001
17664378.000	-3.835051e-001	-9.258342e-001
17670372.000	-3.837685e-001	-9.256719e-001
17676366.000	-3.840405e-001	-9.255753e-001
17682360.000	-3.843688e-001	-9.254452e-001
17688354.000	-3.846630e-001	-9.253300e-001
17694348.000	-3.849552e-001	-9.252069e-001
17700342.000	-3.852275e-001	-9.251014e-001
17706336.000	-3.855803e-001	-9.250005e-001
17712330.000	-3.858623e-001	-9.248331e-001
17718324.000	-3.861361e-001	-9.247883e-001
17724318.000	-3.863607e-001	-9.246057e-001
17730312.000	-3.867255e-001	-9.244592e-001
17736306.000	-3.869818e-001	-9.243770e-001
17742300.000	-3.872641e-001	-9.242214e-001
17748294.000	-3.875339e-001	-9.241044e-001
17754288.000	-3.878758e-001	-9.240196e-001
17760282.000	-3.881327e-001	-9.238962e-001
17766276.000	-3.884452e-001	-9.237743e-001
17772270.000	-3.886941e-001	-9.236682e-001
17778264.000	-3.889804e-001	-9.235196e-001
17784258.000	-3.893023e-001	-9.233991e-001
17790252.000	-3.896076e-001	-9.233132e-001
17796246.000	-3.898384e-001	-9.231380e-001
17802240.000	-3.901428e-001	-9.230115e-001
17808234.000	-3.904182e-001	-9.229206e-001
17814228.000	-3.906940e-001	-9.228382e-001
17820222.000	-3.909747e-001	-9.226619e-001
17826216.000	-3.913262e-001	-9.225695e-001
17832210.000	-3.915887e-001	-9.224404e-001
17838204.000	-3.918304e-001	-9.223075e-001
17844198.000	-3.921511e-001	-9.221749e-001
17850192.000	-3.924105e-001	-9.220477e-001
17856186.000	-3.926711e-001	-9.219504e-001
17862180.000	-3.929859e-001	-9.218343e-001
17868174.000	-3.932947e-001	-9.217047e-001
17874168.000	-3.935887e-001	-9.216194e-001
17880162.000	-3.938809e-001	-9.215069e-001
17886156.000	-3.941399e-001	-9.213349e-001
17892150.000	-3.944447e-001	-9.212291e-001
17898144.000	-3.947448e-001	-9.210959e-001
17904138.000	-3.950203e-001	-9.209630e-001
17910132.000	-3.952565e-001	-9.208489e-001
17916126.000	-3.955454e-001	-9.207532e-001
17922120.000	-3.958306e-001	-9.205914e-001
17928114.000	-3.960675e-001	-9.204624e-001
17934108.000	-3.963702e-001	-9.203599e-001
17940102.000	-3.966819e-001	-9.202536e-001
17946096.000	-3.969934e-001	-9.201424e-001
17952090.000	-3.972666e-001	-9.200186e-001
17958084.000	-3.975638e-001	-9.199094e-001
17964078.000	-3.978224e-001	-9.197405e-001
17970072.000	-3.981187e-001	-9.196272e-001
17976066.000	-3.983788e-001	-9.195358e-001
17982060.000	-3.986667e-001	-9.194529e-001
17988054.000	-3.989177e-001	-9.192283e-001
17994048.000	-3.991820e-001	-9.191544e-001
18000042.000	-3.995052e-001	-9.190127e-001
18006036.000	-3.997842e-001	-9.189372e-001
18012030.000	-4.000115e-001	-9.187664e-001
18018024.000	-4.003578e-001	-9.186683e-001
18024018.000	-4.006173e-001	-9.185568e-001
18030012.000	-4.009180e-001	-9.184455e-001
18036006.000	-4.011670e-001	-9.182998e-001
18042000.000	-4.014633e-001	-9.181644e-001
18047994.000	-4.017195e-001	-9.179724e-001
18053988.000	-4.020346e-001	-9.179436e-001
18059982.000	-4.022644e-001	-9.178009e-001
18065976.000	-4.025405e-001	-9.176760e-001
18071970.000	-4.028662e-001	-9.175420e-001
18077964.000	-4.031667e-001	-9.174334e-001
18083958.000	-4.034410e-001	-9.173508e-001
18089952.000	-4.037139e-001	-9.172204e-001
18095946.000	-4.039875e-001	-9.171473e-001
18101940.000	-4.042475e-001	-9.169886e-001
18107934.000	-4.045443e-001	-9.169153e-001
18113928.000	-4.047730e-001	-9.167202e-001
18119922.000	-4.051352e-001	-9.166142e-001
18125916.000	-4.053753e-001	-9.164703e-001
18131910.000	-4.056550e-001	-9.163443e-001
18137904.000	-4.059711e-001	-9.162683e-001
18143898.000	-4.061790e-001	-9.160493e-001
18149892.000	-4.064312e-001	-9.159182e-001
18155886.000	-4.067794e-001	-9.158243e-001
18161880.000	-4.070238e-001	-9.156737e-001
18167874.000	-4.072945e-001	-9.155625e-001
18173868.000	-4.076012e-001	-9.155176e-001
18179862.000	-4.078684e-001	-9.153685e-001
18185856.000	-4.081392e-001	-9.152492e-001
18191850.000	-4.084378e-001	-9.151180e-001
18197844.000	-4.087276e-001	-9.150216e-001
18203838.000	-4.089645e-001	-9.148657e-001
18209832.000	-4.092394e-001	-9.147495e-001
18215826.000	-4.095092e-001	-9.145972e-001
18221820.000	-4.097826e-001	-9.144410e-001
18227814.000	-4.100288e-001	-9.143715e-001
18233808.000	-4.103295e-001	-9.142221e-001
18239802.000	-4.105692e-001	-9.140977e-001
18245796.000	-4.108447e-001	-9.140184e-001
18251790.000	-4.111652e-001	-9.139185e-001
18257784.000	-4.114530e-001	-9.137394e-001
18263778.000	-4.116745e-001	-9.136006e-001
18269772.000	-4.119765e-001	-9.135222e-001
18275766.000	-4.122328e-001	-9.133316e-001
18281760.000	-4.124813e-001	-9.132605e-001
18287754.000	-4.128208e-001	-9.131415e-001
18293748.000	-4.130379e-001	-9.130087e-001
18299742.000	-4.133799e-001	-9.129048e-001
18305736.000	-4.136007e-001	-9.127626e-001
18311730.000	-4.138812e-001	-9.126042e-001
18317724.000	-4.141372e-001	-9.124974e-001
18323718.000	-4.144023e-001	-9.123764e-001
18329712.000	-4.147195e-001	-9.122775e-001
18335706.000	-4.149509e-001	-9.121448e-001
18341700.000	-4.152765e-001	-9.120026e-001
18347694.000	-4.155599e-001	-9.119208e-001
18353688.000	-4.157834e-001	-9.117577e-001
18359682.000	-4.160306e-001	-9.116261e-001
18365676.000	-4.163520e-001	-9.114969e-001
18371670.000	-4.166344e-001	-9.113745e-001
18377664.000	-4.168626e-001	-9.112735e-001
18383658.000	-4.171271e-001	-9.111951e-001
18389652.000	-4.174259e-001	-9.110470e-001
18395646.000	-4.177244e-001	-9.109569e-001
18401640.000	-4.179543e-001	-9.107705e-001
18407634.000	-4.182250e-001	-9.106062e-001
18413628.000	-4.185189e-001	-9.104606e-001
18419622.000	-4.187828e-001	-9.104129e-001
18425616.000	-4.190203e-001	-9.102677e-001
18431610.000	-4.193061e-001	-9.101351e-001
18437604.000	-4.195404e-001	-9.099710e-001
18443598.000	-4.198519e-001	-9.098889e-001
18449592.000	-4.201316e-001	-9.097720e-001
18455586.000	-4.203797e-001	-9.096262e-001
18461580.000	-4.206625e-001	-9.095082e-001
18467574.000	-4.209084e-001	-9.093623e-001
18473568.000	-4.211902e-001	-9.092358e-001
18479562.000	-4.214962e-001	-9.091341e-001
18485556.000	-4.217145e-001	-9.089326e-001
18491550.000	-4.219349e-001	-9.088473e-001
18497544.000	-4.222285e-001	-9.087573e-001
18503538.000	-4.224806e-001	-9.085795e-001
18509532.000	-4.227630e-001	-9.085018e-001
18515526.000	-4.230459e-001	-9.084368e-001
18521520.000	-4.232997e-001	-9.082277e-001
18527514.000	-4.235919e-001	-9.081006e-001
18533508.000	-4.238442e-001	-9.079841e-001
18539502.000	-4.241464e-001	-9.079250e-001
18545496.000	-4.243932e-001	-9.077266e-001
18551490.000	-4.246212e-001	-9.077010e-001
18557484.000	-4.248975e-001	-9.075564e-001
18563478.000	-4.251953e-001	-9.074213e-001
18569472.000	-4.254330e-001	-9.072460e-001
18575466.000	-4.256935e-001	-9.071292e-001
18581460.000	-4.259918e-001	-9.070131e-001
18587454.000	-4.262432e-001	-9.068918e-001
18593448.000	-4.264829e-001	-9.067579e-001
18599442.000	-4.267665e-001	-9.066523e-001
18605436.000	-4.270354e-001	-9.064885e-001
18611430.000	-4.272920e-001	-9.063527e-001
18617424.000	-4.275334e-001	-9.062509e-001
18623418.000	-4.278803e-001	-9.061491e-001
18629412.000	-4.280804e-001	-9.060647e-001
18635406.000	-4.283391e-001	-9.059224e-001
18641400.000	-4.286011e-001	-9.057759e-001
18647394.000	-4.289062e-001	-9.056612e-001
18653388.000	-4.291775e-001	-9.055635e-001
18659382.000	-4.294238e-001	-9.054158e-001
18665376.000	-4.296908e-001	-9.052782e-001
18671370.000	-4.299287e-001	-9.051371e-001
18677364.000	-4.302253e-001	-9.050131e-001
18683358.000	-4.304885e-001	-9.049263e-001
18689352.000	-4.307256e-001	-9.047576e-001
18695346.000	-4.309753e-001	-9.046409e-001
18701340.000	-4.312544e-001	-9.044628e-001
18707334.000	-4.314863e-001	-9.043635e-001
18713328.000	-4.317580e-001	-9.042887e-001
18719322.000	-4.320345e-001	-9.041648e-001
18725316.000	-4.323411e-001	-9.040145e-001
18731310.000	-4.325585e-001	-9.039382e-001
18737304.000	-4.328186e-001	-9.038072e-001
18743298.000	-4.331192e-001	-9.036359e-001
18749292.000	-4.333289e-001	-9.036137e-001
18755286.000	-4.336296e-001	-9.034092e-001
18761280.000	-4.338607e-001	-9.032438e-001
18767274.000	-4.340885e-001	-9.031274e-001
18773268.000	-4.343757e-001	-9.030334e-001
18779262.000	-4.346381e-001	-9.028798e-001
18785256.000	-4.349626e-001	-9.027887e-001
18791250.000	-4.352075e-001	-9.026716e-001
18797244.000	-4.354365e-001	-9.025576e-001
18803238.000	-4.357027e-001	-9.023878e-001
18809232.000	-4.359543e-001	-9.022522e-001
18815226.000	-4.362129e-001	-9.021431e-001
18821220.000	-4.364268e-001	-9.019965e-001
18827214.000	-4.367460e-001	-9.019482e-001
18833208.000	-4.370352e-001	-9.017982e-001
18839202.000	-4.372602e-001	-9.016486e-001
18845196.000	-4.374804e-001	-9.015269e-001
18851190.000	-4.377892e-001	-9.013681e-001
18857184.000	-4.380149e-001	-9.012809e-001
18863178.000	-4.382765e-001	-9.011554e-001
18869172.000	-4.385678e-001	-9.010146e-001
18875166.000	-4.388136e-001	-9.008874e-001
18881160.000	-4.390482e-001	-9.007522e-001
18887154.000	-4.393084e-001	-9.005612e-001
18893148.000	-4.396005e-001	-9.005694e-001
18899142.000	-4.398276e-001	-9.003826e-001
18905136.000	-4.400687e-001	-9.003024e-001
18911130.000	-4.403508e-001	-9.001518e-001
18917124.000	-4.406105e-001	-9.000503e-001
18923118.000	-4.408638e-001	-8.999078e-001
18929112.000	-4.410940e-001	-8.997592e-001
18935106.000	-4.413628e-001	-8.996493e-001
18941100.000	-4.416059e-001	-8.995221e-001
18947094.000	-4.418561e-001	-8.993370e-001
18953088.000	-4.420910e-001	-8.992278e-001
18959082.000	-4.423813e-001	-8.991200e-001
18965076.000	-4.426196e-001	-8.990028e-001
18971070.000	-4.428800e-001	-8.988437e-001
18977064.000	-4.431436e-001	-8.986934e-001
18983058.000	-4.434017e-001	-8.985841e-001
18989052.000	-4.436670e-001	-8.985226e-001
18995046.000	-4.439261e-001	-8.983417e-001
19001040.000	-4.441121e-001	-8.982654e-001
19007034.000	-4.444729e-001	-8.981561e-001
19013028.000	-4.446681e-001	-8.979913e-001
19019022.000	-4.449457e-001	-8.978981e-001
19025016.000	-4.451828e-001	-8.977393e-001
19031010.000	-4.454229e-001	-8.975991e-001
19037004.000	-4.456643e-001	-8.974983e-001
19042998.000	-4.459480e-001	-8.973602e-001
19048992.000	-4.462463e-001	-8.972256e-001
19054986.000	-4.463894e-001	-8.971434e-001
19060980.000	-4.467054e-001	-8.969992e-001
19066974.000	-4.469061e-001	-8.968300e-001
19072968.000	-4.471618e-001	-8.967278e-001
19078962.000	-4.474397e-001	-8.966027e-001
19084956.000	-4.476923e-001	-8.964664e-001
19090950.000	-4.479559e-001	-8.963622e-001
19096944.000	-4.482006e-001	-8.962293e-001
19102938.000	-4.484206e-001	-8.960913e-001
19108932.000	-4.487306e-001	-8.959773e-001
19114926.000	-4.489550e-001	-8.958426e-001
19120920.000	-4.492247e-001	-8.957638e-001
19126914.000	-4.494185e-001	-8.955682e-001
19132908.000	-4.497172e-001	-8.954351e-001
19138902.000	-4.499892e-001	-8.953644e-001
19144896.000	-4.502038e-001	-8.952401e-001
19150890.000	-4.504761e-001	-8.951147e-001
19156884.000	-4.506819e-001	-8.949595e-001
19162878.000	-4.509410e-001	-8.948242e-001
19168872.000	-4.512439e-001	-8.947317e-001
19174866.000	-4.514553e-001	-8.946127e-001
19180860.000	-4.517557e-001	-8.944945e-001
19186854.000	-4.520028e-001	-8.943736e-001
19192848.000	-4.522081e-001	-8.941848e-001
19198842.000	-4.524773e-001	-8.941320e-001
19204836.000	-4.527633e-001	-8.939817e-001
19210830.000	-4.529908e-001	-8.938526e-001
19216824.000	-4.532216e-001	-8.937000e-001
19222818.000	-4.534826e-001	-8.935754e-001
19228812.000	-4.536903e-001	-8.934331e-001
19234806.000	-4.539978e-001	-8.932945e-001
19240800.000	-4.542002e-001	-8.931993e-001
19246794.000	-4.544739e-001	-8.930786e-001
19252788.000	-4.547135e-001	-8.930032e-001
19258782.000	-4.549511e-001	-8.928145e-001
19264776.000	-4.551906e-001	-8.927101e-001
19270770.000	-4.554754e-001	-8.925923e-001
19276764.000	-4.556932e-001	-8.924716e-001
19282758.000	-4.559881e-001	-8.923798e-001
19288752.000	-4.562129e-001	-8.922040e-001
19294746.000	-4.564931e-001	-8.921025e-001
19300740.000	-4.567050e-001	-8.919671e-001
19306734.000	-4.569355e-001	-8.918110e-001
19312728.000	-4.571946e-001	-8.916814e-001
19318722.000	-4.574254e-001	-8.915637e-001
19324716.000	-4.576895e-001	-8.914152e-001
19330710.000	-4.579632e-001	-8.913162e-001
19336704.000	-4.581442e-001	-8.911952e-001
19342698.000	-4.584097e-001	-8.910572e-001
19348692.000	-4.586402e-001	-8.909450e-001
19354686.000	-4.588749e-001	-8.908009e-001
19360680.000	-4.591378e-001	-8.907104e-001
19366674.000	-4.593984e-001	-8.906028e-001
19372668.000	-4.596655e-001	-8.904392e-001
19378662.000	-4.599122e-001	-8.903058e-001
19384656.000	-4.601282e-001	-8.901708e-001
19390650.000	-4.603473e-001	-8.899899e-001
19396644.000	-4.605835e-001	-8.899819e-001
19402638.000	-4.608464e-001	-8.898337e-001
19408632.000	-4.611144e-001	-8.896796e-001
19414626.000	-4.613955e-001	-8.895860e-001
19420620.000	-4.616303e-001	-8.893943e-001
19426614.000	-4.618797e-001	-8.893444e-001
19432608.000	-4.621060e-001	-8.891683e-001
19438602.000	-4.623516e-001	-8.890542e-001
19444596.000	-4.625209e-001	-8.889312e-001
19450590.000	-4.628180e-001	-8.888331e-001
19456584.000	-4.630368e-001	-8.886131e-001
19462578.000	-4.633000e-001	-8.885367e-001
19468572.000	-4.635793e-001	-8.884179e-001
19474566.000	-4.637361e-001	-8.882444e-001
19480560.000	-4.640222e-001	-8.881114e-001
19486554.000	-4.642930e-001	-8.879985e-001
19492548.000	-4.644994e-001	-8.879176e-001
19498542.000	-4.647813e-001	-8.877974e-001
19504536.000	-4.649826e-001	-8.876825e-001
19510530.000	-4.652277e-001	-8.875076e-001
19516524.000	-4.654944e-001	-8.874233e-001
19522518.000	-4.657167e-001	-8.872193e-001
19528512.000	-4.659688e-001	-8.871517e-001
19534506.000	-4.662309e-001	-8.870198e-001
19540500.000	-4.664411e-001	-8.869180e-001
19546494.000	-4.667253e-001	-8.867350e-001
19552488.000	-4.669351e-001	-8.866557e-001
19558482.000	-4.671895e-001	-8.865339e-001
19564476.000	-4.674271e-001	-8.864032e-001
19570470.000	-4.676481e-001	-8.862701e-001
19576464.000	-4.679328e-001	-8.861357e-001
19582458.000	-4.681281e-001	-8.860346e-001
19588452.000	-4.683651e-001	-8.859022e-001
19594446.000	-4.686545e-001	-8.857700e-001
19600440.000	-4.688633e-001	-8.856623e-001
19606434.000	-4.691244e-001	-8.854944e-001
19612428.000	-4.693375e-001	-8.853276e-001
19618422.000	-4.695928e-001	-8.852550e-001
19624416.000	-4.698324e-001	-8.850905e-001
19630410.000	-4.700412e-001	-8.849704e-001
19636404.000	-4.702820e-001	-8.848502e-001
19642398.000	-4.705315e-001	-8.847185e-001
19648392.000	-4.707669e-001	-8.845993e-001
19654386.000	-4.710201e-001	-8.844721e-001
19660380.000	-4.712628e-001	-8.843531e-001
19666374.000	-4.714895e-001	-8.842210e-001
19672368.000	-4.717426e-001	-8.841073e-001
19678362.000	-4.719283e-001	-8.839259e-001
19684356.000	-4.722174e-001	-8.838647e-001
19690350.000	-4.724017e-001	-8.837238e-001
19696344.000	-4.726407e-001	-8.835722e-001
19702338.000	-4.729081e-001	-8.834462e-001
19708332.000	-4.731660e-001	-8.833772e-001
19714326.000	-4.733839e-001	-8.831654e-001
19720320.000	-4.736554e-001	-8.830403e-001
19726314.000	-4.738822e-001	-8.829885e-001
19732308.000	-4.741129e-001	-8.828276e-001
19738302.000	-4.743502e-001	-8.827518e-001
19744296.000	-4.745843e-001	-8.825825e-001
19750290.000	-4.748079e-001	-8.824980e-001
19756284.000	-4.750623e-001	-8.823271e-001
19762278.000	-4.753167e-001	-8.821860e-001
19768272.000	-4.755349e-001	-8.820634e-001
19774266.000	-4.757508e-001	-8.819249e-001
19780260.000	-4.760054e-001	-8.817656e-001
19786254.000	-4.761602e-001	-8.816956e-001
19792248.000	-4.764620e-001	-8.815525e-001
19798242.000	-4.766517e-001	-8.814498e-001
19804236.000	-4.769218e-001	-8.812933e-001
19810230.000	-4.771665e-001	-8.811666e-001
19816224.000	-4.774170e-001	-8.810112e-001
19822218.000	-4.776242e-001	-8.808630e-001
19828212.000	-4.778398e-001	-8.808166e-001
19834206.000	-4.781072e-001	-8.806560e-001
19840200.000	-4.783149e-001	-8.805190e-001
19846194.000	-4.785269e-001	-8.803738e-001
19852188.000	-4.787743e-001	-8.802694e-001
19858182.000	-4.790516e-001	-8.801203e-001
19864176.000	-4.792644e-001	-8.800116e-001
19870170.000	-4.795019e-001	-8.798798e-001
19876164.000	-4.797275e-001	-8.797776e-001
19882158.000	-4.799746e-001	-8.796688e-001
19888152.000	-4.801777e-001	-8.795001e-001
19894146.000	-4.804514e-001	-8.793744e-001
19900140.000	-4.806669e-001	-8.792929e-001
19906134.000	-4.809001e-001	-8.791934e-001
19912128.000	-4.810726e-001	-8.789486e-001
19918122.000	-4.813872e-001	-8.788505e-001
19924116.000	-4.815943e-001	-8.787633e-001
19930110.000	-4.818340e-001	-8.786809e-001
19936104.000	-4.820726e-001	-8.784824e-001
19942098.000	-4.822831e-001	-8.784175e-001
19948092.000	-4.825459e-001	-8.782714e-001
19954086.000	-4.827599e-001	-8.781132e-001
19960080.000	-4.829269e-001	-8.779981e-001
19966074.000	-4.831682e-001	-8.778728e-001
19972068.000	-4.834003e-001	-8.777339e-001
19978062.000	-4.836645e-001	-8.776455e-001
19984056.000	-4.839467e-001	-8.774528e-001
19990050.000	-4.841042e-001	-8.773517e-001
19996044.000	-4.843681e-001	-8.772457e-001
20002038.000	-4.846355e-001	-8.771199e-001
20008032.000	-4.848451e-001	-8.770071e-001
20014026.000	-4.850915e-001	-8.768715e-001
20020020.000	-4.853061e-001	-8.767358e-001
20026014.000	-4.855273e-001	-8.765642e-001
20032008.000	-4.857229e-001	-8.764209e-001
20038002.000	-4.860079e-001	-8.763635e-001
20043996.000	-4.861966e-001	-8.762457e-001
20049990.000	-4.864647e-001	-8.760904e-001
20055984.000	-4.866792e-001	-8.759811e-001
20061978.000	-4.869066e-001	-8.758316e-001
20067972.000	-4.871037e-001	-8.756880e-001
20073966.000	-4.873621e-001	-8.756084e-001
20079960.000	-4.875626e-001	-8.754302e-001
20085954.000	-4.878223e-001	-8.753082e-001
20091948.000	-4.880440e-001	-8.751789e-001
20097942.000	-4.882959e-001	-8.750601e-001
20103936.000	-4.885190e-001	-8.749030e-001
20109930.000	-4.887742e-001	-8.748600e-001
20115924.000	-4.889548e-001	-8.746613e-001
20121918.000	-4.891793e-001	-8.745131e-001
20127912.000	-4.893997e-001	-8.743914e-001
20133906.000	-4.896260e-001	-8.742441e-001
20139900.000	-4.898676e-001	-8.741486e-001
20145894.000	-4.900866e-001	-8.740056e-001
20151888.000	-4.903125e-001	-8.739049e-001
20157882.000	-4.905771e-001	-8.737862e-001
20163876.000	-4.907830e-001	-8.736556e-001
20169870.000	-4.910053e-001	-8.735229e-001
20175864.000	-4.912064e-001	-8.733584e-001
20181858.000	-4.914270e-001	-8.732569e-001
20187852.000	-4.916665e-001	-8.731229e-001
20193846.000	-4.918500e-001	-8.729740e-001
20199840.000	-4.921258e-001	-8.728365e-001
20205834.000	-4.923444e-001	-8.727835e-001
20211828.000	-4.925932e-001	-8.725848e-001
20217822.000	-4.927812e-001	-8.725158e-001
20223816.000	-4.930140e-001	-8.723661e-001
20229810.000	-4.932833e-001	-8.722879e-001
20235804.000	-4.934698e-001	-8.720792e-001
20241798.000	-4.936815e-001	-8.719723e-001
20247792.000	-4.939433e-001	-8.718305e-001
20253786.000	-4.941481e-001	-8.717246e-001
20259780.000	-4.943852e-001	-8.716159e-001
20265774.000	-4.946069e-001	-8.715050e-001
20271768.000	-4.948058e-001	-8.713802e-001
20277762.000	-4.950504e-001	-8.712235e-001
20283756.000	-4.953086e-001	-8.711368e-001
20289750.000	-4.954806e-001	-8.709375e-001
20295744.000	-4.957663e-001	-8.708166e-001
20301738.000	-4.959570e-001	-8.707636e-001
20307732.000	-4.961771e-001	-8.705757e-001
20313726.000	-4.963938e-001	-8.705306e-001
20319720.000	-4.966004e-001	-8.703387e-001
20325714.000	-4.968098e-001	-8.702599e-001
20331708.000	-4.970596e-001	-8.701338e-001
20337702.000	-4.972981e-001	-8.699780e-001
20343696.000	-4.974853e-001	-8.698476e-001
20349690.000	-4.977735e-001	-8.697657e-001
20355684.000	-4.979142e-001	-8.695634e-001
20361678.000	-4.981702e-001	-8.694450e-001
20367672.000	-4.984227e-001	-8.693292e-001
20373666.000	-4.986138e-001	-8.691960e-001
20379660.000	-4.988488e-001	-8.690775e-001
20385654.000	-4.990537e-001	-8.689542e-001
20391648.000	-4.992597e-001	-8.688014e-001
20397642.000	-4.994844e-001	-8.686743e-001
20403636.000	-4.997715e-001	-8.685898e-001
20409630.000	-4.999291e-001	-8.684013e-001
20415624.000	-5.002135e-001	-8.683727e-001
20421618.000	-5.003992e-001	-8.682033e-001
20427612.000	-5.005625e-001	-8.680495e-001
20433606.000	-5.008690e-001	-8.679555e-001
20439600.000	-5.010394e-001	-8.677997e-001
20445594.000	-5.012913e-001	-8.676909e-001
20451588.000	-5.014764e-001	-8.675556e-001
20457582.000	-5.017230e-001	-8.673927e-001
20463576.000	-5.019265e-001	-8.672720e-001
20469570.000	-5.021622e-001	-8.671426e-001
20475564.000	-5.023823e-001	-8.670494e-001
20481558.000	-5.026304e-001	-8.668726e-001
20487552.000	-5.028292e-001	-8.667828e-001
20493546.000	-5.030121e-001	-8.666358e-001
20499540.000	-5.032742e-001	-8.665299e-001
20505534.000	-5.034249e-001	-8.663329e-001
20511528.000	-5.036911e-001	-8.661875e-001
20517522.000	-5.039037e-001	-8.660999e-001
20523516.000	-5.040985e-001	-8.659751e-001
20529510.000	-5.043679e-001	-8.658974e-001
20535504.000	-5.045576e-001	-8.657802e-001
20541498.000	-5.047728e-001	-8.656004e-001
20547492.000	-5.049797e-001	-8.655429e-001
20553486.000	-5.052270e-001	-8.653855e-001
20559480.000	-5.054450e-001	-8.652374e-001
20565474.000	-5.056229e-001	-8.650911e-001
20571468.000	-5.058824e-001	-8.650079e-001
20577462.000	-5.061037e-001	-8.648423e-001
20583456.000	-5.063174e-001	-8.647281e-001
20589450.000	-5.065432e-001	-8.646335e-001
20595444.000	-5.067557e-001	-8.644693e-001
20601438.000	-5.069641e-001	-8.643988e-001
20607432.000	-5.071982e-001	-8.642126e-001
20613426.000	-5.073688e-001	-8.640674e-001
20619420.000	-5.076189e-001	-8.639386e-001
20625414.000	-5.078343e-001	-8.638578e-001
20631408.000	-5.080329e-001	-8.636908e-001
20637402.000	-5.082552e-001	-8.636172e-001
20643396.000	-5.085082e-001	-8.634897e-001
20649390.000	-5.087457e-001	-8.633073e-001
20655384.000	-5.089355e-001	-8.631892e-001
20661378.000	-5.091173e-001	-8.630426e-001
20667372.000	-5.093358e-001	-8.628808e-001
20673366.000	-5.095902e-001	-8.627732e-001
20679360.000	-5.097411e-001	-8.627076e-001
20685354.000	-5.099891e-001	-8.625160e-001
20691348.000	-5.101861e-001	-8.624271e-001
20697342.000	-5.104099e-001	-8.622540e-001
20703336.000	-5.106594e-001	-8.621844e-001
20709330.000	-5.108753e-001	-8.620492e-001
20715324.000	-5.110083e-001	-8.619059e-001
20721318.000	-5.112599e-001	-8.617990e-001
20727312.000	-5.114950e-001	-8.616429e-001
20733306.000	-5.116971e-001	-8.616019e-001
20739300.000	-5.119011e-001	-8.613952e-001
20745294.000	-5.121590e-001	-8.613181e-001
20751288.000	-5.123736e-001	-8.611844e-001
20757282.000	-5.125829e-001	-8.610060e-001
20763276.000	-5.127431e-001	-8.608330e-001
20769270.000	-5.129811e-001	-8.607592e-001
20775264.000	-5.132196e-001	-8.606129e-001
20781258.000	-5.134102e-001	-8.604649e-001
20787252.000	-5.136227e-001	-8.603724e-001
20793246.000	-5.138397e-001	-8.602291e-001
20799240.000	-5.140360e-001	-8.601040e-001
20805234.000	-5.142731e-001	-8.600064e-001
20811228.000	-5.144664e-001	-8.598608e-001
20817222.000	-5.146784e-001	-8.597066e-001
20823216.000	-5.149076e-001	-8.595935e-001
20829210.000	-5.151152e-001	-8.594920e-001
20835204.000	-5.153339e-001	-8.593788e-001
20841198.000	-5.155104e-001	-8.592127e-001
20847192.000	-5.157527e-001	-8.591081e-001
20853186.000	-5.159349e-001	-8.588847e-001
20859180.000	-5.161603e-001	-8.588133e-001
20865174.000	-5.164020e-001	-8.586803e-001
20871168.000	-5.166204e-001	-8.585939e-001
20877162.000	-5.168134e-001	-8.584416e-001
20883156.000	-5.170038e-001	-8.583412e-001
20889150.000	-5.172081e-001	-8.582165e-001
20895144.000	-5.174448e-001	-8.580315e-001
20901138.000	-5.176756e-001	-8.579764e-001
20907132.000	-5.178655e-001	-8.577963e-001
20913126.000	-5.180512e-001	-8.576837e-001
20919120.000	-5.182724e-001	-8.576013e-001
20925114.000	-5.185487e-001	-8.574218e-001
20931108.000	-5.186901e-001	-8.573104e-001
20937102.000	-5.189295e-001	-8.571963e-001
20943096.000	-5.191446e-001	-8.570484e-001
20949090.000	-5.193222e-001	-8.568776e-001
20955084.000	-5.195404e-001	-8.568136e-001
20961078.000	-5.197313e-001	-8.566567e-001
20967072.000	-5.199791e-001	-8.564965e-001
20973066.000	-5.201841e-001	-8.564150e-001
20979060.000	-5.203874e-001	-8.563790e-001
20985054.000	-5.205826e-001	-8.561405e-001
20991048.000	-5.208157e-001	-8.560399e-001
20997042.000	-5.210394e-001	-8.558803e-001
21003036.000	-5.212231e-001	-8.557255e-001
21009030.000	-5.214102e-001	-8.556366e-001
21015024.000	-5.216709e-001	-8.555228e-001
21021018.000	-5.218344e-001	-8.554199e-001
21027012.000	-5.220645e-001	-8.552097e-001
21033006.000	-5.222928e-001	-8.551604e-001
21039000.000	-5.224770e-001	-8.549962e-001
21044994.000	-5.226718e-001	-8.548889e-001
21050988.000	-5.228595e-001	-8.547287e-001
21056982.000	-5.231066e-001	-8.546616e-001
21062976.000	-5.233064e-001	-8.544951e-001
21068970.000	-5.234615e-001	-8.543473e-001
21074964.000	-5.237277e-001	-8.542557e-001
21080958.000	-5.239601e-001	-8.541427e-001
21086952.000	-5.241345e-001	-8.539798e-001
21092946.000	-5.243806e-001	-8.539163e-001
21098940.000	-5.245175e-001	-8.537080e-001
21104934.000	-5.247521e-001	-8.535573e-001
21110928.000	-5.249367e-001	-8.534485e-001
21116922.000	-5.251313e-001	-8.533656e-001
21122916.000	-5.253481e-001	-8.532371e-001
21128910.000	-5.255670e-001	-8.530390e-001
21134904.000	-5.257858e-001	-8.529251e-001
21140898.000	-5.259900e-001	-8.528409e-001
21146892.000	-5.261697e-001	-8.526924e-001
21152886.000	-5.263965e-001	-8.525386e-001
21158880.000	-5.265796e-001	-8.524163e-001
21164874.000	-5.267438e-001	-8.523506e-001
21170868.000	-5.270469e-001	-8.521374e-001
21176862.000	-5.272220e-001	-8.520297e-001
21182856.000	-5.274681e-001	-8.519028e-001
21188850.000	-5.276152e-001	-8.518130e-001
21194844.000	-5.278477e-001	-8.516908e-001
21200838.000	-5.280146e-001	-8.515357e-001
21206832.000	-5.282396e-001	-8.514403e-001
21212826.000	-5.284886e-001	-8.513048e-001
21218820.000	-5.286188e-001	-8.511750e-001
21224814.000	-5.288742e-001	-8.511152e-001
21230808.000	-5.291162e-001	-8.509729e-001
21236802.000	-5.292659e-001	-8.507758e-001
21242796.000	-5.294865e-001	-8.506755e-001
21248790.000	-5.296992e-001	-8.505660e-001
21254784.000	-5.299028e-001	-8.504138e-001
21260778.000	-5.300901e-001	-8.503087e-001
21266772.000	-5.303084e-001	-8.501702e-001
21272766.000	-5.304758e-001	-8.500482e-001
21278760.000	-5.307325e-001	-8.499335e-001
21284754.000	-5.308984e-001	-8.497740e-001
21290748.000	-5.310877e-001	-8.496405e-001
21296742.000	-5.313141e-001	-8.495354e-001
21302736.000	-5.314955e-001	-8.494155e-001
21308730.000	-5.317247e-001	-8.492920e-001
21314724.000	-5.318949e-001	-8.491538e-001
21320718.000	-5.320694e-001	-8.490179e-001
21326712.000	-5.323124e-001	-8.488633e-001
21332706.000	-5.325113e-001	-8.487347e-001
21338700.000	-5.327204e-001	-8.486386e-001
21344694.000	-5.329315e-001	-8.485198e-001
21350688.000	-5.331372e-001	-8.483565e-001
21356682.000	-5.332867e-001	-8.482454e-001
21362676.000	-5.335367e-001	-8.481449e-001
21368670.000	-5.336902e-001	-8.479891e-001
21374664.000	-5.339111e-001	-8.479152e-001
21380658.000	-5.340843e-001	-8.477229e-001
21386652.000	-5.343348e-001	-8.475895e-001
21392646.000	-5.345462e-001	-8.475385e-001
21398640.000	-5.347390e-001	-8.473571e-001
21404634.000	-5.349362e-001	-8.472267e-001
21410628.000	-5.351401e-001	-8.471129e-001
21416622.000	-5.353365e-001	-8.470072e-001
21422616.000	-5.355411e-001	-8.468477e-001
21428610.000	-5.357390e-001	-8.467267e-001
21434604.000	-5.359875e-001	-8.466148e-001
21440598.000	-5.361330e-001	-8.464546e-001
21446592.000	-5.363527e-001	-8.463275e-001
21452586.000	-5.365452e-001	-8.461614e-001
21458580.000	-5.367059e-001	-8.460913e-001
21464574.000	-5.369404e-001	-8.458972e-001
21470568.000	-5.371315e-001	-8.458202e-001
21476562.000	-5.373056e-001	-8.456767e-001
21482556.000	-5.375770e-001	-8.456045e-001
21488550.000	-5.377043e-001	-8.454437e-001
21494544.000	-5.379038e-001	-8.453367e-001
21500538.000	-5.381203e-001	-8.451706e-001
21506532.000	-5.383240e-001	-8.450583e-001
21512526.000	-5.385729e-001	-8.449250e-001
21518520.000	-5.387197e-001	-8.448018e-001
21524514.000	-5.389273e-001	-8.446861e-001
21530508.000	-5.391123e-001	-8.445355e-001
21536502.000	-5.393521e-001	-8.444358e-001
21542496.000	-5.395266e-001	-8.443473e-001
21548490.000	-5.396882e-001	-8.441305e-001
21554484.000	-5.399221e-001	-8.440598e-001
21560478.000	-5.401077e-001	-8.439232e-001
21566472.000	-5.403401e-001	-8.437665e-001
21572466.000	-5.405042e-001	-8.436272e-001
21578460.000	-5.407133e-001	-8.435468e-001
21584454.000	-5.408775e-001	-8.434549e-001
21590448.000	-5.411046e-001	-8.432979e-001
21596442.000	-5.413047e-001	-8.431758e-001
21602436.000	-5.415150e-001	-8.430352e-001
21608430.000	-5.417258e-001	-8.429331e-001
21614424.000	-5.418759e-001	-8.427982e-001
21620418.000	-5.420748e-001	-8.426737e-001
21626412.000	-5.422860e-001	-8.425933e-001
21632406.000	-5.424992e-001	-8.424220e-001
21638400.000	-5.426885e-001	-8.423018e-001
21644394.000	-5.428524e-001	-8.421871e-001
21650388.000	-5.431019e-001	-8.420440e-001
21656382.000	-5.432347e-001	-8.418703e-001
21662376.000	-5.434632e-001	-8.417255e-001
21668370.000	-5.436674e-001	-8.416582e-001
21674364.000	-5.438489e-001	-8.415188e-001
21680358.000	-5.440449e-001	-8.413571e-001
21686352.000	-5.442375e-001	-8.412659e-001
21692346.000	-5.444296e-001	-8.411105e-001
21698340.000	-5.446619e-001	-8.410209e-001
21704334.000	-5.448473e-001	-8.408821e-001
21710328.000	-5.450276e-001	-8.407281e-001
21716322.000	-5.452150e-001	-8.406602e-001
21722316.000	-5.453679e-001	-8.404518e-001
21728310.000	-5.456071e-001	-8.403288e-001
21734304.000	-5.458409e-001	-8.401911e-001
21740298.000	-5.459744e-001	-8.401477e-001
21746292.000	-5.462020e-001	-8.399881e-001
21752286.000	-5.463843e-001	-8.398262e-001
21758280.000	-5.465768e-001	-8.397416e-001
21764274.000	-5.467891e-001	-8.396406e-001
21770268.000	-5.469177e-001	-8.394959e-001
21776262.000	-5.471099e-001	-8.393232e-001
21782256.000	-5.473354e-001	-8.392015e-001
21788250.000	-5.475909e-001	-8.391052e-001
21794244.000	-5.477728e-001	-8.390371e-001
21800238.000	-5.479260e-001	-8.388509e-001
21806232.000	-5.480746e-001	-8.386899e-001
21812226.000	-5.483105e-001	-8.385636e-001
21818220.000	-5.484457e-001	-8.384400e-001
21824214.000	-5.487495e-001	-8.383529e-001
21830208.000	-5.489307e-001	-8.382181e-001
21836202.000	-5.490482e-001	-8.380907e-001
21842196.000	-5.492528e-001	-8.379579e-001
21848190.000	-5.494954e-001	-8.378860e-001
21854184.000	-5.497089e-001	-8.377181e-001
21860178.000	-5.498769e-001	-8.375813e-001
21866172.000	-5.500676e-001	-8.375076e-001
21872166.000	-5.502558e-001	-8.372879e-001
21878160.000	-5.504438e-001	-8.371972e-001
21884154.000	-5.505956e-001	-8.370330e-001
21890148.000	-5.507849e-001	-8.369688e-001
21896142.000	-5.510054e-001	-8.367678e-001
21902136.000	-5.512042e-001	-8.367113e-001
21908130.000	-5.513764e-001	-8.365209e-001
21914124.000	-5.516174e-001	-8.364254e-001
21920118.000	-5.517712e-001	-8.363213e-001
21926112.000	-5.518873e-001	-8.361697e-001
21932106.000	-5.521747e-001	-8.360570e-001
21938100.000	-5.523145e-001	-8.359264e-001
21944094.000	-5.525131e-001	-8.357724e-001
21950088.000	-5.526938e-001	-8.356951e-001
21956082.000	-5.529044e-001	-8.355181e-001
21962076.000	-5.530951e-001	-8.353811e-001
21968070.000	-5.532762e-001	-8.352317e-001
21974064.000	-5.535040e-001	-8.351838e-001
21980058.000	-5.536669e-001	-8.350230e-001
21986052.000	-5.538638e-001	-8.349057e-001
21992046.000	-5.540425e-001	-8.347873e-001
21998040.000	-5.542081e-001	-8.346509e-001
22004034.000	-5.544227e-001	-8.345421e-001
22010028.000	-5.546225e-001	-8.344463e-001
22016022.000	-5.548372e-001	-8.342298e-001
22022016.000	-5.549743e-001	-8.341372e-001
22028010.000	-5.551896e-001	-8.340719e-001
22034004.000	-5.553904e-001	-8.339087e-001
22039998.000	-5.555595e-001	-8.338378e-001
22045992.000	-5.557545e-001	-8.336246e-001
22051986.000	-5.559642e-001	-8.335256e-001
22057980.000	-5.561871e-001	-8.334086e-001
22063974.000	-5.563450e-001	-8.332963e-001
22069968.000	-5.565095e-001	-8.331502e-001
22075962.000	-5.567614e-001	-8.330753e-001
22081956.000	-5.568907e-001	-8.328889e-001
22087950.000	-5.570987e-001	-8.327722e-001
22093944.000	-5.572745e-001	-8.326970e-001
22099938.000	-5.574499e-001	-8.325177e-001
22105932.000	-5.576434e-001	-8.324085e-001
22111926.000	-5.578530e-001	-8.322670e-001
22117920.000	-5.580224e-001	-8.321381e-001
22123914.000	-5.581991e-001	-8.320458e-001
22129908.000	-5.583882e-001	-8.318870e-001
22135902.000	-5.586266e-001	-8.317784e-001
22141896.000	-5.587370e-001	-8.315820e-001
22147890.000	-5.589368e-001	-8.315095e-001
22153884.000	-5.591710e-001	-8.314090e-001
22159878.000	-5.593406e-001	-8.312826e-001
22165872.000	-5.595199e-001	-8.312032e-001
22171866.000	-5.596797e-001	-8.309962e-001
22177860.000	-5.599111e-001	-8.308595e-001
22183854.000	-5.600621e-001	-8.307335e-001
22189848.000	-5.602542e-001	-8.306249e-001
22195842.000	-5.604910e-001	-8.305261e-001
22201836.000	-5.606160e-001	-8.303916e-001
22207830.000	-5.608356e-001	-8.302645e-001
22213824.000	-5.609855e-001	-8.301168e-001
22219818.000	-5.611967e-001	-8.300151e-001
22225812.000	-5.613794e-001	-8.298677e-001
22231806.000	-5.615129e-001	-8.297321e-001
22237800.000	-5.618026e-001	-8.296532e-001
22243794.000	-5.619530e-001	-8.295036e-001
22249788.000	-5.621301e-001	-8.294097e-001
22255782.000	-5.622977e-001	-8.292900e-001
22261776.000	-5.625089e-001	-8.290991e-001
22267770.000	-5.626493e-001	-8.290366e-001
22273764.000	-5.629007e-001	-8.288767e-001
22279758.000	-5.630578e-001	-8.287249e-001
22285752.000	-5.632019e-001	-8.286499e-001
22291746.000	-5.633753e-001	-8.284968e-001
22297740.000	-5.635771e-001	-8.283694e-001
22303734.000	-5.637739e-001	-8.282219e-001
22309728.000	-5.639958e-001	-8.281369e-001
22315722.000	-5.641589e-001	-8.279778e-001
22321716.000	-5.643152e-001	-8.278464e-001
22327710.000	-5.644891e-001	-8.277161e-001
22333704.000	-5.646865e-001	-8.276114e-001
22339698.000	-5.648621e-001	-8.274746e-001
22345692.000	-5.651292e-001	-8.273768e-001
22351686.000	-5.652428e-001	-8.272585e-001
22357680.000	-5.654043e-001	-8.271020e-001
22363674.000	-5.655590e-001	-8.269643e-001
22369668.000	-5.658163e-001	-8.268826e-001
22375662.000	-5.659775e-001	-8.267594e-001
22381656.000	-5.661987e-001	-8.265936e-001
22387650.000	-5.663638e-001	-8.264900e-001
22393644.000	-5.665341e-001	-8.263573e-001
22399638.000	-5.667206e-001	-8.262224e-001
22405632.000	-5.668823e-001	-8.261159e-001
22411626.000	-5.670635e-001	-8.260036e-001
22417620.000	-5.672593e-001	-8.258354e-001
22423614.000	-5.674287e-001	-8.257474e-001
22429608.000	-5.675791e-001	-8.256540e-001
22435602.000	-5.678482e-001	-8.254529e-001
22441596.000	-5.679990e-001	-8.253739e-001
22447590.000	-5.681679e-001	-8.252681e-001
22453584.000	-5.683407e-001	-8.250558e-001
22459578.000	-5.685420e-001	-8.250039e-001
22465572.000	-5.686726e-001	-8.248220e-001
22471566.000	-5.688897e-001	-8.247365e-001
22477560.000	-5.690885e-001	-8.246099e-001
22483554.000	-5.692479e-001	-8.244864e-001
22489548.000	-5.694650e-001	-8.243533e-001
22495542.000	-5.695995e-001	-8.242398e-001
22501536.000	-5.697735e-001	-8.240672e-001
22507530.000	-5.699708e-001	-8.240188e-001
22513524.000	-5.701798e-001	-8.238683e-001
22519518.000	-5.703217e-001	-8.237040e-001
22525512.000	-5.705193e-001	-8.236193e-001
22531506.000	-5.707256e-001	-8.234652e-001
22537500.000	-5.708386e-001	-8.233315e-001
22543494.000	-5.710479e-001	-8.231881e-001
22549488.000	-5.712263e-001	-8.230709e-001
22555482.000	-5.713994e-001	-8.229633e-001
22561476.000	-5.715989e-001	-8.228896e-001
22567470.000	-5.717376e-001	-8.227184e-001
22573464.000	-5.719036e-001	-8.225777e-001
22579458.000	-5.720850e-001	-8.224410e-001
22585452.000	-5.722733e-001	-8.223652e-001
22591446.000	-5.724653e-001	-8.221968e-001
22597440.000	-5.726394e-001	-8.221043e-001
22603434.000	-5.728181e-001	-8.219753e-001
22609428.000	-5.729781e-001	-8.218251e-001
22615422.000	-5.731738e-001	-8.216940e-001
22621416.000	-5.733927e-001	-8.215849e-001
22627410.000	-5.735817e-001	-8.214445e-001
22633404.000	-5.737397e-001	-8.213791e-001
22639398.000	-5.739729e-001	-8.212357e-001
22645392.000	-5.741178e-001	-8.210579e-001
22651386.000	-5.743150e-001	-8.209436e-001
22657380.000	-5.743944e-001	-8.208238e-001
22663374.000	-5.746212e-001	-8.206886e-001
22669368.000	-5.748006e-001	-8.205807e-001
22675362.000	-5.749678e-001	-8.204427e-001
22681356.000	-5.751566e-001	-8.203276e-001
22687350.000	-5.753104e-001	-8.201789e-001
22693344.000	-5.755447e-001	-8.200660e-001
22699338.000	-5.756768e-001	-8.199528e-001
22705332.000	-5.758633e-001	-8.198203e-001
22711326.000	-5.760599e-001	-8.197115e-001
22717320.000	-5.762146e-001	-8.195747e-001
22723314.000	-5.764333e-001	-8.194297e-001
22729308.000	-5.765772e-001	-8.193400e-001
22735302.000	-5.766860e-001	-8.192218e-001
22741296.000	-5.768942e-001	-8.191045e-001
22747290.000	-5.771092e-001	-8.189319e-001
22753284.000	-5.772624e-001	-8.188235e-001
22759278.000	-5.774244e-001	-8.187286e-001
22765272.000	-5.776850e-001	-8.185743e-001
22771266.000	-5.777983e-001	-8.184821e-001
22777260.000	-5.779733e-001	-8.183307e-001
22783254.000	-5.781312e-001	-8.182342e-001
22789248.000	-5.783015e-001	-8.181249e-001
22795242.000	-5.785019e-001	-8.179674e-001
22801236.000	-5.786572e-001	-8.178616e-001
22807230.000	-5.788314e-001	-8.176996e-001
22813224.000	-5.790482e-001	-8.176187e-001
22819218.000	-5.792387e-001	-8.174995e-001
22825212.000	-5.793839e-001	-8.173455e-001
22831206.000	-5.795782e-001	-8.171723e-001
22837200.000	-5.797197e-001	-8.170936e-001
22843194.000	-5.798708e-001	-8.169676e-001
22849188.000	-5.801222e-001	-8.168663e-001
22855182.000	-5.802746e-001	-8.167321e-001
22861176.000	-5.804378e-001	-8.166102e-001
22867170.000	-5.806583e-001	-8.165184e-001
22873164.000	-5.808097e-001	-8.163436e-001
22879158.000	-5.809979e-001	-8.162029e-001
22885152.000	-5.811631e-001	-8.160878e-001
22891146.000	-5.813043e-001	-8.159737e-001
22897140.000	-5.814605e-001	-8.158462e-001
22903134.000	-5.816768e-001	-8.157871e-001
22909128.000	-5.818430e-001	-8.156127e-001
22915122.000	-5.819974e-001	-8.154887e-001
22921116.000	-5.821844e-001	-8.153574e-001
22927110.000	-5.823263e-001	-8.152315e-001
22933104.000	-5.825356e-001	-8.150163e-001
22939098.000	-5.827337e-001	-8.149091e-001
22945092.000	-5.829027e-001	-8.148511e-001
22951086.000	-5.830578e-001	-8.147079e-001
22957080.000	-5.832241e-001	-8.146436e-001
22963074.000	-5.834055e-001	-8.144905e-001
22969068.000	-5.836155e-001	-8.143335e-001
22975062.000	-5.837609e-001	-8.142350e-001
22981056.000	-5.838931e-001	-8.140911e-001
22987050.000	-5.841029e-001	-8.140112e-001
22993044.000	-5.842838e-001	-8.138863e-001
22999038.000	-5.844271e-001	-8.137827e-001
23005032.000	-5.846250e-001	-8.135958e-001
23011026.000	-5.847870e-001	-8.134538e-001
23017020.000	-5.849989e-001	-8.133222e-001
23023014.000	-5.851364e-001	-8.132013e-001
23029008.000	-5.853252e-001	-8.131300e-001
23035002.000	-5.854825e-001	-8.129583e-001
23040996.000	-5.856691e-001	-8.127960e-001
23046990.000	-5.858336e-001	-8.126661e-001
23052984.000	-5.859561e-001	-8.124995e-001
23058978.000	-5.861661e-001	-8.124330e-001
23064972.000	-5.863771e-001	-8.123299e-001
23070966.000	-5.865060e-001	-8.121537e-001
23076960.000	-5.866331e-001	-8.120631e-001
23082954.000	-5.868444e-001	-8.119484e-001
23088948.000	-5.870088e-001	-8.118164e-001
23094942.000	-5.871995e-001	-8.117381e-001
23100936.000	-5.873435e-001	-8.115249e-001
23106930.000	-5.875484e-001	-8.114671e-001
23112924.000	-5.877254e-001	-8.113188e-001
23118918.000	-5.879019e-001	-8.111884e-001
23124912.000	-5.880337e-001	-8.111086e-001
23130906.000	-5.882176e-001	-8.109800e-001
23136900.000	-5.883671e-001	-8.107948e-001
23142894.000	-5.885792e-001	-8.106843e-001
23148888.000	-5.887468e-001	-8.105976e-001
23154882.000	-5.888439e-001	-8.104493e-001
23160876.000	-5.890792e-001	-8.103238e-001
23166870.000	-5.892351e-001	-8.102282e-001
23172864.000	-5.894380e-001	-8.101179e-001
23178858.000	-5.895891e-001	-8.100098e-001
23184852.000	-5.897254e-001	-8.098372e-001
23190846.000	-5.899262e-001	-8.097817e-001
23196840.000	-5.900545e-001	-8.095797e-001
23202834.000	-5.902695e-001	-8.095189e-001
23208828.000	-5.904641e-001	-8.094010e-001
23214822.000	-5.905962e-001	-8.092391e-001
23220816.000	-5.907814e-001	-8.091292e-001
23226810.000	-5.909374e-001	-8.090457e-001
23232804.000	-5.911152e-001	-8.088820e-001
23238798.000	-5.912930e-001	-8.087514e-001
23244792.000	-5.914235e-001	-8.086257e-001
23250786.000	-5.916305e-001	-8.085618e-001
23256780.000	-5.918014e-001	-8.084049e-001
23262774.000	-5.919711e-001	-8.082456e-001
23268768.000	-5.921102e-001	-8.081582e-001
23274762.000	-5.922874e-001	-8.079577e-001
23280756.000	-5.924330e-001	-8.078579e-001
23286750.000	-5.926371e-001	-8.077981e-001
23292744.000	-5.928113e-001	-8.076801e-001
23298738.000	-5.929494e-001	-8.075611e-001
23304732.000	-5.931540e-001	-8.074339e-001
23310726.000	-5.932820e-001	-8.073134e-001
23316720.000	-5.934263e-001	-8.071481e-001
23322714.000	-5.936072e-001	-8.070397e-001
23328708.000	-5.938005e-001	-8.068984e-001
23334702.000	-5.939587e-001	-8.068272e-001
23340696.000	-5.941220e-001	-8.066858e-001
23346690.000	-5.942667e-001	-8.065529e-001
23352684.000	-5.944241e-001	-8.064017e-001
23358678.000	-5.946028e-001	-8.063248e-001
23364672.000	-5.948049e-001	-8.061771e-001
23370666.000	-5.949442e-001	-8.060393e-001
23376660.000	-5.950865e-001	-8.059260e-001
23382654.000	-5.953181e-001	-8.058267e-001
23388648.000	-5.954225e-001	-8.056427e-001
23394642.000	-5.956137e-001	-8.055430e-001
23400636.000	-5.957802e-001	-8.053886e-001
23406630.000	-5.959247e-001	-8.052795e-001
23412624.000	-5.961222e-001	-8.051575e-001
23418618.000	-5.962514e-001	-8.050790e-001
23424612.000	-5.964920e-001	-8.049211e-001
23430606.000	-5.966005e-001	-8.047792e-001
23436600.000	-5.967757e-001	-8.046893e-001
23442594.000	-5.969437e-001	-8.045379e-001
23448588.000	-5.971221e-001	-8.044354e-001
23454582.000	-5.972252e-001	-8.043326e-001
23460576.000	-5.974366e-001	-8.041555e-001
23466570.000	-5.976089e-001	-8.040462e-001
23472564.000	-5.977606e-001	-8.039623e-001
23478558.000	-5.979692e-001	-8.038129e-001
23484552.000	-5.981088e-001	-8.036910e-001
23490546.000	-5.983008e-001	-8.036191e-001
23496540.000	-5.984033e-001	-8.034773e-001
23502534.000	-5.985912e-001	-8.033292e-001
23508528.000	-5.987256e-001	-8.032476e-001
23514522.000	-5.989294e-001	-8.031055e-001
23520516.000	-5.990408e-001	-8.029838e-001
23526510.000	-5.992642e-001	-8.028447e-001
23532504.000	-5.993879e-001	-8.027108e-001
23538498.000	-5.995857e-001	-8.025224e-001
23544492.000	-5.997546e-001	-8.024599e-001
23550486.000	-5.998669e-001	-8.023553e-001
23556480.000	-6.000821e-001	-8.022627e-001
23562474.000	-6.002049e-001	-8.020843e-001
23568468.000	-6.003760e-001	-8.020050e-001
23574462.000	-6.005673e-001	-8.019233e-001
23580456.000	-6.007313e-001	-8.017929e-001
23586450.000	-6.008926e-001	-8.015673e-001
23592444.000	-6.010930e-001	-8.015823e-001
23598438.000	-6.012464e-001	-8.013694e-001
23604432.000	-6.013522e-001	-8.012557e-001
23610426.000	-6.015083e-001	-8.011567e-001
23616420.000	-6.016892e-001	-8.010525e-001
23622414.000	-6.018558e-001	-8.009062e-001
23628408.000	-6.019986e-001	-8.007869e-001
23634402.000	-6.021800e-001	-8.006662e-001
23640396.000	-6.023636e-001	-8.005422e-001
23646390.000	-6.024993e-001	-8.004518e-001
23652384.000	-6.026936e-001	-8.002856e-001
23658378.000	-6.028958e-001	-8.001916e-001
23664372.000	-6.029797e-001	-8.000762e-001
23670366.000	-6.031694e-001	-7.998721e-001
23676360.000	-6.032988e-001	-7.997868e-001
23682354.000	-6.035028e-001	-7.996975e-001
23688348.000	-6.036767e-001	-7.996227e-001
23694342.000	-6.038101e-001	-7.994301e-001
23700336.000	-6.039765e-001	-7.993064e-001
23706330.000	-6.040793e-001	-7.992283e-001
23712324.000	-6.043228e-001	-7.991070e-001
23718318.000	-6.044847e-001	-7.989398e-001
23724312.000	-6.046059e-001	-7.988254e-001
23730306.000	-6.047252e-001	-7.987094e-001
23736300.000	-6.049368e-001	-7.985450e-001
23742294.000	-6.051400e-001	-7.984817e-001
23748288.000	-6.052354e-001	-7.983321e-001
23754282.000	-6.054142e-001	-7.982579e-001
23760276.000	-6.056104e-001	-7.981114e-001
23766270.000	-6.057494e-001	-7.980326e-001
23772264.000	-6.059053e-001	-7.978686e-001
23778258.000	-6.060653e-001	-7.977822e-001
23784252.000	-6.062717e-001	-7.976063e-001
23790246.000	-6.064063e-001	-7.974886e-001
23796240.000	-6.064824e-001	-7.973562e-001
23802234.000	-6.066530e-001	-7.972438e-001
23808228.000	-6.068367e-001	-7.971454e-001
23814222.000	-6.070037e-001	-7.969720e-001
23820216.000	-6.071217e-001	-7.968478e-001
23826210.000	-6.073493e-001	-7.967480e-001
23832204.000	-6.074795e-001	-7.965984e-001
23838198.000	-6.076472e-001	-7.965179e-001
23844192.000	-6.078210e-001	-7.963765e-001
23850186.000	-6.079522e-001	-7.962752e-001
23856180.000	-6.081332e-001	-7.961423e-001
23862174.000	-6.082683e-001	-7.959560e-001
23868168.000	-6.084654e-001	-7.958658e-001
23874162.000	-6.085656e-001	-7.957807e-001
23880156.000	-6.087822e-001	-7.956441e-001
23886150.000	-6.089275e-001	-7.954963e-001
23892144.000	-6.090540e-001	-7.954000e-001
23898138.000	-6.091993e-001	-7.952907e-001
23904132.000	-6.093520e-001	-7.951645e-001
23910126.000	-6.095515e-001	-7.950329e-001
23916120.000	-6.097020e-001	-7.949149e-001
23922114.000	-6.098197e-001	-7.947795e-001
23928108.000	-6.100501e-001	-7.946767e-001
23934102.000	-6.101689e-001	-7.945095e-001
23940096.000	-6.103738e-001	-7.944231e-001
23946090.000	-6.104780e-001	-7.942524e-001
23952084.000	-6.106390e-001	-7.941911e-001
23958078.000	-6.108473e-001	-7.940497e-001
23964072.000	-6.109889e-001	-7.939639e-001
23970066.000	-6.111591e-001	-7.937957e-001
23976060.000	-6.113231e-001	-7.937124e-001
23982054.000	-6.114466e-001	-7.936073e-001
23988048.000	-6.115993e-001	-7.934520e-001
23994042.000	-6.117783e-001	-7.933618e-001
24000036.000	-6.119234e-001	-7.933047e-001
24006030.000	-6.121037e-001	-7.931255e-001
24012024.000	-6.123019e-001	-7.930245e-001
24018018.000	-6.124427e-001	-7.928382e-001
24024012.000	-6.125574e-001	-7.927483e-001
24030006.000	-6.127156e-001	-7.926041e-001
24036000.000	-6.128778e-001	-7.925127e-001
24041994.000	-6.130550e-001	-7.924328e-001
24047988.000	-6.131577e-001	-7.922841e-001
24053982.000	-6.133743e-001	-7.921638e-001
24059976.000	-6.134908e-001	-7.920451e-001
24065970.000	-6.136298e-001	-7.919007e-001
24071964.000	-6.138321e-001	-7.918190e-001
24077958.000	-6.139770e-001	-7.916987e-001
24083952.000	-6.141384e-001	-7.915260e-001
24089946.000	-6.143017e-001	-7.914449e-001
24095940.000	-6.144149e-001	-7.912571e-001
24101934.000	-6.146021e-001	-7.911478e-001
24107928.000	-6.147156e-001	-7.910345e-001
24113922.000	-6.148621e-001	-7.909163e-001
24119916.000	-6.150246e-001	-7.907600e-001
24125910.000	-6.152221e-001	-7.906524e-001
24131904.000	-6.153392e-001	-7.905308e-001
24137898.000	-6.155107e-001	-7.904566e-001
24143892.000	-6.156605e-001	-7.903135e-001
24149886.000	-6.158532e-001	-7.901852e-001
24155880.000	-6.159716e-001	-7.900321e-001
24161874.000	-6.161305e-001	-7.899387e-001
24167868.000	-6.162841e-001	-7.898543e-001
24173862.000	-6.164574e-001	-7.897424e-001
24179856.000	-6.166064e-001	-7.896303e-001
24185850.000	-6.167621e-001	-7.895662e-001
24191844.000	-6.168817e-001	-7.893616e-001
24197838.000	-6.170788e-001	-7.892675e-001
24203832.000	-6.172178e-001	-7.891263e-001
24209826.000	-6.173891e-001	-7.890536e-001
24215820.000	-6.175017e-001	-7.888821e-001
24221814.000	-6.176585e-001	-7.887851e-001
24227808.000	-6.178737e-001	-7.886687e-001
24233802.000	-6.180033e-001	-7.885185e-001
24239796.000	-6.181745e-001	-7.884104e-001
24245790.000	-6.182826e-001	-7.883526e-001
24251784.000	-6.184553e-001	-7.881520e-001
24257778.000	-6.186882e-001	-7.880296e-001
24263772.000	-6.187532e-001	-7.879049e-001
24269766.000	-6.189198e-001	-7.878002e-001
24275760.000	-6.190240e-001	-7.876605e-001
24281754.000	-6.192338e-001	-7.875591e-001
24287748.000	-6.193665e-001	-7.873989e-001
24293742.000	-6.195391e-001	-7.873092e-001
24299736.000	-6.196446e-001	-7.871561e-001
24305730.000	-6.198097e-001	-7.870733e-001
24311724.000	-6.199635e-001	-7.869098e-001
24317718.000	-6.201233e-001	-7.867583e-001
24323712.000	-6.203168e-001	-7.867218e-001
24329706.000	-6.204211e-001	-7.865987e-001
24335700.000	-6.206216e-001	-7.864830e-001
24341694.000	-6.207507e-001	-7.863399e-001
24347688.000	-6.209242e-001	-7.861874e-001
24353682.000	-6.210519e-001	-7.861461e-001
24359676.000	-6.212404e-001	-7.859566e-001
24365670.000	-6.213541e-001	-7.858549e-001
24371664.000	-6.215000e-001	-7.857531e-001
24377658.000	-6.216282e-001	-7.856060e-001
24383652.000	-6.218208e-001	-7.855183e-001
24389646.000	-6.219391e-001	-7.853967e-001
24395640.000	-6.221787e-001	-7.852473e-001
24401634.000	-6.222514e-001	-7.851292e-001
24407628.000	-6.224190e-001	-7.850183e-001
24413622.000	-6.225649e-001	-7.848458e-001
24419616.000	-6.226629e-001	-7.847534e-001
24425610.000	-6.228582e-001	-7.846917e-001
24431604.000	-6.230295e-001	-7.845511e-001
24437598.000	-6.231567e-001	-7.844613e-001
24443592.000	-6.232962e-001	-7.843084e-001
24449586.000	-6.234661e-001	-7.842286e-001
24455580.000	-6.235673e-001	-7.840998e-001
24461574.000	-6.237773e-001	-7.839487e-001
24467568.000	-6.238975e-001	-7.838684e-001
24473562.000	-6.240655e-001	-7.836891e-001
24479556.000	-6.242113e-001	-7.836104e-001
24485550.000	-6.243424e-001	-7.834632e-001
24491544.000	-6.245398e-001	-7.833333e-001
24497538.000	-6.246857e-001	-7.832568e-001
24503532.000	-6.248151e-001	-7.831319e-001
24509526.000	-6.249852e-001	-7.829624e-001
24515520.000	-6.250682e-001	-7.828506e-001
24521514.000	-6.252942e-001	-7.827909e-001
24527508.000	-6.253744e-001	-7.825978e-001
24533502.000	-6.255577e-001	-7.824975e-001
24539496.000	-6.257125e-001	-7.824079e-001
24545490.000	-6.259016e-001	-7.822908e-001
24551484.000	-6.260187e-001	-7.821458e-001
24557478.000	-6.261201e-001	-7.820153e-001
24563472.000	-6.263398e-001	-7.818890e-001
24569466.000	-6.264779e-001	-7.818044e-001
24575460.000	-6.266428e-001	-7.816937e-001
24581454.000	-6.267479e-001	-7.815478e-001
24587448.000	-6.269115e-001	-7.814554e-001
24593442.000	-6.270744e-001	-7.813294e-001
24599436.000	-6.272120e-001	-7.811434e-001
24605430.000	-6.273481e-001	-7.810980e-001
24611424.000	-6.275041e-001	-7.809187e-001
24617418.000	-6.276710e-001	-7.808246e-001
24623412.000	-6.278290e-001	-7.807393e-001
24629406.000	-6.279768e-001	-7.806175e-001
24635400.000	-6.281117e-001	-7.804858e-001
24641394.000	-6.282325e-001	-7.803765e-001
24647388.000	-6.283959e-001	-7.801848e-001
24653382.000	-6.285372e-001	-7.800669e-001
24659376.000	-6.286857e-001	-7.799783e-001
24665370.000	-6.288162e-001	-7.798171e-001
24671364.000	-6.289682e-001	-7.797844e-001
24677358.000	-6.291539e-001	-7.796765e-001
24683352.000	-6.292472e-001	-7.795074e-001
24689346.000	-6.294223e-001	-7.794035e-001
24695340.000	-6.296161e-001	-7.792649e-001
24701334.000	-6.297661e-001	-7.791634e-001
24707328.000	-6.298804e-001	-7.790648e-001
24713322.000	-6.300092e-001	-7.789298e-001
24719316.000	-6.301530e-001	-7.787403e-001
24725310.000	-6.303013e-001	-7.786905e-001
24731304.000	-6.304522e-001	-7.785304e-001
24737298.000	-6.305808e-001	-7.784467e-001
24743292.000	-6.307165e-001	-7.782843e-001
24749286.000	-6.308632e-001	-7.782476e-001
24755280.000	-6.310477e-001	-7.780317e-001
24761274.000	-6.311666e-001	-7.779632e-001
24767268.000	-6.312879e-001	-7.778306e-001
24773262.000	-6.314564e-001	-7.777335e-001
24779256.000	-6.315768e-001	-7.775682e-001
24785250.000	-6.317382e-001	-7.774500e-001
24791244.000	-6.319081e-001	-7.773662e-001
24797238.000	-6.320681e-001	-7.772406e-001
24803232.000	-6.322397e-001	-7.771630e-001
24809226.000	-6.323569e-001	-7.770699e-001
24815220.000	-6.324854e-001	-7.768477e-001
24821214.000	-6.326566e-001	-7.767778e-001
24827208.000	-6.327954e-001	-7.766455e-001
24833202.000	-6.329369e-001	-7.765269e-001
24839196.000	-6.330964e-001	-7.763919e-001
24845190.000	-6.332501e-001	-7.762813e-001
24851184.000	-6.333973e-001	-7.761814e-001
24857178.000	-6.335343e-001	-7.760775e-001
24863172.000	-6.336991e-001	-7.759750e-001
24869166.000	-6.338841e-001	-7.758166e-001
24875160.000	-6.339495e-001	-7.757073e-001
24881154.000	-6.340456e-001	-7.756240e-001
24887148.000	-6.342433e-001	-7.754520e-001
24893142.000	-6.343717e-001	-7.753268e-001
24899136.000	-6.345179e-001	-7.752147e-001
24905130.000	-6.346605e-001	-7.750647e-001
24911124.000	-6.348036e-001	-7.749571e-001
24917118.000	-6.349097e-001	-7.748853e-001
24923112.000	-6.351150e-001	-7.747773e-001
24929106.000	-6.352594e-001	-7.746063e-001
24935100.000	-6.354165e-001	-7.745335e-001
24941094.000	-6.356217e-001	-7.743931e-001
24947088.000	-6.357681e-001	-7.743233e-001
24953082.000	-6.358464e-001	-7.741672e-001
24959076.000	-6.359814e-001	-7.740422e-001
24965070.000	-6.361371e-001	-7.738959e-001
24971064.000	-6.362863e-001	-7.737920e-001
24977058.000	-6.364129e-001	-7.736680e-001
24983052.000	-6.365643e-001	-7.735669e-001
24989046.000	-6.367175e-001	-7.734530e-001
24995040.000	-6.368436e-001	-7.733105e-001
25001034.000	-6.369538e-001	-7.732124e-001
25007028.000	-6.371083e-001	-7.730824e-001
25013022.000	-6.373155e-001	-7.729629e-001
25019016.000	-6.374415e-001	-7.729086e-001
25025010.000	-6.375629e-001	-7.727267e-001
25031004.000	-6.376275e-001	-7.726107e-001
25036998.000	-6.378279e-001	-7.725128e-001
25042992.000	-6.380019e-001	-7.724136e-001
25048986.000	-6.381674e-001	-7.723071e-001
25054980.000	-6.382864e-001	-7.721678e-001
25060974.000	-6.384256e-001	-7.720353e-001
25066968.000	-6.385142e-001	-7.718900e-001
25072962.000	-6.386946e-001	-7.717871e-001
25078956.000	-6.388053e-001	-7.716931e-001
25084950.000	-6.389974e-001	-7.715996e-001
25090944.000	-6.391357e-001	-7.714529e-001
25096938.000	-6.392487e-001	-7.712891e-001
25102932.000	-6.394496e-001	-7.712056e-001
25108926.000	-6.395885e-001	-7.711113e-001
25114920.000	-6.396498e-001	-7.709866e-001
25120914.000	-6.397932e-001	-7.708435e-001
25126908.000	-6.399768e-001	-7.707425e-001
25132902.000	-6.401586e-001	-7.706736e-001
25138896.000	-6.402821e-001	-7.704906e-001
25144890.000	-6.404035e-001	-7.704100e-001
25150884.000	-6.405460e-001	-7.702650e-001
25156878.000	-6.406924e-001	-7.701677e-001
25162872.000	-6.408052e-001	-7.700529e-001
25168866.000	-6.409301e-001	-7.699323e-001
25174860.000	-6.410981e-001	-7.698053e-001
25180854.000	-6.412725e-001	-7.696076e-001
25186848.000	-6.413904e-001	-7.695966e-001
25192842.000	-6.414863e-001	-7.694721e-001
25198836.000	-6.416977e-001	-7.693192e-001
25204830.000	-6.418197e-001	-7.692318e-001
25210824.000	-6.419171e-001	-7.690729e-001
25216818.000	-6.420807e-001	-7.689657e-001
25222812.000	-6.422283e-001	-7.688225e-001
25228806.000	-6.423816e-001	-7.687447e-001
25234800.000	-6.425064e-001	-7.686162e-001
25240794.000	-6.426274e-001	-7.685367e-001
25246788.000	-6.427459e-001	-7.683981e-001
25252782.000	-6.429519e-001	-7.682741e-001
25258776.000	-6.431015e-001	-7.681853e-001
25264770.000	-6.432241e-001	-7.680680e-001
25270764.000	-6.433366e-001	-7.679510e-001
25276758.000	-6.434896e-001	-7.678501e-001
25282752.000	-6.436819e-001	-7.676956e-001
25288746.000	-6.437646e-001	-7.675614e-001
25294740.000	-6.439273e-001	-7.674784e-001
25300734.000	-6.440731e-001	-7.673544e-001
25306728.000	-6.441663e-001	-7.672040e-001
25312722.000	-6.443305e-001	-7.670927e-001
25318716.000	-6.444376e-001	-7.669827e-001
25324710.000	-6.446114e-001	-7.668839e-001
25330704.000	-6.447303e-001	-7.667425e-001
25336698.000	-6.448742e-001	-7.665851e-001
25342692.000	-6.450294e-001	-7.665326e-001
25348686.000	-6.451807e-001	-7.664041e-001
25354680.000	-6.452819e-001	-7.663099e-001
25360674.000	-6.454029e-001	-7.661567e-001
25366668.000	-6.455755e-001	-7.660015e-001
25372662.000	-6.456923e-001	-7.659389e-001
25378656.000	-6.458338e-001	-7.658479e-001
25384650.000	-6.460036e-001	-7.656395e-001
25390644.000	-6.461182e-001	-7.655685e-001
25396638.000	-6.462609e-001	-7.654459e-001
25402632.000	-6.464321e-001	-7.653206e-001
25408626.000	-6.465300e-001	-7.652433e-001
25414620.000	-6.466349e-001	-7.651212e-001
25420614.000	-6.467945e-001	-7.649797e-001
25426608.000	-6.469447e-001	-7.648734e-001
25432602.000	-6.470960e-001	-7.647539e-001
25438596.000	-6.472485e-001	-7.646832e-001
25444590.000	-6.473432e-001	-7.644719e-001
25450584.000	-6.475243e-001	-7.644291e-001
25456578.000	-6.476586e-001	-7.642724e-001
25462572.000	-6.477981e-001	-7.641899e-001
25468566.000	-6.479487e-001	-7.640514e-001
25474560.000	-6.480875e-001	-7.639715e-001
25480554.000	-6.482290e-001	-7.638168e-001
25486548.000	-6.483283e-001	-7.637819e-001
25492542.000	-6.484681e-001	-7.636103e-001
25498536.000	-6.485967e-001	-7.635081e-001
25504530.000	-6.487623e-001	-7.633098e-001
25510524.000	-6.488382e-001	-7.632729e-001
25516518.000	-6.490163e-001	-7.631349e-001
25522512.000	-6.491722e-001	-7.630655e-001
25528506.000	-6.492795e-001	-7.629153e-001
25534500.000	-6.494299e-001	-7.627800e-001
25540494.000	-6.495892e-001	-7.627131e-001
25546488.000	-6.496659e-001	-7.625774e-001
25552482.000	-6.498611e-001	-7.624223e-001
25558476.000	-6.500108e-001	-7.623241e-001
25564470.000	-6.501206e-001	-7.622125e-001
25570464.000	-6.502477e-001	-7.620769e-001
25576458.000	-6.503651e-001	-7.619431e-001
25582452.000	-6.504922e-001	-7.618422e-001
25588446.000	-6.506643e-001	-7.617484e-001
25594440.000	-6.508301e-001	-7.616458e-001
25600434.000	-6.509011e-001	-7.614900e-001
25606428.000	-6.510118e-001	-7.613618e-001
25612422.000	-6.511481e-001	-7.612587e-001
25618416.000	-6.513118e-001	-7.610865e-001
25624410.000	-6.513935e-001	-7.609643e-001
25630404.000	-6.515322e-001	-7.608020e-001
25636398.000	-6.516911e-001	-7.607442e-001
25642392.000	-6.518176e-001	-7.606407e-001
25648386.000	-6.519843e-001	-7.604880e-001
25654380.000	-6.521462e-001	-7.603982e-001
25660374.000	-6.522638e-001	-7.603038e-001
25666368.000	-6.523697e-001	-7.601361e-001
25672362.000	-6.524937e-001	-7.600095e-001
25678356.000	-6.526346e-001	-7.599692e-001
25684350.000	-6.527804e-001	-7.598433e-001
25690344.000	-6.529016e-001	-7.596820e-001
25696338.000	-6.530485e-001	-7.595888e-001
25702332.000	-6.531901e-001	-7.594572e-001
25708326.000	-6.533339e-001	-7.593581e-001
25714320.000	-6.534712e-001	-7.592715e-001
25720314.000	-6.536112e-001	-7.591693e-001
25726308.000	-6.537002e-001	-7.590665e-001
25732302.000	-6.538637e-001	-7.588775e-001
25738296.000	-6.539550e-001	-7.587952e-001
25744290.000	-6.541236e-001	-7.586738e-001
25750284.000	-6.542707e-001	-7.585695e-001
25756278.000	-6.543619e-001	-7.584298e-001
25762272.000	-6.544918e-001	-7.583487e-001
25768266.000	-6.547017e-001	-7.582083e-001
25774260.000	-6.547977e-001	-7.580975e-001
25780254.000	-6.549637e-001	-7.579498e-001
25786248.000	-6.550672e-001	-7.578325e-001
25792242.000	-6.551675e-001	-7.577254e-001
25798236.000	-6.553434e-001	-7.576227e-001
25804230.000	-6.554377e-001	-7.574990e-001
25810224.000	-6.555583e-001	-7.573575e-001
25816218.000	-6.557073e-001	-7.572680e-001
25822212.000	-6.558527e-001	-7.571896e-001
25828206.000	-6.559837e-001	-7.570692e-001
25834200.000	-6.561977e-001	-7.569435e-001
25840194.000	-6.562991e-001	-7.568581e-001
25846188.000	-6.563865e-001	-7.566958e-001
25852182.000	-6.564969e-001	-7.565731e-001
25858176.000	-6.566287e-001	-7.564200e-001
25864170.000	-6.567981e-001	-7.563414e-001
25870164.000	-6.568957e-001	-7.562481e-001
25876158.000	-6.570323e-001	-7.561059e-001
25882152.000	-6.571863e-001	-7.559878e-001
25888146.000	-6.573307e-001	-7.558840e-001
25894140.000	-6.574421e-001	-7.557806e-001
25900134.000	-6.575897e-001	-7.556996e-001
25906128.000	-6.576903e-001	-7.555281e-001
25912122.000	-6.578613e-001	-7.554437e-001
25918116.000	-6.579659e-001	-7.553346e-001
25924110.000	-6.580744e-001	-7.552027e-001
25930104.000	-6.582679e-001	-7.550478e-001
25936098.000	-6.583966e-001	-7.549614e-001
25942092.000	-6.585306e-001	-7.548693e-001
25948086.000	-6.586110e-001	-7.547369e-001
25954080.000	-6.587347e-001	-7.546054e-001
25960074.000	-6.588766e-001	-7.545044e-001
25966068.000	-6.590288e-001	-7.543714e-001
25972062.000	-6.591289e-001	-7.542933e-001
25978056.000	-6.592300e-001	-7.540819e-001
25984050.000	-6.594125e-001	-7.540558e-001
25990044.000	-6.595612e-001	-7.539058e-001
25996038.000	-6.596375e-001	-7.538019e-001
26002032.000	-6.597739e-001	-7.536444e-001
26008026.000	-6.599359e-001	-7.535952e-001
26014020.000	-6.600871e-001	-7.534707e-001
26020014.000	-6.601987e-001	-7.533708e-001
26026008.000	-6.603000e-001	-7.532320e-001
26032002.000	-6.604271e-001	-7.531361e-001
26037996.000	-6.606156e-001	-7.530396e-001
26043990.000	-6.606548e-001	-7.528475e-001
26049984.000	-6.608102e-001	-7.527776e-001
26055978.000	-6.610080e-001	-7.526918e-001
26061972.000	-6.611027e-001	-7.525724e-001
26067966.000	-6.612612e-001	-7.524547e-001
26073960.000	-6.613785e-001	-7.523502e-001
26079954.000	-6.615229e-001	-7.522090e-001
26085948.000	-6.616370e-001	-7.521004e-001
26091942.000	-6.617852e-001	-7.520038e-001
26097936.000	-6.619073e-001	-7.519411e-001
26103930.000	-6.620253e-001	-7.517549e-001
26109924.000	-6.621382e-001	-7.516436e-001
26115918.000	-6.622664e-001	-7.515111e-001
26121912.000	-6.624419e-001	-7.514325e-001
26127906.000	-6.625030e-001	-7.512643e-001
26133900.000	-6.626723e-001	-7.511660e-001
26139894.000	-6.628074e-001	-7.510497e-001
26145888.000	-6.629260e-001	-7.509633e-001
26151882.000	-6.630767e-001	-7.508515e-001
26157876.000	-6.631808e-001	-7.507783e-001
26163870.000	-6.633145e-001	-7.506577e-001
26169864.000	-6.634421e-001	-7.505129e-001
26175858.000	-6.635797e-001	-7.504262e-001
26181852.000	-6.637071e-001	-7.503162e-001
26187846.000	-6.638862e-001	-7.502109e-001
26193840.000	-6.639514e-001	-7.500703e-001
26199834.000	-6.640907e-001	-7.499324e-001
26205828.000	-6.642227e-001	-7.497915e-001
26211822.000	-6.643498e-001	-7.496795e-001
26217816.000	-6.644579e-001	-7.496137e-001
26223810.000	-6.646065e-001	-7.494957e-001
26229804.000	-6.647337e-001	-7.493606e-001
26235798.000	-6.648521e-001	-7.492719e-001
26241792.000	-6.649766e-001	-7.491040e-001
26247786.000	-6.651072e-001	-7.490136e-001
26253780.000	-6.652472e-001	-7.488791e-001
26259774.000	-6.654034e-001	-7.487766e-001
26265768.000	-6.654860e-001	-7.487181e-001
26271762.000	-6.656319e-001	-7.485557e-001
26277756.000	-6.657433e-001	-7.484671e-001
26283750.000	-6.658829e-001	-7.483759e-001
26289744.000	-6.659805e-001	-7.482282e-001
26295738.000	-6.661218e-001	-7.480941e-001
26301732.000	-6.662981e-001	-7.479740e-001
26307726.000	-6.663841e-001	-7.478707e-001
26313720.000	-6.665219e-001	-7.477543e-001
26319714.000	-6.666169e-001	-7.476637e-001
26325708.000	-6.667635e-001	-7.475753e-001
26331702.000	-6.668433e-001	-7.474042e-001
26337696.000	-6.670220e-001	-7.473501e-001
26343690.000	-6.671429e-001	-7.471482e-001
26349684.000	-6.672968e-001	-7.470729e-001
26355678.000	-6.674690e-001	-7.469928e-001
26361672.000	-6.674892e-001	-7.468587e-001
26367666.000	-6.676192e-001	-7.467108e-001
26373660.000	-6.677532e-001	-7.465843e-001
26379654.000	-6.678902e-001	-7.465028e-001
26385648.000	-6.679623e-001	-7.463731e-001
26391642.000	-6.681856e-001	-7.462525e-001
26397636.000	-6.682707e-001	-7.461827e-001
26403630.000	-6.684230e-001	-7.460680e-001
26409624.000	-6.685596e-001	-7.459922e-001
26415618.000	-6.686936e-001	-7.458681e-001
26421612.000	-6.688306e-001	-7.457299e-001
26427606.000	-6.688994e-001	-7.456225e-001
26433600.000	-6.690573e-001	-7.455116e-001
26439594.000	-6.691763e-001	-7.453684e-001
26445588.000	-6.693653e-001	-7.452983e-001
26451582.000	-6.694127e-001	-7.452158e-001
26457576.000	-6.695759e-001	-7.450340e-001
26463570.000	-6.697302e-001	-7.448851e-001
26469564.000	-6.698204e-001	-7.448415e-001
26475558.000	-6.699854e-001	-7.447441e-001
26481552.000	-6.700550e-001	-7.446707e-001
26487546.000	-6.701871e-001	-7.445268e-001
26493540.000	-6.703161e-001	-7.443623e-001
26499534.000	-6.704412e-001	-7.442636e-001
26505528.000	-6.705654e-001	-7.441202e-001
26511522.000	-6.706503e-001	-7.440640e-001
26517516.000	-6.708195e-001	-7.438960e-001
26523510.000	-6.709037e-001	-7.438183e-001
26529504.000	-6.710498e-001	-7.436901e-001
26535498.000	-6.712213e-001	-7.435798e-001
26541492.000	-6.712799e-001	-7.434478e-001
26547486.000	-6.713994e-001	-7.433388e-001
26553480.000	-6.715453e-001	-7.432685e-001
26559474.000	-6.717461e-001	-7.431055e-001
26565468.000	-6.718171e-001	-7.430410e-001
26571462.000	-6.719438e-001	-7.428707e-001
26577456.000	-6.720233e-001	-7.427417e-001
26583450.000	-6.721859e-001	-7.426345e-001
26589444.000	-6.723088e-001	-7.425843e-001
26595438.000	-6.724148e-001	-7.424405e-001
26601432.000	-6.725249e-001	-7.423726e-001
26607426.000	-6.726830e-001	-7.422401e-001
26613420.000	-6.728272e-001	-7.421058e-001
26619414.000	-6.729292e-001	-7.420143e-001
26625408.000	-6.730507e-001	-7.418764e-001
26631402.000	-6.731493e-001	-7.417494e-001
26637396.000	-6.732941e-001	-7.416842e-001
26643390.000	-6.734295e-001	-7.415518e-001
26649384.000	-6.734749e-001	-7.413927e-001
26655378.000	-6.736326e-001	-7.412466e-001
26661372.000	-6.737382e-001	-7.412059e-001
26667366.000	-6.738670e-001	-7.410777e-001
26673360.000	-6.740608e-001	-7.410115e-001
26679354.000	-6.741229e-001	-7.408543e-001
26685348.000	-6.742676e-001	-7.407655e-001
26691342.000	-6.744390e-001	-7.406192e-001
26697336.000	-6.745074e-001	-7.405574e-001
26703330.000	-6.746462e-001	-7.404136e-001
26709324.000	-6.747142e-001	-7.403020e-001
26715318.000	-6.748667e-001	-7.401840e-001
26721312.000	-6.749589e-001	-7.400295e-001
26727306.000	-6.751407e-001	-7.398956e-001
26733300.000	-6.752474e-001	-7.398199e-001
26739294.000	-6.753761e-001	-7.396903e-001
26745288.000	-6.754713e-001	-7.396090e-001
26751282.000	-6.756123e-001	-7.395151e-001
26757276.000	-6.757478e-001	-7.393942e-001
26763270.000	-6.758979e-001	-7.392598e-001
26769264.000	-6.760106e-001	-7.392033e-001
26775258.000	-6.761162e-001	-7.389981e-001
26781252.000	-6.762255e-001	-7.389833e-001
26787246.000	-6.763084e-001	-7.388588e-001
26793240.000	-6.765456e-001	-7.387735e-001
26799234.000	-6.766126e-001	-7.386495e-001
26805228.000	-6.767105e-001	-7.385199e-001
26811222.000	-6.768570e-001	-7.383633e-001
26817216.000	-6.769471e-001	-7.382456e-001
26823210.000	-6.770839e-001	-7.381678e-001
26829204.000	-6.772204e-001	-7.380931e-001
26835198.000	-6.773652e-001	-7.379601e-001
26841192.000	-6.774688e-001	-7.378586e-001
26847186.000	-6.775829e-001	-7.376760e-001
26853180.000	-6.777216e-001	-7.375679e-001
26859174.000	-6.778138e-001	-7.374798e-001
26865168.000	-6.779365e-001	-7.373799e-001
26871162.000	-6.780761e-001	-7.372977e-001
26877156.000	-6.781769e-001	-7.371584e-001
26883150.000	-6.782870e-001	-7.370560e-001
26889144.000	-6.784468e-001	-7.369606e-001
26895138.000	-6.785182e-001	-7.368345e-001
26901132.000	-6.786423e-001	-7.367420e-001
26907126.000	-6.787488e-001	-7.365698e-001
26913120.000	-6.789241e-001	-7.364597e-001
26919114.000	-6.790122e-001	-7.363525e-001
26925108.000	-6.791224e-001	-7.362747e-001
26931102.000	-6.792517e-001	-7.361799e-001
26937096.000	-6.793568e-001	-7.360208e-001
26943090.000	-6.794811e-001	-7.359042e-001
26949084.000	-6.795986e-001	-7.357805e-001
26955078.000	-6.797368e-001	-7.356843e-001
26961072.000	-6.798647e-001	-7.356045e-001
26967066.000	-6.799740e-001	-7.355080e-001
26973060.000	-6.801207e-001	-7.353826e-001
26979054.000	-6.801760e-001	-7.352847e-001
26985048.000	-6.803643e-001	-7.351406e-001
26991042.000	-6.804265e-001	-7.350132e-001
26997036.000	-6.805534e-001	-7.349128e-001
27003030.000	-6.806538e-001	-7.348029e-001
27009024.000	-6.808062e-001	-7.346993e-001
27015018.000	-6.809240e-001	-7.346132e-001
27021012.000	-6.810301e-001	-7.344743e-001
27027006.000	-6.811732e-001	-7.343732e-001
27033000.000	-6.813446e-001	-7.342899e-001
27038994.000	-6.813691e-001	-7.341273e-001
27044988.000	-6.814994e-001	-7.340220e-001
27050982.000	-6.816132e-001	-7.339050e-001
27056976.000	-6.817968e-001	-7.338012e-001
27062970.000	-6.818639e-001	-7.336499e-001
27068964.000	-6.820138e-001	-7.335982e-001
27074958.000	-6.820870e-001	-7.334707e-001
27080952.000	-6.822477e-001	-7.334131e-001
27086946.000	-6.823587e-001	-7.332482e-001
27092940.000	-6.824674e-001	-7.331573e-001
27098934.000	-6.826551e-001	-7.329983e-001
27104928.000	-6.827167e-001	-7.329220e-001
27110922.000	-6.827932e-001	-7.328045e-001
27116916.000	-6.829430e-001	-7.326611e-001
27122910.000	-6.831236e-001	-7.326142e-001
27128904.000	-6.831770e-001	-7.324619e-001
27134898.000	-6.833005e-001	-7.323840e-001
27140892.000	-6.834228e-001	-7.322768e-001
27146886.000	-6.835310e-001	-7.321314e-001
27152880.000	-6.836854e-001	-7.320550e-001
27158874.000	-6.837688e-001	-7.319720e-001
27164868.000	-6.838926e-001	-7.317792e-001
27170862.000	-6.840107e-001	-7.317312e-001
27176856.000	-6.841146e-001	-7.315665e-001
27182850.000	-6.842408e-001	-7.314797e-001
27188844.000	-6.843648e-001	-7.313542e-001
27194838.000	-6.845099e-001	-7.312980e-001
27200832.000	-6.846121e-001	-7.311252e-001
27206826.000	-6.847365e-001	-7.310133e-001
27212820.000	-6.848538e-001	-7.309714e-001
27218814.000	-6.849685e-001	-7.308778e-001
27224808.000	-6.850541e-001	-7.307170e-001
27230802.000	-6.852244e-001	-7.306197e-001
27236796.000	-6.853207e-001	-7.304878e-001
27242790.000	-6.854209e-001	-7.303687e-001
27248784.000	-6.855245e-001	-7.302137e-001
27254778.000	-6.857004e-001	-7.301211e-001
27260772.000	-6.857549e-001	-7.300469e-001
27266766.000	-6.858522e-001	-7.299259e-001
27272760.000	-6.859706e-001	-7.297871e-001
27278754.000	-6.861390e-001	-7.296869e-001
27284748.000	-6.862075e-001	-7.295683e-001
27290742.000	-6.863829e-001	-7.294900e-001
27296736.000	-6.865167e-001	-7.294334e-001
27302730.000	-6.866036e-001	-7.292988e-001
27308724.000	-6.866810e-001	-7.291692e-001
27314718.000	-6.868044e-001	-7.290709e-001
27320712.000	-6.869471e-001	-7.289058e-001
27326706.000	-6.871003e-001	-7.288449e-001
27332700.000	-6.871776e-001	-7.286783e-001
27338694.000	-6.872512e-001	-7.285735e-001
27344688.000	-6.873775e-001	-7.285213e-001
27350682.000	-6.875054e-001	-7.283829e-001
27356676.000	-6.876852e-001	-7.282886e-001
27362670.000	-6.877640e-001	-7.282227e-001
27368664.000	-6.879116e-001	-7.280843e-001
27374658.000	-6.880247e-001	-7.279739e-001
27380652.000	-6.880842e-001	-7.277926e-001
27386646.000	-6.882718e-001	-7.277864e-001
27392640.000	-6.883952e-001	-7.276394e-001
27398634.000	-6.884514e-001	-7.275139e-001
27404628.000	-6.885686e-001	-7.273475e-001
27410622.000	-6.886755e-001	-7.272697e-001
27416616.000	-6.888031e-001	-7.271717e-001
27422610.000	-6.889277e-001	-7.270753e-001
27428604.000	-6.890138e-001	-7.269247e-001
27434598.000	-6.891822e-001	-7.269083e-001
27440592.000	-6.892744e-001	-7.267685e-001
27446586.000	-6.893853e-001	-7.266221e-001
27452580.000	-6.895017e-001	-7.265385e-001
27458574.000	-6.896477e-001	-7.264473e-001
27464568.000	-6.897246e-001	-7.263105e-001
27470562.000	-6.898410e-001	-7.261889e-001
27476556.000	-6.899437e-001	-7.260652e-001
27482550.000	-6.899958e-001	-7.259780e-001
27488544.000	-6.901729e-001	-7.258063e-001
27494538.000	-6.903058e-001	-7.257492e-001
27500532.000	-6.904635e-001	-7.256545e-001
27506526.000	-6.905162e-001	-7.255797e-001
27512520.000	-6.905712e-001	-7.254473e-001
27518514.000	-6.907805e-001	-7.252836e-001
27524508.000	-6.908654e-001	-7.251572e-001
27530502.000	-6.908976e-001	-7.250586e-001
27536496.000	-6.910854e-001	-7.249700e-001
27542490.000	-6.911765e-001	-7.248163e-001
27548484.000	-6.913129e-001	-7.247502e-001
27554478.000	-6.913889e-001	-7.245916e-001
27560472.000	-6.915858e-001	-7.245546e-001
27566466.000	-6.916631e-001	-7.244283e-001
27572460.000	-6.917105e-001	-7.243090e-001
27578454.000	-6.918829e-001	-7.242027e-001
27584448.000	-6.919821e-001	-7.240976e-001
27590442.000	-6.921251e-001	-7.240174e-001
27596436.000	-6.922388e-001	-7.239086e-001
27602430.000	-6.923380e-001	-7.237757e-001
27608424.000	-6.924929e-001	-7.236908e-001
27614418.000	-6.926063e-001	-7.235461e-001
27620412.000	-6.927135e-001	-7.234670e-001
27626406.000	-6.927796e-001	-7.233375e-001
27632400.000	-6.928683e-001	-7.232463e-001
27638394.000	-6.930603e-001	-7.231410e-001
27644388.000	-6.931818e-001	-7.230061e-001
27650382.000	-6.932242e-001	-7.229265e-001
27656376.000	-6.933623e-001	-7.227983e-001
27662370.000	-6.934866e-001	-7.226718e-001
27668364.000	-6.935828e-001	-7.225549e-001
27674358.000	-6.937200e-001	-7.224910e-001
27680352.000	-6.938167e-001	-7.223760e-001
27686346.000	-6.939356e-001	-7.222660e-001
27692340.000	-6.940227e-001	-7.221234e-001
27698334.000	-6.941402e-001	-7.220355e-001
27704328.000	-6.942740e-001	-7.219248e-001
27710322.000	-6.943814e-001	-7.217982e-001
27716316.000	-6.944586e-001	-7.217037e-001
27722310.000	-6.946208e-001	-7.215375e-001
27728304.000	-6.946971e-001	-7.214816e-001
27734298.000	-6.948293e-001	-7.214009e-001
27740292.000	-6.949669e-001	-7.212691e-001
27746286.000	-6.950744e-001	-7.211268e-001
27752280.000	-6.951188e-001	-7.210448e-001
27758274.000	-6.952843e-001	-7.209438e-001
27764268.000	-6.954060e-001	-7.208792e-001
27770262.000	-6.955470e-001	-7.206792e-001
27776256.000	-6.956087e-001	-7.206338e-001
27782250.000	-6.957386e-001	-7.205960e-001
27788244.000	-6.958424e-001	-7.204231e-001
27794238.000	-6.959362e-001	-7.202776e-001
27800232.000	-6.960858e-001	-7.201875e-001
27806226.000	-6.961823e-001	-7.200472e-001
27812220.000	-6.963333e-001	-7.199808e-001
27818214.000	-6.964126e-001	-7.198390e-001
27824208.000	-6.965258e-001	-7.197265e-001
27830202.000	-6.966051e-001	-7.197122e-001
27836196.000	-6.966995e-001	-7.195535e-001
27842190.000	-6.968419e-001	-7.194284e-001
27848184.000	-6.969470e-001	-7.193133e-001
27854178.000	-6.970685e-001	-7.192051e-001
27860172.000	-6.972017e-001	-7.190970e-001
27866166.000	-6.972814e-001	-7.190306e-001
27872160.000	-6.974041e-001	-7.188963e-001
27878154.000	-6.975496e-001	-7.188049e-001
27884148.000	-6.975853e-001	-7.186686e-001
27890142.000	-6.977526e-001	-7.185910e-001
27896136.000	-6.978650e-001	-7.184815e-001
27902130.000	-6.980047e-001	-7.183740e-001
27908124.000	-6.980807e-001	-7.182321e-001
27914118.000	-6.981685e-001	-7.181337e-001
27920112.000	-6.983072e-001	-7.180040e-001
27926106.000	-6.983471e-001	-7.179073e-001
27932100.000	-6.984951e-001	-7.177780e-001
27938094.000	-6.986027e-001	-7.177362e-001
27944088.000	-6.987512e-001	-7.175987e-001
27950082.000	-6.988231e-001	-7.174644e-001
27956076.000	-6.989642e-001	-7.173976e-001
27962070.000	-6.990434e-001	-7.172720e-001
27968064.000	-6.991677e-001	-7.171648e-001
27974058.000	-6.993038e-001	-7.170199e-001
27980052.000	-6.993785e-001	-7.169435e-001
27986046.000	-6.994774e-001	-7.168541e-001
27992040.000	-6.995905e-001	-7.166829e-001
27998034.000	-6.996405e-001	-7.165896e-001
28004028.000	-6.998366e-001	-7.165097e-001
28010022.000	-6.998934e-001	-7.164094e-001
28016016.000	-7.000242e-001	-7.162754e-001
28022010.000	-7.001543e-001	-7.162047e-001
28028004.000	-7.002676e-001	-7.160793e-001
28033998.000	-7.003685e-001	-7.160041e-001
28039992.000	-7.005396e-001	-7.159343e-001
28045986.000	-7.006095e-001	-7.157463e-001
28051980.000	-7.007036e-001	-7.156747e-001
28057974.000	-7.008372e-001	-7.155433e-001
28063968.000	-7.009301e-001	-7.154648e-001
28069962.000	-7.010397e-001	-7.153196e-001
28075956.000	-7.011239e-001	-7.152646e-001
28081950.000	-7.012347e-001	-7.150642e-001
28087944.000	-7.013765e-001	-7.150451e-001
28093938.000	-7.014801e-001	-7.149395e-001
28099932.000	-7.015925e-001	-7.147836e-001
28105926.000	-7.016714e-001	-7.146748e-001
28111920.000	-7.017973e-001	-7.146079e-001
28117914.000	-7.019029e-001	-7.144669e-001
28123908.000	-7.020471e-001	-7.143484e-001
28129902.000	-7.021141e-001	-7.142456e-001
28135896.000	-7.021940e-001	-7.141724e-001
28141890.000	-7.023617e-001	-7.140094e-001
28147884.000	-7.024383e-001	-7.139506e-001
28153878.000	-7.025842e-001	-7.138313e-001
28159872.000	-7.026620e-001	-7.137463e-001
28165866.000	-7.027834e-001	-7.136430e-001
28171860.000	-7.028621e-001	-7.135371e-001
28177854.000	-7.030107e-001	-7.134155e-001
28183848.000	-7.030861e-001	-7.132726e-001
28189842.000	-7.032159e-001	-7.132125e-001
28195836.000	-7.033224e-001	-7.130861e-001
28201830.000	-7.034457e-001	-7.129290e-001
28207824.000	-7.034899e-001	-7.128371e-001
28213818.000	-7.036446e-001	-7.127929e-001
28219812.000	-7.037088e-001	-7.126334e-001
28225806.000	-7.038409e-001	-7.125462e-001
28231800.000	-7.039639e-001	-7.124493e-001
28237794.000	-7.040681e-001	-7.122823e-001
28243788.000	-7.041804e-001	-7.121927e-001
28249782.000	-7.043198e-001	-7.121093e-001
28255776.000	-7.043771e-001	-7.119939e-001
28261770.000	-7.045479e-001	-7.119285e-001
28267764.000	-7.046000e-001	-7.117997e-001
28273758.000	-7.046857e-001	-7.116952e-001
28279752.000	-7.048023e-001	-7.115607e-001
28285746.000	-7.049428e-001	-7.114772e-001
28291740.000	-7.050579e-001	-7.114074e-001
28297734.000	-7.051907e-001	-7.112533e-001
28303728.000	-7.052309e-001	-7.111461e-001
28309722.000	-7.053640e-001	-7.111408e-001
28315716.000	-7.054648e-001	-7.109489e-001
28321710.000	-7.055726e-001	-7.108297e-001
28327704.000	-7.056903e-001	-7.107278e-001
28333698.000	-7.058063e-001	-7.106289e-001
28339692.000	-7.059052e-001	-7.105164e-001
28345686.000	-7.060091e-001	-7.103988e-001
28351680.000	-7.061178e-001	-7.103160e-001
28357674.000	-7.062244e-001	-7.102201e-001
28363668.000	-7.063297e-001	-7.101073e-001
28369662.000	-7.064497e-001	-7.099708e-001
28375656.000	-7.065546e-001	-7.098932e-001
28381650.000	-7.066480e-001	-7.097478e-001
28387644.000	-7.068093e-001	-7.096324e-001
28393638.000	-7.068564e-001	-7.096027e-001
28399632.000	-7.069836e-001	-7.094744e-001
28405626.000	-7.071023e-001	-7.093769e-001
28411620.000	-7.071577e-001	-7.092451e-001
28417614.000	-7.072873e-001	-7.091722e-001
28423608.000	-7.073785e-001	-7.090636e-001
28429602.000	-7.074982e-001	-7.088934e-001
28435596.000	-7.075767e-001	-7.087856e-001
28441590.000	-7.077065e-001	-7.087232e-001
28447584.000	-7.078123e-001	-7.086366e-001
28453578.000	-7.079151e-001	-7.085039e-001
28459572.000	-7.080070e-001	-7.083914e-001
28465566.000	-7.081318e-001	-7.082944e-001
28471560.000	-7.082221e-001	-7.082117e-001
28477554.000	-7.083996e-001	-7.080659e-001
28483548.000	-7.084352e-001	-7.080047e-001
28489542.000	-7.085431e-001	-7.078980e-001
28495536.000	-7.086694e-001	-7.077297e-001
28501530.000	-7.087664e-001	-7.076375e-001
28507524.000	-7.088370e-001	-7.076007e-001
28513518.000	-7.089720e-001	-7.074814e-001
28519512.000	-7.090873e-001	-7.073543e-001
28525506.000	-7.091673e-001	-7.072096e-001
28531500.000	-7.093009e-001	-7.071624e-001
28537494.000	-7.093886e-001	-7.070059e-001
28543488.000	-7.095096e-001	-7.069165e-001
28549482.000	-7.095642e-001	-7.067526e-001
28555476.000	-7.096964e-001	-7.067077e-001
28561470.000	-7.097686e-001	-7.066000e-001
28567464.000	-7.098953e-001	-7.065032e-001
28573458.000	-7.099640e-001	-7.063537e-001
28579452.000	-7.101299e-001	-7.062168e-001
28585446.000	-7.102391e-001	-7.061931e-001
28591440.000	-7.103658e-001	-7.060969e-001
28597434.000	-7.104486e-001	-7.059734e-001
28603428.000	-7.105195e-001	-7.058702e-001
28609422.000	-7.106513e-001	-7.058111e-001
28615416.000	-7.107917e-001	-7.056453e-001
28621410.000	-7.108728e-001	-7.055796e-001
28627404.000	-7.109738e-001	-7.054310e-001
28633398.000	-7.110923e-001	-7.052928e-001
28639392.000	-7.112153e-001	-7.052792e-001
28645386.000	-7.112879e-001	-7.051097e-001
28651380.000	-7.113731e-001	-7.050489e-001
28657374.000	-7.114708e-001	-7.048679e-001
28663368.000	-7.115625e-001	-7.047890e-001
28669362.000	-7.116589e-001	-7.046454e-001
28675356.000	-7.118208e-001	-7.046070e-001
28681350.000	-7.118631e-001	-7.044343e-001
28687344.000	-7.119732e-001	-7.043532e-001
28693338.000	-7.121047e-001	-7.042564e-001
28699332.000	-7.121818e-001	-7.041814e-001
28705326.000	-7.123467e-001	-7.040856e-001
28711320.000	-7.124280e-001	-7.039647e-001
28717314.000	-7.125246e-001	-7.038586e-001
28723308.000	-7.125941e-001	-7.037473e-001
28729302.000	-7.127163e-001	-7.036838e-001
28735296.000	-7.128221e-001	-7.035771e-001
28741290.000	-7.129170e-001	-7.034818e-001
28747284.000	-7.130031e-001	-7.033303e-001
28753278.000	-7.131607e-001	-7.032390e-001
28759272.000	-7.132491e-001	-7.031451e-001
28765266.000	-7.133797e-001	-7.030769e-001
28771260.000	-7.134481e-001	-7.029004e-001
28777254.000	-7.135551e-001	-7.028555e-001
28783248.000	-7.136307e-001	-7.027021e-001
28789242.000	-7.137384e-001	-7.025862e-001
28795236.000	-7.138556e-001	-7.024570e-001
28801230.000	-7.139510e-001	-7.023451e-001
28807224.000	-7.140524e-001	-7.022773e-001
28813218.000	-7.141549e-001	-7.022208e-001
28819212.000	-7.142101e-001	-7.020569e-001
28825206.000	-7.143383e-001	-7.019793e-001
28831200.000	-7.144525e-001	-7.018655e-001
28837194.000	-7.146039e-001	-7.017431e-001
28843188.000	-7.146609e-001	-7.016800e-001
28849182.000	-7.147697e-001	-7.015618e-001
28855176.000	-7.148219e-001	-7.014317e-001
28861170.000	-7.149631e-001	-7.013893e-001
28867164.000	-7.151011e-001	-7.012626e-001
28873158.000	-7.151581e-001	-7.011112e-001
28879152.000	-7.152735e-001	-7.009888e-001
28885146.000	-7.153562e-001	-7.009068e-001
28891140.000	-7.154957e-001	-7.008108e-001
28897134.000	-7.156070e-001	-7.006545e-001
28903128.000	-7.156594e-001	-7.005718e-001
28909122.000	-7.157986e-001	-7.004060e-001
28915116.000	-7.158584e-001	-7.003685e-001
28921110.000	-7.160005e-001	-7.002811e-001
28927104.000	-7.161194e-001	-7.001603e-001
28933098.000	-7.162127e-001	-7.000746e-001
28939092.000	-7.162733e-001	-6.999628e-001
28945086.000	-7.164020e-001	-6.998292e-001
28951080.000	-7.165151e-001	-6.997414e-001
28957074.000	-7.165897e-001	-6.996617e-001
28963068.000	-7.166996e-001	-6.995567e-001
28969062.000	-7.167811e-001	-6.994696e-001
28975056.000	-7.168518e-001	-6.993517e-001
28981050.000	-7.170467e-001	-6.992880e-001
28987044.000	-7.171312e-001	-6.991968e-001
28993038.000	-7.172548e-001	-6.990436e-001
28999032.000	-7.173572e-001	-6.989614e-001
29005026.000	-7.174192e-001	-6.988568e-001
29011020.000	-7.174870e-001	-6.987138e-001
29017014.000	-7.175960e-001	-6.985880e-001
29023008.000	-7.177027e-001	-6.984882e-001
29029002.000	-7.178246e-001	-6.984235e-001
29034996.000	-7.179181e-001	-6.983551e-001
29040990.000	-7.179983e-001	-6.982064e-001
29046984.000	-7.181105e-001	-6.981058e-001
29052978.000	-7.182167e-001	-6.979894e-001
29058972.000	-7.183581e-001	-6.979171e-001
29064966.000	-7.184484e-001	-6.978872e-001
29070960.000	-7.184920e-001	-6.977348e-001
29076954.000	-7.186133e-001	-6.975693e-001
29082948.000	-7.186878e-001	-6.974434e-001
29088942.000	-7.187904e-001	-6.973495e-001
29094936.000	-7.188990e-001	-6.972991e-001
29100930.000	-7.190192e-001	-6.971726e-001
29106924.000	-7.191162e-001	-6.970691e-001
29112918.000	-7.192205e-001	-6.969693e-001
29118912.000	-7.193293e-001	-6.968997e-001
29124906.000	-7.194501e-001	-6.967413e-001
29130900.000	-7.195113e-001	-6.966485e-001
29136894.000	-7.196368e-001	-6.965209e-001
29142888.000	-7.197158e-001	-6.964575e-001
29148882.000	-7.198455e-001	-6.963284e-001
29154876.000	-7.199511e-001	-6.961995e-001
29160870.000	-7.200231e-001	-6.961230e-001
29166864.000	-7.200968e-001	-6.960090e-001
29172858.000	-7.202016e-001	-6.959253e-001
29178852.000	-7.202991e-001	-6.957824e-001
29184846.000	-7.203962e-001	-6.957500e-001
29190840.000	-7.205153e-001	-6.956150e-001
29196834.000	-7.205928e-001	-6.954850e-001
29202828.000	-7.207012e-001	-6.953640e-001
29208822.000	-7.208131e-001	-6.952844e-001
29214816.000	-7.208273e-001	-6.951331e-001
29220810.000	-7.209908e-001	-6.950859e-001
29226804.000	-7.211022e-001	-6.949883e-001
29232798.000	-7.211926e-001	-6.948823e-001
29238792.000	-7.212788e-001	-6.947702e-001
29244786.000	-7.214036e-001	-6.946815e-001
29250780.000	-7.214955e-001	-6.945737e-001
29256774.000	-7.215755e-001	-6.944708e-001
29262768.000	-7.217311e-001	-6.943717e-001
29268762.000	-7.218022e-001	-6.942504e-001
29274756.000	-7.219071e-001	-6.941751e-001
29280750.000	-7.219313e-001	-6.940488e-001
29286744.000	-7.220784e-001	-6.939601e-001
29292738.000	-7.221892e-001	-6.938198e-001
29298732.000	-7.222799e-001	-6.937567e-001
29304726.000	-7.224064e-001	-6.936418e-001
29310720.000	-7.224872e-001	-6.935037e-001
29316714.000	-7.226045e-001	-6.934271e-001
29322708.000	-7.226300e-001	-6.933209e-001
29328702.000	-7.227620e-001	-6.931530e-001
29334696.000	-7.228806e-001	-6.931144e-001
29340690.000	-7.229880e-001	-6.930516e-001
29346684.000	-7.230691e-001	-6.929173e-001
29352678.000	-7.231755e-001	-6.928520e-001
29358672.000	-7.233069e-001	-6.927413e-001
29364666.000	-7.233316e-001	-6.926088e-001
29370660.000	-7.234181e-001	-6.924884e-001
29376654.000	-7.235397e-001	-6.924205e-001
29382648.000	-7.236747e-001	-6.922618e-001
29388642.000	-7.237645e-001	-6.921838e-001
29394636.000	-7.238574e-001	-6.921104e-001
29400630.000	-7.240038e-001	-6.919942e-001
29406624.000	-7.240584e-001	-6.918471e-001
29412618.000	-7.241003e-001	-6.917550e-001
29418612.000	-7.241922e-001	-6.916491e-001
29424606.000	-7.243726e-001	-6.915998e-001
29430600.000	-7.244083e-001	-6.914834e-001
29436594.000	-7.245112e-001	-6.913781e-001
29442588.000	-7.246210e-001	-6.912754e-001
29448582.000	-7.247398e-001	-6.911712e-001
29454576.000	-7.248136e-001	-6.910355e-001
29460570.000	-7.249870e-001	-6.909824e-001
29466564.000	-7.250473e-001	-6.908795e-001
29472558.000	-7.251331e-001	-6.907220e-001
29478552.000	-7.252065e-001	-6.906818e-001
29484546.000	-7.253022e-001	-6.905713e-001
29490540.000	-7.254007e-001	-6.904732e-001
29496534.000	-7.254952e-001	-6.903420e-001
29502528.000	-7.256024e-001	-6.902644e-001
29508522.000	-7.257099e-001	-6.901306e-001
29514516.000	-7.257901e-001	-6.900550e-001
29520510.000	-7.259210e-001	-6.899398e-001
29526504.000	-7.260234e-001	-6.898586e-001
29532498.000	-7.261243e-001	-6.897287e-001
29538492.000	-7.262162e-001	-6.896401e-001
29544486.000	-7.262758e-001	-6.895321e-001
29550480.000	-7.263381e-001	-6.894055e-001
29556474.000	-7.264429e-001	-6.893027e-001
29562468.000	-7.265606e-001	-6.892271e-001
29568462.000	-7.266673e-001	-6.890950e-001
29574456.000	-7.267701e-001	-6.890068e-001
29580450.000	-7.268374e-001	-6.888960e-001
29586444.000	-7.269273e-001	-6.888432e-001
29592438.000	-7.270640e-001	-6.887023e-001
29598432.000	-7.271235e-001	-6.885631e-001
29604426.000	-7.272710e-001	-6.885314e-001
29610420.000	-7.273574e-001	-6.883992e-001
29616414.000	-7.274510e-001	-6.883628e-001
29622408.000	-7.275252e-001	-6.881575e-001
29628402.000	-7.276321e-001	-6.881130e-001
29634396.000	-7.277219e-001	-6.879675e-001
29640390.000	-7.278246e-001	-6.879155e-001
29646384.000	-7.279228e-001	-6.877735e-001
29652378.000	-7.279966e-001	-6.877303e-001
29658372.000	-7.281014e-001	-6.875789e-001
29664366.000	-7.282201e-001	-6.874923e-001
29670360.000	-7.282852e-001	-6.874200e-001
29676354.000	-7.283947e-001	-6.873255e-001
29682348.000	-7.284875e-001	-6.871813e-001
29688342.000	-7.285638e-001	-6.870871e-001
29694336.000	-7.286508e-001	-6.869329e-001
29700330.000	-7.287552e-001	-6.868785e-001
29706324.000	-7.288600e-001	-6.867508e-001
29712318.000	-7.289413e-001	-6.866813e-001
29718312.000	-7.290651e-001	-6.866300e-001
29724306.000	-7.291758e-001	-6.865026e-001
29730300.000	-7.292268e-001	-6.863246e-001
29736294.000	-7.293398e-001	-6.863365e-001
29742288.000	-7.294796e-001	-6.861747e-001
29748282.000	-7.295118e-001	-6.861037e-001
29754276.000	-7.296688e-001	-6.859859e-001
29760270.000	-7.297688e-001	-6.859506e-001
29766264.000	-7.298510e-001	-6.857692e-001
29772258.000	-7.299803e-001	-6.856857e-001
29778252.000	-7.300137e-001	-6.856209e-001
29784246.000	-7.301227e-001	-6.854737e-001
29790240.000	-7.301685e-001	-6.853992e-001
29796234.000	-7.303430e-001	-6.852961e-001
29802228.000	-7.303749e-001	-6.851852e-001
29808222.000	-7.304709e-001	-6.851112e-001
29814216.000	-7.306070e-001	-6.849217e-001
29820210.000	-7.306802e-001	-6.848862e-001
29826204.000	-7.307472e-001	-6.847574e-001
29832198.000	-7.308527e-001	-6.846574e-001
29838192.000	-7.308867e-001	-6.845504e-001
29844186.000	-7.310388e-001	-6.844164e-001
29850180.000	-7.311091e-001	-6.843551e-001
29856174.000	-7.312045e-001	-6.842366e-001
29862168.000	-7.313140e-001	-6.841687e-001
29868162.000	-7.314008e-001	-6.840577e-001
29874156.000	-7.315079e-001	-6.839626e-001
29880150.000	-7.315838e-001	-6.838657e-001
29886144.000	-7.316987e-001	-6.837569e-001
29892138.000	-7.318246e-001	-6.836551e-001
29898132.000	-7.319694e-001	-6.836411e-001
29904126.000	-7.320153e-001	-6.834611e-001
29910120.000	-7.320746e-001	-6.833391e-001
29916114.000	-7.321221e-001	-6.832206e-001
29922108.000	-7.322383e-001	-6.831570e-001
29928102.000	-7.323187e-001	-6.830771e-001
29934096.000	-7.324545e-001	-6.829572e-001
29940090.000	-7.325631e-001	-6.828801e-001
29946084.000	-7.326329e-001	-6.827662e-001
29952078.000	-7.327259e-001	-6.826790e-001
29958072.000	-7.328153e-001	-6.825592e-001
29964066.000	-7.329363e-001	-6.824661e-001
29970060.000	-7.330371e-001	-6.823535e-001
29976054.000	-7.331337e-001	-6.822485e-001
29982048.000	-7.331902e-001	-6.821496e-001
29988042.000	-7.333199e-001	-6.820614e-001
29994036.000	-7.334465e-001	-6.819760e-001
30000030.000	-7.335148e-001	-6.818625e-001
30006024.000	-7.335587e-001	-6.817854e-001
30012018.000	-7.336919e-001	-6.816560e-001
30018012.000	-7.338105e-001	-6.815744e-001
30024006.000	-7.338463e-001	-6.814337e-001
30030000.000	-7.339629e-001	-6.813322e-001
30035994.000	-7.339894e-001	-6.812152e-001
30041988.000	-7.340629e-001	-6.811124e-001
30047982.000	-7.342476e-001	-6.810368e-001
30053976.000	-7.342907e-001	-6.809256e-001
30059970.000	-7.344055e-001	-6.808046e-001
30065964.000	-7.344727e-001	-6.807743e-001
30071958.000	-7.345779e-001	-6.806387e-001
30077952.000	-7.346939e-001	-6.805140e-001
30083946.000	-7.347933e-001	-6.804654e-001
30089940.000	-7.348477e-001	-6.803729e-001
30095934.000	-7.349997e-001	-6.802401e-001
30101928.000	-7.350420e-001	-6.801213e-001
30107922.000	-7.351025e-001	-6.800582e-001
30113916.000	-7.351830e-001	-6.798990e-001
30119910.000	-7.353011e-001	-6.798280e-001
30125904.000	-7.353663e-001	-6.797164e-001
30131898.000	-7.354738e-001	-6.795806e-001
30137892.000	-7.355807e-001	-6.795399e-001
30143886.000	-7.357012e-001	-6.794704e-001
30149880.000	-7.357997e-001	-6.793630e-001
30155874.000	-7.358334e-001	-6.792465e-001
30161868.000	-7.359146e-001	-6.791122e-001
30167862.000	-7.360566e-001	-6.790307e-001
30173856.000	-7.361349e-001	-6.789471e-001
30179850.000	-7.362188e-001	-6.788404e-001
30185844.000	-7.363557e-001	-6.787108e-001
30191838.000	-7.363582e-001	-6.786026e-001
30197832.000	-7.365256e-001	-6.784816e-001
30203826.000	-7.365715e-001	-6.784467e-001
30209820.000	-7.366676e-001	-6.783272e-001
30215814.000	-7.367943e-001	-6.782300e-001
30221808.000	-7.368619e-001	-6.780947e-001
30227802.000	-7.369810e-001	-6.780437e-001
30233796.000	-7.370488e-001	-6.779744e-001
30239790.000	-7.371409e-001	-6.778525e-001
30245784.000	-7.372080e-001	-6.777193e-001
30251778.000	-7.373100e-001	-6.776257e-001
30257772.000	-7.374351e-001	-6.775115e-001
30263766.000	-7.374925e-001	-6.774554e-001
30269760.000	-7.375630e-001	-6.773332e-001
30275754.000	-7.376628e-001	-6.772611e-001
30281748.000	-7.377554e-001	-6.771539e-001
30287742.000	-7.378540e-001	-6.770582e-001
30293736.000	-7.378924e-001	-6.769151e-001
30299730.000	-7.380547e-001	-6.768498e-001
30305724.000	-7.381126e-001	-6.767391e-001
30311718.000	-7.382167e-001	-6.766768e-001
30317712.000	-7.383280e-001	-6.764901e-001
30323706.000	-7.384585e-001	-6.764266e-001
30329700.000	-7.384463e-001	-6.763085e-001
30335694.000	-7.385678e-001	-6.762019e-001
30341688.000	-7.386675e-001	-6.761261e-001
30347682.000	-7.387397e-001	-6.760988e-001
30353676.000	-7.388163e-001	-6.759228e-001
30359670.000	-7.389484e-001	-6.758655e-001
30365664.000	-7.390157e-001	-6.757102e-001
30371658.000	-7.391439e-001	-6.756359e-001
30377652.000	-7.392240e-001	-6.755733e-001
30383646.000	-7.392472e-001	-6.754023e-001
30389640.000	-7.394174e-001	-6.753265e-001
30395634.000	-7.394427e-001	-6.752383e-001
30401628.000	-7.395402e-001	-6.751569e-001
30407622.000	-7.396509e-001	-6.750408e-001
30413616.000	-7.397305e-001	-6.749073e-001
30419610.000	-7.397676e-001	-6.748152e-001
30425604.000	-7.398901e-001	-6.747148e-001
30431598.000	-7.400092e-001	-6.746228e-001
30437592.000	-7.400895e-001	-6.745147e-001
30443586.000	-7.401830e-001	-6.744705e-001
30449580.000	-7.403218e-001	-6.743566e-001
30455574.000	-7.403755e-001	-6.742494e-001
30461568.000	-7.404692e-001	-6.741444e-001
30467562.000	-7.405615e-001	-6.740713e-001
30473556.000	-7.406138e-001	-6.739445e-001
30479550.000	-7.407391e-001	-6.738196e-001
30485544.000	-7.408113e-001	-6.737499e-001
30491538.000	-7.408944e-001	-6.736120e-001
30497532.000	-7.409888e-001	-6.735220e-001
30503526.000	-7.410740e-001	-6.734340e-001
30509520.000	-7.411519e-001	-6.733961e-001
30515514.000	-7.412384e-001	-6.732591e-001
30521508.000	-7.413829e-001	-6.731734e-001
30527502.000	-7.414642e-001	-6.730840e-001
30533496.000	-7.415533e-001	-6.729627e-001
30539490.000	-7.415450e-001	-6.728212e-001
30545484.000	-7.416663e-001	-6.727481e-001
30551478.000	-7.417743e-001	-6.726427e-001
30557472.000	-7.418858e-001	-6.725551e-001
30563466.000	-7.419209e-001	-6.724664e-001
30569460.000	-7.420506e-001	-6.723406e-001
30575454.000	-7.421752e-001	-6.722879e-001
30581448.000	-7.422540e-001	-6.721855e-001
30587442.000	-7.423499e-001	-6.721129e-001
30593436.000	-7.424524e-001	-6.719780e-001
30599430.000	-7.425067e-001	-6.719473e-001
30605424.000	-7.425991e-001	-6.718004e-001
30611418.000	-7.426749e-001	-6.717228e-001
30617412.000	-7.427163e-001	-6.715981e-001
30623406.000	-7.429018e-001	-6.714894e-001
30629400.000	-7.429331e-001	-6.713753e-001
30635394.000	-7.430012e-001	-6.712920e-001
30641388.000	-7.431493e-001	-6.712070e-001
30647382.000	-7.432240e-001	-6.710837e-001
30653376.000	-7.432812e-001	-6.710028e-001
30659370.000	-7.433899e-001	-6.709533e-001
30665364.000	-7.434841e-001	-6.708039e-001
30671358.000	-7.436038e-001	-6.707085e-001
30677352.000	-7.436521e-001	-6.706002e-001
30683346.000	-7.437157e-001	-6.704636e-001
30689340.000	-7.438226e-001	-6.704141e-001
30695334.000	-7.439455e-001	-6.703292e-001
30701328.000	-7.440278e-001	-6.702485e-001
30707322.000	-7.440471e-001	-6.701078e-001
30713316.000	-7.441312e-001	-6.700268e-001
30719310.000	-7.442467e-001	-6.699478e-001
30725304.000	-7.443514e-001	-6.698615e-001
30731298.000	-7.444366e-001	-6.697500e-001
30737292.000	-7.445197e-001	-6.696481e-001
30743286.000	-7.445904e-001	-6.695024e-001
30749280.000	-7.447346e-001	-6.694065e-001
30755274.000	-7.447867e-001	-6.693233e-001
30761268.000	-7.449038e-001	-6.692453e-001
30767262.000	-7.449309e-001	-6.691237e-001
30773256.000	-7.451042e-001	-6.690938e-001
30779250.000	-7.451150e-001	-6.689643e-001
30785244.000	-7.452188e-001	-6.688766e-001
30791238.000	-7.453104e-001	-6.687276e-001
30797232.000	-7.453876e-001	-6.686338e-001
30803226.000	-7.454548e-001	-6.685545e-001
30809220.000	-7.455673e-001	-6.684817e-001
30815214.000	-7.456759e-001	-6.684063e-001
30821208.000	-7.457598e-001	-6.682821e-001
30827202.000	-7.458136e-001	-6.681565e-001
30833196.000	-7.459137e-001	-6.680926e-001
30839190.000	-7.459679e-001	-6.679402e-001
30845184.000	-7.460797e-001	-6.678848e-001
30851178.000	-7.461926e-001	-6.677803e-001
30857172.000	-7.462909e-001	-6.677427e-001
30863166.000	-7.463491e-001	-6.675798e-001
30869160.000	-7.464457e-001	-6.675180e-001
30875154.000	-7.465311e-001	-6.673607e-001
30881148.000	-7.466194e-001	-6.672919e-001
30887142.000	-7.467295e-001	-6.672262e-001
30893136.000	-7.467572e-001	-6.670846e-001
30899130.000	-7.468781e-001	-6.670013e-001
30905124.000	-7.469055e-001	-6.669265e-001
30911118.000	-7.470524e-001	-6.668224e-001
30917112.000	-7.471182e-001	-6.666917e-001
30923106.000	-7.472135e-001	-6.666280e-001
30929100.000	-7.473002e-001	-6.665265e-001
30935094.000	-7.473639e-001	-6.664140e-001
30941088.000	-7.474796e-001	-6.663113e-001
30947082.000	-7.475238e-001	-6.662169e-001
30953076.000	-7.476884e-001	-6.661359e-001
30959070.000	-7.477196e-001	-6.660189e-001
30965064.000	-7.477914e-001	-6.658491e-001
30971058.000	-7.478988e-001	-6.658369e-001
30977052.000	-7.479864e-001	-6.657549e-001
30983046.000	-7.480670e-001	-6.656586e-001
30989040.000	-7.481652e-001	-6.655346e-001
30995034.000	-7.482663e-001	-6.655029e-001
31001028.000	-7.483218e-001	-6.653549e-001
31007022.000	-7.483980e-001	-6.652348e-001
31013016.000	-7.484910e-001	-6.651682e-001
31019010.000	-7.485913e-001	-6.650417e-001
31025004.000	-7.487029e-001	-6.648551e-001
31030998.000	-7.487053e-001	-6.648707e-001
31036992.000	-7.488294e-001	-6.647536e-001
31042986.000	-7.489570e-001	-6.646663e-001
31048980.000	-7.489784e-001	-6.645913e-001
31054974.000	-7.490855e-001	-6.644539e-001
31060968.000	-7.491745e-001	-6.644033e-001
31066962.000	-7.492967e-001	-6.643050e-001
31072956.000	-7.493573e-001	-6.641646e-001
31078950.000	-7.493919e-001	-6.640826e-001
31084944.000	-7.495251e-001	-6.640127e-001
31090938.000	-7.495895e-001	-6.638827e-001
31096932.000	-7.496632e-001	-6.637961e-001
31102926.000	-7.497680e-001	-6.636794e-001
31108920.000	-7.498235e-001	-6.635773e-001
31114914.000	-7.499552e-001	-6.634839e-001
31120908.000	-7.500484e-001	-6.634102e-001
31126902.000	-7.500668e-001	-6.633032e-001
31132896.000	-7.501955e-001	-6.632113e-001
31138890.000	-7.502497e-001	-6.631109e-001
31144884.000	-7.503886e-001	-6.630029e-001
31150878.000	-7.504235e-001	-6.628973e-001
31156872.000	-7.505153e-001	-6.628411e-001
31162866.000	-7.506544e-001	-6.627364e-001
31168860.000	-7.506947e-001	-6.625902e-001
31174854.000	-7.508114e-001	-6.625504e-001
31180848.000	-7.508944e-001	-6.624549e-001
31186842.000	-7.509609e-001	-6.623928e-001
31192836.000	-7.510151e-001	-6.622905e-001
31198830.000	-7.511382e-001	-6.622235e-001
31204824.000	-7.511875e-001	-6.620681e-001
31210818.000	-7.512815e-001	-6.620071e-001
31216812.000	-7.513578e-001	-6.619011e-001
31222806.000	-7.514513e-001	-6.617718e-001
31228800.000	-7.515320e-001	-6.616749e-001
31234794.000	-7.516399e-001	-6.615624e-001
31240788.000	-7.517160e-001	-6.614963e-001
31246782.000	-7.517890e-001	-6.614090e-001
31252776.000	-7.518739e-001	-6.613461e-001
31258770.000	-7.519503e-001	-6.611999e-001
31264764.000	-7.520256e-001	-6.611319e-001
31270758.000	-7.521268e-001	-6.610021e-001
31276752.000	-7.521976e-001	-6.609145e-001
31282746.000	-7.522546e-001	-6.608457e-001
31288740.000	-7.523992e-001	-6.607288e-001
31294734.000	-7.524477e-001	-6.606196e-001
31300728.000	-7.525670e-001	-6.605101e-001
31306722.000	-7.526452e-001	-6.604222e-001
31312716.000	-7.526750e-001	-6.603092e-001
31318710.000	-7.527537e-001	-6.602439e-001
31324704.000	-7.528722e-001	-6.601845e-001
31330698.000	-7.529789e-001	-6.600356e-001
31336692.000	-7.530432e-001	-6.599368e-001
31342686.000	-7.530937e-001	-6.598601e-001
31348680.000	-7.531965e-001	-6.597642e-001
31354674.000	-7.532952e-001	-6.596522e-001
31360668.000	-7.533447e-001	-6.595700e-001
31366662.000	-7.534509e-001	-6.594852e-001
31372656.000	-7.535435e-001	-6.593619e-001
31378650.000	-7.536234e-001	-6.592812e-001
31384644.000	-7.537117e-001	-6.592196e-001
31390638.000	-7.537980e-001	-6.591039e-001
31396632.000	-7.539182e-001	-6.589980e-001
31402626.000	-7.540331e-001	-6.589910e-001
31408620.000	-7.541025e-001	-6.588834e-001
31414614.000	-7.541944e-001	-6.587700e-001
31420608.000	-7.542896e-001	-6.586848e-001
31426602.000	-7.543511e-001	-6.585749e-001
31432596.000	-7.544771e-001	-6.584930e-001
31438590.000	-7.545214e-001	-6.584719e-001
31444584.000	-7.545552e-001	-6.583206e-001
31450578.000	-7.546745e-001	-6.581965e-001
31456572.000	-7.547262e-001	-6.580870e-001
31462566.000	-7.548454e-001	-6.579812e-001
31468560.000	-7.549536e-001	-6.579213e-001
31474554.000	-7.550399e-001	-6.578795e-001
31480548.000	-7.550453e-001	-6.577397e-001
31486542.000	-7.551477e-001	-6.576276e-001
31492536.000	-7.552727e-001	-6.575413e-001
31498530.000	-7.553669e-001	-6.574352e-001
31504524.000	-7.554306e-001	-6.573438e-001
31510518.000	-7.555417e-001	-6.572677e-001
31516512.000	-7.556071e-001	-6.571445e-001
31522506.000	-7.557161e-001	-6.570623e-001
31528500.000	-7.557853e-001	-6.570003e-001
31534494.000	-7.558821e-001	-6.568741e-001
31540488.000	-7.559554e-001	-6.568297e-001
31546482.000	-7.560464e-001	-6.566797e-001
31552476.000	-7.560966e-001	-6.566161e-001
31558470.000	-7.561635e-001	-6.564993e-001
31564464.000	-7.562067e-001	-6.564240e-001
31570458.000	-7.563461e-001	-6.562935e-001
31576452.000	-7.564423e-001	-6.562487e-001
31582446.000	-7.565044e-001	-6.561401e-001
31588440.000	-7.565920e-001	-6.560421e-001
31594434.000	-7.567029e-001	-6.559868e-001
31600428.000	-7.567296e-001	-6.558449e-001
31606422.000	-7.568245e-001	-6.557939e-001
31612416.000	-7.569202e-001	-6.556580e-001
31618410.000	-7.569737e-001	-6.556111e-001
31624404.000	-7.570298e-001	-6.554195e-001
31630398.000	-7.571728e-001	-6.553442e-001
31636392.000	-7.572157e-001	-6.553010e-001
31642386.000	-7.572699e-001	-6.552044e-001
31648380.000	-7.573696e-001	-6.550921e-001
31654374.000	-7.574831e-001	-6.550366e-001
31660368.000	-7.575208e-001	-6.549231e-001
31666362.000	-7.576292e-001	-6.548196e-001
31672356.000	-7.577182e-001	-6.547423e-001
31678350.000	-7.578021e-001	-6.546329e-001
31684344.000	-7.578401e-001	-6.545566e-001
31690338.000	-7.579464e-001	-6.544259e-001
31696332.000	-7.580197e-001	-6.543297e-001
31702326.000	-7.580693e-001	-6.542387e-001
31708320.000	-7.581703e-001	-6.541861e-001
31714314.000	-7.582646e-001	-6.540533e-001
31720308.000	-7.583502e-001	-6.539080e-001
31726302.000	-7.583377e-001	-6.538377e-001
31732296.000	-7.585070e-001	-6.537604e-001
31738290.000	-7.586114e-001	-6.537067e-001
31744284.000	-7.586430e-001	-6.535681e-001
31750278.000	-7.587517e-001	-6.534394e-001
31756272.000	-7.588010e-001	-6.533945e-001
31762266.000	-7.588891e-001	-6.532922e-001
31768260.000	-7.589523e-001	-6.531401e-001
31774254.000	-7.590590e-001	-6.531092e-001
31780248.000	-7.591148e-001	-6.529862e-001
31786242.000	-7.592231e-001	-6.528794e-001
31792236.000	-7.593178e-001	-6.528855e-001
31798230.000	-7.593703e-001	-6.526783e-001
31804224.000	-7.594768e-001	-6.526150e-001
31810218.000	-7.595190e-001	-6.525014e-001
31816212.000	-7.596340e-001	-6.524391e-001
31822206.000	-7.597048e-001	-6.523513e-001
31828200.000	-7.598044e-001	-6.522823e-001
31834194.000	-7.598847e-001	-6.521809e-001
31840188.000	-7.599534e-001	-6.520299e-001
31846182.000	-7.600527e-001	-6.519599e-001
31852176.000	-7.601213e-001	-6.518695e-001
31858170.000	-7.601796e-001	-6.517667e-001
31864164.000	-7.602663e-001	-6.517238e-001
31870158.000	-7.603788e-001	-6.516337e-001
31876152.000	-7.603964e-001	-6.515169e-001
31882146.000	-7.605242e-001	-6.514297e-001
31888140.000	-7.606378e-001	-6.513445e-001
31894134.000	-7.606541e-001	-6.512372e-001
31900128.000	-7.607706e-001	-6.511418e-001
31906122.000	-7.608314e-001	-6.510537e-001
31912116.000	-7.609560e-001	-6.510214e-001
31918110.000	-7.610219e-001	-6.508787e-001
31924104.000	-7.611018e-001	-6.507302e-001
31930098.000	-7.611692e-001	-6.506906e-001
31936092.000	-7.611953e-001	-6.505590e-001
31942086.000	-7.613347e-001	-6.505066e-001
31948080.000	-7.613975e-001	-6.504016e-001
31954074.000	-7.614339e-001	-6.503136e-001
31960068.000	-7.615947e-001	-6.502171e-001
31966062.000	-7.616094e-001	-6.501107e-001
31972056.000	-7.616912e-001	-6.500474e-001
31978050.000	-7.618082e-001	-6.499635e-001
31984044.000	-7.618323e-001	-6.498457e-001
31990038.000	-7.619623e-001	-6.497715e-001
31996032.000	-7.620532e-001	-6.496717e-001
32002026.000	-7.621132e-001	-6.495114e-001
32008020.000	-7.621400e-001	-6.494546e-001
32014014.000	-7.622908e-001	-6.493929e-001
32020008.000	-7.623346e-001	-6.492563e-001
32026002.000	-7.623910e-001	-6.491800e-001
32031996.000	-7.625199e-001	-6.491004e-001
32037990.000	-7.625832e-001	-6.490040e-001
32043984.000	-7.626120e-001	-6.488893e-001
32049978.000	-7.627375e-001	-6.487970e-001
32055972.000	-7.628067e-001	-6.487098e-001
32061966.000	-7.628968e-001	-6.486245e-001
32067960.000	-7.629598e-001	-6.485184e-001
32073954.000	-7.630404e-001	-6.484866e-001
32079948.000	-7.630880e-001	-6.483241e-001
32085942.000	-7.632211e-001	-6.482791e-001
32091936.000	-7.632535e-001	-6.481505e-001
32097930.000	-7.633823e-001	-6.480608e-001
32103924.000	-7.634295e-001	-6.479892e-001
32109918.000	-7.635248e-001	-6.479732e-001
32115912.000	-7.636150e-001	-6.477788e-001
32121906.000	-7.636536e-001	-6.476768e-001
32127900.000	-7.637655e-001	-6.476556e-001
32133894.000	-7.638913e-001	-6.475304e-001
32139888.000	-7.639023e-001	-6.474304e-001
32145882.000	-7.640581e-001	-6.473378e-001
32151876.000	-7.640666e-001	-6.472612e-001
32157870.000	-7.641512e-001	-6.471278e-001
32163864.000	-7.642274e-001	-6.470807e-001
32169858.000	-7.643180e-001	-6.469864e-001
32175852.000	-7.643697e-001	-6.468787e-001
32181846.000	-7.644289e-001	-6.467953e-001
32187840.000	-7.645690e-001	-6.467406e-001
32193834.000	-7.646153e-001	-6.465837e-001
32199828.000	-7.647031e-001	-6.465117e-001
32205822.000	-7.647579e-001	-6.464027e-001
32211816.000	-7.648599e-001	-6.462949e-001
32217810.000	-7.649082e-001	-6.462753e-001
32223804.000	-7.649847e-001	-6.461615e-001
32229798.000	-7.650875e-001	-6.460341e-001
32235792.000	-7.651277e-001	-6.459252e-001
32241786.000	-7.651926e-001	-6.458366e-001
32247780.000	-7.652914e-001	-6.457423e-001
32253774.000	-7.654195e-001	-6.456771e-001
32259768.000	-7.654263e-001	-6.455701e-001
32265762.000	-7.655567e-001	-6.454933e-001
32271756.000	-7.656033e-001	-6.453783e-001
32277750.000	-7.656884e-001	-6.452752e-001
32283744.000	-7.657785e-001	-6.451624e-001
32289738.000	-7.658657e-001	-6.451434e-001
32295732.000	-7.659000e-001	-6.450220e-001
32301726.000	-7.660148e-001	-6.449051e-001
32307720.000	-7.660713e-001	-6.448497e-001
32313714.000	-7.661481e-001	-6.447514e-001
32319708.000	-7.662547e-001	-6.446738e-001
32325702.000	-7.663467e-001	-6.445870e-001
32331696.000	-7.664150e-001	-6.445002e-001
32337690.000	-7.664586e-001	-6.443890e-001
32343684.000	-7.665887e-001	-6.442810e-001
32349678.000	-7.666827e-001	-6.442135e-001
32355672.000	-7.667174e-001	-6.441414e-001
32361666.000	-7.667756e-001	-6.440331e-001
32367660.000	-7.668728e-001	-6.439292e-001
32373654.000	-7.669690e-001	-6.437993e-001
32379648.000	-7.670483e-001	-6.437723e-001
32385642.000	-7.670930e-001	-6.436756e-001
32391636.000	-7.671622e-001	-6.435590e-001
32397630.000	-7.672703e-001	-6.434870e-001
32403624.000	-7.673226e-001	-6.433335e-001
32409618.000	-7.674020e-001	-6.433656e-001
32415612.000	-7.674768e-001	-6.431580e-001
32421606.000	-7.676068e-001	-6.431182e-001
32427600.000	-7.675934e-001	-6.429951e-001
32433594.000	-7.677076e-001	-6.429378e-001
32439588.000	-7.677868e-001	-6.428457e-001
32445582.000	-7.678566e-001	-6.427269e-001
32451576.000	-7.679264e-001	-6.426476e-001
32457570.000	-7.679893e-001	-6.425325e-001
32463564.000	-7.680881e-001	-6.424481e-001
32469558.000	-7.681441e-001	-6.423466e-001
32475552.000	-7.681896e-001	-6.422656e-001
32481546.000	-7.683285e-001	-6.422084e-001
32487540.000	-7.683214e-001	-6.420833e-001
32493534.000	-7.684723e-001	-6.419656e-001
32499528.000	-7.685443e-001	-6.418970e-001
32505522.000	-7.686153e-001	-6.418156e-001
32511516.000	-7.686668e-001	-6.417007e-001
32517510.000	-7.687620e-001	-6.416087e-001
32523504.000	-7.688100e-001	-6.414997e-001
32529498.000	-7.689041e-001	-6.414183e-001
32535492.000	-7.689639e-001	-6.414030e-001
32541486.000	-7.690574e-001	-6.412857e-001
32547480.000	-7.691412e-001	-6.411654e-001
32553474.000	-7.692001e-001	-6.411077e-001
32559468.000	-7.692655e-001	-6.409829e-001
32565462.000	-7.694094e-001	-6.409111e-001
32571456.000	-7.694605e-001	-6.408324e-001
32577450.000	-7.695237e-001	-6.407449e-001
32583444.000	-7.696026e-001	-6.406327e-001
32589438.000	-7.696444e-001	-6.405484e-001
32595432.000	-7.697791e-001	-6.404637e-001
32601426.000	-7.698063e-001	-6.403913e-001
32607420.000	-7.698788e-001	-6.402767e-001
32613414.000	-7.700459e-001	-6.401593e-001
32619408.000	-7.700792e-001	-6.401381e-001
32625402.000	-7.701678e-001	-6.400531e-001
32631396.000	-7.702067e-001	-6.399265e-001
32637390.000	-7.702536e-001	-6.398258e-001
32643384.000	-7.703976e-001	-6.396999e-001
32649378.000	-7.704687e-001	-6.396433e-001
32655372.000	-7.705472e-001	-6.395383e-001
32661366.000	-7.706156e-001	-6.395055e-001
32667360.000	-7.706522e-001	-6.393606e-001
32673354.000	-7.707377e-001	-6.393091e-001
32679348.000	-7.708137e-001	-6.391271e-001
32685342.000	-7.708591e-001	-6.390999e-001
32691336.000	-7.709775e-001	-6.390187e-001
32697330.000	-7.709788e-001	-6.388735e-001
32703324.000	-7.710884e-001	-6.388064e-001
32709318.000	-7.711477e-001	-6.387447e-001
32715312.000	-7.712822e-001	-6.386362e-001
32721306.000	-7.712979e-001	-6.385794e-001
32727300.000	-7.714225e-001	-6.384690e-001
32733294.000	-7.714622e-001	-6.383592e-001
32739288.000	-7.715522e-001	-6.383126e-001
32745282.000	-7.716610e-001	-6.381993e-001
32751276.000	-7.716952e-001	-6.381056e-001
32757270.000	-7.717184e-001	-6.380400e-001
32763264.000	-7.717920e-001	-6.378350e-001
32769258.000	-7.718858e-001	-6.377485e-001
32775252.000	-7.719974e-001	-6.377482e-001
32781246.000	-7.719944e-001	-6.376760e-001
32787240.000	-7.721310e-001	-6.375531e-001
32793234.000	-7.721839e-001	-6.374129e-001
32799228.000	-7.722703e-001	-6.373783e-001
32805222.000	-7.723431e-001	-6.372867e-001
32811216.000	-7.724193e-001	-6.372101e-001
32817210.000	-7.725302e-001	-6.371222e-001
32823204.000	-7.725890e-001	-6.369996e-001
32829198.000	-7.726429e-001	-6.369087e-001
32835192.000	-7.727397e-001	-6.368088e-001
32841186.000	-7.727609e-001	-6.367607e-001
32847180.000	-7.729180e-001	-6.366654e-001
32853174.000	-7.729944e-001	-6.366081e-001
32859168.000	-7.730066e-001	-6.365279e-001
32865162.000	-7.731316e-001	-6.364096e-001
32871156.000	-7.731817e-001	-6.363482e-001
32877150.000	-7.732187e-001	-6.361807e-001
32883144.000	-7.733473e-001	-6.361066e-001
32889138.000	-7.733183e-001	-6.360087e-001
32895132.000	-7.734261e-001	-6.359368e-001
32901126.000	-7.734940e-001	-6.358542e-001
32907120.000	-7.735965e-001	-6.357726e-001
32913114.000	-7.736547e-001	-6.356709e-001
32919108.000	-7.737571e-001	-6.355974e-001
32925102.000	-7.738709e-001	-6.355319e-001
32931096.000	-7.739215e-001	-6.353838e-001
32937090.000	-7.739934e-001	-6.353439e-001
32943084.000	-7.740491e-001	-6.352375e-001
32949078.000	-7.740877e-001	-6.351906e-001
32955072.000	-7.741685e-001	-6.350216e-001
32961066.000	-7.742976e-001	-6.349493e-001
32967060.000	-7.743404e-001	-6.348849e-001
32973054.000	-7.744238e-001	-6.347804e-001
32979048.000	-7.745120e-001	-6.346778e-001
32985042.000	-7.745369e-001	-6.345957e-001
32991036.000	-7.746515e-001	-6.344520e-001
32997030.000	-7.747247e-001	-6.344273e-001
33003024.000	-7.748196e-001	-6.343462e-001
33009018.000	-7.748266e-001	-6.342439e-001
33015012.000	-7.748950e-001	-6.341659e-001
33021006.000	-7.749843e-001	-6.340417e-001
33027000.000	-7.750828e-001	-6.339681e-001
33032994.000	-7.751502e-001	-6.338880e-001
33038988.000	-7.752441e-001	-6.337673e-001
33044982.000	-7.753174e-001	-6.336847e-001
33050976.000	-7.753620e-001	-6.335722e-001
33056970.000	-7.754018e-001	-6.334986e-001
33062964.000	-7.754921e-001	-6.333908e-001
33068958.000	-7.755584e-001	-6.333297e-001
33074952.000	-7.756910e-001	-6.332583e-001
33080946.000	-7.757083e-001	-6.331376e-001
33086940.000	-7.757882e-001	-6.330671e-001
33092934.000	-7.758297e-001	-6.329613e-001
33098928.000	-7.759620e-001	-6.328846e-001
33104922.000	-7.760025e-001	-6.328242e-001
33110916.000	-7.760814e-001	-6.326940e-001
33116910.000	-7.761476e-001	-6.325903e-001
33122904.000	-7.762477e-001	-6.325552e-001
33128898.000	-7.763006e-001	-6.324226e-001
33134892.000	-7.763561e-001	-6.323347e-001
33140886.000	-7.764288e-001	-6.322634e-001
33146880.000	-7.765243e-001	-6.321377e-001
33152874.000	-7.765653e-001	-6.320770e-001
33158868.000	-7.766654e-001	-6.319869e-001
33164862.000	-7.767011e-001	-6.318743e-001
33170856.000	-7.767591e-001	-6.318107e-001
33176850.000	-7.768640e-001	-6.317581e-001
33182844.000	-7.769638e-001	-6.316370e-001
33188838.000	-7.769949e-001	-6.315802e-001
33194832.000	-7.771165e-001	-6.314488e-001
33200826.000	-7.771751e-001	-6.313854e-001
33206820.000	-7.772559e-001	-6.312801e-001
33212814.000	-7.773024e-001	-6.312351e-001
33218808.000	-7.773785e-001	-6.310891e-001
33224802.000	-7.774512e-001	-6.310238e-001
33230796.000	-7.775091e-001	-6.308973e-001
33236790.000	-7.775761e-001	-6.307922e-001
33242784.000	-7.776116e-001	-6.307425e-001
33248778.000	-7.777136e-001	-6.306771e-001
33254772.000	-7.777903e-001	-6.305502e-001
33260766.000	-7.778880e-001	-6.304925e-001
33266760.000	-7.779258e-001	-6.303812e-001
33272754.000	-7.780454e-001	-6.303013e-001
33278748.000	-7.780985e-001	-6.302312e-001
33284742.000	-7.781271e-001	-6.300926e-001
33290736.000	-7.782244e-001	-6.300457e-001
33296730.000	-7.783158e-001	-6.299655e-001
33302724.000	-7.783969e-001	-6.298715e-001
33308718.000	-7.784130e-001	-6.297781e-001
33314712.000	-7.785096e-001	-6.296845e-001
33320706.000	-7.785808e-001	-6.296107e-001
33326700.000	-7.787093e-001	-6.295367e-001
33332694.000	-7.787547e-001	-6.294302e-001
33338688.000	-7.787855e-001	-6.293726e-001
33344682.000	-7.788644e-001	-6.292480e-001
33350676.000	-7.789558e-001	-6.291660e-001
33356670.000	-7.790213e-001	-6.290691e-001
33362664.000	-7.790865e-001	-6.290064e-001
33368658.000	-7.791750e-001	-6.288845e-001
33374652.000	-7.792590e-001	-6.288079e-001
33380646.000	-7.793124e-001	-6.287469e-001
33386640.000	-7.793539e-001	-6.286212e-001
33392634.000	-7.794321e-001	-6.285693e-001
33398628.000	-7.794943e-001	-6.284365e-001
33404622.000	-7.795535e-001	-6.283800e-001
33410616.000	-7.796570e-001	-6.282659e-001
33416610.000	-7.797094e-001	-6.282349e-001
33422604.000	-7.797814e-001	-6.280483e-001
33428598.000	-7.798757e-001	-6.280156e-001
33434592.000	-7.799579e-001	-6.279134e-001
33440586.000	-7.800098e-001	-6.278159e-001
33446580.000	-7.800847e-001	-6.276995e-001
33452574.000	-7.801201e-001	-6.276462e-001
33458568.000	-7.802000e-001	-6.275805e-001
33464562.000	-7.803087e-001	-6.274707e-001
33470556.000	-7.803569e-001	-6.273676e-001
33476550.000	-7.803947e-001	-6.272853e-001
33482544.000	-7.804636e-001	-6.272345e-001
33488538.000	-7.805577e-001	-6.271170e-001
33494532.000	-7.806022e-001	-6.269654e-001
33500526.000	-7.806852e-001	-6.269686e-001
33506520.000	-7.807962e-001	-6.268761e-001
33512514.000	-7.808732e-001	-6.267794e-001
33518508.000	-7.809075e-001	-6.267030e-001
33524502.000	-7.809856e-001	-6.265801e-001
33530496.000	-7.810728e-001	-6.264952e-001
33536490.000	-7.810996e-001	-6.264159e-001
33542484.000	-7.811424e-001	-6.263035e-001
33548478.000	-7.813198e-001	-6.262082e-001
33554472.000	-7.813291e-001	-6.261236e-001
33560466.000	-7.813701e-001	-6.260114e-001
33566460.000	-7.815186e-001	-6.259713e-001
33572454.000	-7.815134e-001	-6.258540e-001
33578448.000	-7.816163e-001	-6.257679e-001
33584442.000	-7.816892e-001	-6.256696e-001
33590436.000	-7.817680e-001	-6.256141e-001
33596430.000	-7.817901e-001	-6.255380e-001
33602424.000	-7.818590e-001	-6.254447e-001
33608418.000	-7.819560e-001	-6.253466e-001
33614412.000	-7.820226e-001	-6.252459e-001
33620406.000	-7.820772e-001	-6.251539e-001
33626400.000	-7.821938e-001	-6.251348e-001
33632394.000	-7.822066e-001	-6.249760e-001
33638388.000	-7.822945e-001	-6.249100e-001
33644382.000	-7.823623e-001	-6.248231e-001
33650376.000	-7.824549e-001	-6.247371e-001
33656370.000	-7.824931e-001	-6.246539e-001
33662364.000	-7.825641e-001	-6.245113e-001
33668358.000	-7.826151e-001	-6.244672e-001
33674352.000	-7.827242e-001	-6.244026e-001
33680346.000	-7.827789e-001	-6.242646e-001
33686340.000	-7.828497e-001	-6.241934e-001
33692334.000	-7.828942e-001	-6.241141e-001
33698328.000	-7.829628e-001	-6.240421e-001
33704322.000	-7.830696e-001	-6.239361e-001
33710316.000	-7.830738e-001	-6.238824e-001
33716310.000	-7.832411e-001	-6.237666e-001
33722304.000	-7.832771e-001	-6.236908e-001
33728298.000	-7.833404e-001	-6.236058e-001
33734292.000	-7.834103e-001	-6.235396e-001
33740286.000	-7.834430e-001	-6.234261e-001
33746280.000	-7.835785e-001	-6.233462e-001
33752274.000	-7.836244e-001	-6.233086e-001
33758268.000	-7.836667e-001	-6.231759e-001
33764262.000	-7.837495e-001	-6.230327e-001
33770256.000	-7.838333e-001	-6.229932e-001
33776250.000	-7.838704e-001	-6.229003e-001
33782244.000	-7.839752e-001	-6.228292e-001
33788238.000	-7.840321e-001	-6.227206e-001
33794232.000	-7.840580e-001	-6.226648e-001
33800226.000	-7.841133e-001	-6.225657e-001
33806220.000	-7.842353e-001	-6.224803e-001
33812214.000	-7.842999e-001	-6.223632e-001
33818208.000	-7.843578e-001	-6.223163e-001
33824202.000	-7.844522e-001	-6.222023e-001
33830196.000	-7.844842e-001	-6.221197e-001
33836190.000	-7.845726e-001	-6.220373e-001
33842184.000	-7.845938e-001	-6.219771e-001
33848178.000	-7.847657e-001	-6.218599e-001
33854172.000	-7.848020e-001	-6.218424e-001
33860166.000	-7.848339e-001	-6.217161e-001
33866160.000	-7.849149e-001	-6.216042e-001
33872154.000	-7.849718e-001	-6.215109e-001
33878148.000	-7.850706e-001	-6.213981e-001
33884142.000	-7.851105e-001	-6.213321e-001
33890136.000	-7.851774e-001	-6.212747e-001
33896130.000	-7.852796e-001	-6.211721e-001
33902124.000	-7.853822e-001	-6.210947e-001
33908118.000	-7.854255e-001	-6.209673e-001
33914112.000	-7.855261e-001	-6.209059e-001
33920106.000	-7.855490e-001	-6.207822e-001
33926100.000	-7.856364e-001	-6.206880e-001
33932094.000	-7.856879e-001	-6.206366e-001
33938088.000	-7.857150e-001	-6.205481e-001
33944082.000	-7.858274e-001	-6.204580e-001
33950076.000	-7.859388e-001	-6.203348e-001
33956070.000	-7.859049e-001	-6.203519e-001
33962064.000	-7.860729e-001	-6.202520e-001
33968058.000	-7.861120e-001	-6.201180e-001
33974052.000	-7.861595e-001	-6.200643e-001
33980046.000	-7.862546e-001	-6.199239e-001
33986040.000	-7.863017e-001	-6.198660e-001
33992034.000	-7.863881e-001	-6.197571e-001
33998028.000	-7.864420e-001	-6.197305e-001
34004022.000	-7.865402e-001	-6.195626e-001
34010016.000	-7.865538e-001	-6.194999e-001
34016010.000	-7.866229e-001	-6.194072e-001
34022004.000	-7.866487e-001	-6.192817e-001
34027998.000	-7.867743e-001	-6.192764e-001
34033992.000	-7.868542e-001	-6.191423e-001
34039986.000	-7.869001e-001	-6.191203e-001
34045980.000	-7.869770e-001	-6.190134e-001
34051974.000	-7.869962e-001	-6.188271e-001
34057968.000	-7.870939e-001	-6.188096e-001
34063962.000	-7.871280e-001	-6.187516e-001
34069956.000	-7.872077e-001	-6.185814e-001
34075950.000	-7.873097e-001	-6.185169e-001
34081944.000	-7.873918e-001	-6.184549e-001
34087938.000	-7.874605e-001	-6.184255e-001
34093932.000	-7.874966e-001	-6.182305e-001
34099926.000	-7.875861e-001	-6.181656e-001
34105920.000	-7.876403e-001	-6.181139e-001
34111914.000	-7.877343e-001	-6.180599e-001
34117908.000	-7.877284e-001	-6.179780e-001
34123902.000	-7.878463e-001	-6.178923e-001
34129896.000	-7.879077e-001	-6.178183e-001
34135890.000	-7.879992e-001	-6.177058e-001
34141884.000	-7.880227e-001	-6.176203e-001
34147878.000	-7.880938e-001	-6.175085e-001
34153872.000	-7.881449e-001	-6.174255e-001
34159866.000	-7.882199e-001	-6.173398e-001
34165860.000	-7.883347e-001	-6.172890e-001
34171854.000	-7.883875e-001	-6.171543e-001
34177848.000	-7.884429e-001	-6.170692e-001
34183842.000	-7.885230e-001	-6.169957e-001
34189836.000	-7.885906e-001	-6.169555e-001
34195830.000	-7.886932e-001	-6.168414e-001
34201824.000	-7.887235e-001	-6.167390e-001
34207818.000	-7.887277e-001	-6.166410e-001
34213812.000	-7.888283e-001	-6.165789e-001
34219806.000	-7.889109e-001	-6.164898e-001
34225800.000	-7.889547e-001	-6.163978e-001
34231794.000	-7.890089e-001	-6.163288e-001
34237788.000	-7.891377e-001	-6.162604e-001
34243782.000	-7.891720e-001	-6.161216e-001
34249776.000	-7.892352e-001	-6.160015e-001
34255770.000	-7.893531e-001	-6.160005e-001
34261764.000	-7.894059e-001	-6.159490e-001
34267758.000	-7.894415e-001	-6.158265e-001
34273752.000	-7.895510e-001	-6.157199e-001
34279746.000	-7.896252e-001	-6.156846e-001
34285740.000	-7.896930e-001	-6.155885e-001
34291734.000	-7.897104e-001	-6.155127e-001
34297728.000	-7.898394e-001	-6.154314e-001
34303722.000	-7.898567e-001	-6.153201e-001
34309716.000	-7.898910e-001	-6.152581e-001
34315710.000	-7.899809e-001	-6.151411e-001
34321704.000	-7.900664e-001	-6.150835e-001
34327698.000	-7.901736e-001	-6.149664e-001
34333692.000	-7.902030e-001	-6.149442e-001
34339686.000	-7.902681e-001	-6.148361e-001
34345680.000	-7.902427e-001	-6.147167e-001
34351674.000	-7.903510e-001	-6.146406e-001
34357668.000	-7.905262e-001	-6.145548e-001
34363662.000	-7.905230e-001	-6.144640e-001
34369656.000	-7.906114e-001	-6.143622e-001
34375650.000	-7.906541e-001	-6.143265e-001
34381644.000	-7.907259e-001	-6.141998e-001
34387638.000	-7.907914e-001	-6.141076e-001
34393632.000	-7.908281e-001	-6.140133e-001
34399626.000	-7.908524e-001	-6.139013e-001
34405620.000	-7.909361e-001	-6.138980e-001
34411614.000	-7.909788e-001	-6.137593e-001
34417608.000	-7.910545e-001	-6.136483e-001
34423602.000	-7.911077e-001	-6.135633e-001
34429596.000	-7.912062e-001	-6.134830e-001
34435590.000	-7.912837e-001	-6.134364e-001
34441584.000	-7.913189e-001	-6.133299e-001
34447578.000	-7.914197e-001	-6.132968e-001
34453572.000	-7.914306e-001	-6.131468e-001
34459566.000	-7.915296e-001	-6.131241e-001
34465560.000	-7.916051e-001	-6.129548e-001
34471554.000	-7.916763e-001	-6.129265e-001
34477548.000	-7.917560e-001	-6.128307e-001
34483542.000	-7.917830e-001	-6.127221e-001
34489536.000	-7.918718e-001	-6.126954e-001
34495530.000	-7.919643e-001	-6.125342e-001
34501524.000	-7.920048e-001	-6.125494e-001
34507518.000	-7.921008e-001	-6.124567e-001
34513512.000	-7.921216e-001	-6.123159e-001
34519506.000	-7.922281e-001	-6.122226e-001
34525500.000	-7.922761e-001	-6.122071e-001
34531494.000	-7.923518e-001	-6.120686e-001
34537488.000	-7.923961e-001	-6.119767e-001
34543482.000	-7.924478e-001	-6.118827e-001
34549476.000	-7.925206e-001	-6.118463e-001
34555470.000	-7.925976e-001	-6.117493e-001
34561464.000	-7.926100e-001	-6.116003e-001
34567458.000	-7.926926e-001	-6.115611e-001
34573452.000	-7.927528e-001	-6.114824e-001
34579446.000	-7.928487e-001	-6.114106e-001
34585440.000	-7.929017e-001	-6.112896e-001
34591434.000	-7.929273e-001	-6.112013e-001
34597428.000	-7.930353e-001	-6.111164e-001
34603422.000	-7.930739e-001	-6.109922e-001
34609416.000	-7.931268e-001	-6.109268e-001
34615410.000	-7.931802e-001	-6.108541e-001
34621404.000	-7.932818e-001	-6.107897e-001
34627398.000	-7.933661e-001	-6.106799e-001
34633392.000	-7.933974e-001	-6.106318e-001
34639386.000	-7.934690e-001	-6.105143e-001
34645380.000	-7.935695e-001	-6.105082e-001
34651374.000	-7.935810e-001	-6.103244e-001
34657368.000	-7.937006e-001	-6.102809e-001
34663362.000	-7.937081e-001	-6.101910e-001
34669356.000	-7.937779e-001	-6.101048e-001
34675350.000	-7.938986e-001	-6.100029e-001
34681344.000	-7.938856e-001	-6.099302e-001
34687338.000	-7.939685e-001	-6.098828e-001
34693332.000	-7.940663e-001	-6.098108e-001
34699326.000	-7.941555e-001	-6.096601e-001
34705320.000	-7.942107e-001	-6.096322e-001
34711314.000	-7.942411e-001	-6.095408e-001
34717308.000	-7.943146e-001	-6.094670e-001
34723302.000	-7.943787e-001	-6.093585e-001
34729296.000	-7.944386e-001	-6.092732e-001
34735290.000	-7.945263e-001	-6.092361e-001
34741284.000	-7.945844e-001	-6.091073e-001
34747278.000	-7.946495e-001	-6.090412e-001
34753272.000	-7.946966e-001	-6.089423e-001
34759266.000	-7.947990e-001	-6.088999e-001
34765260.000	-7.948225e-001	-6.087458e-001
34771254.000	-7.948603e-001	-6.086764e-001
34777248.000	-7.949398e-001	-6.086715e-001
34783242.000	-7.949787e-001	-6.085250e-001
34789236.000	-7.951078e-001	-6.084475e-001
34795230.000	-7.951779e-001	-6.084140e-001
34801224.000	-7.952165e-001	-6.083004e-001
34807218.000	-7.952435e-001	-6.081991e-001
34813212.000	-7.953681e-001	-6.081286e-001
34819206.000	-7.953980e-001	-6.080349e-001
34825200.000	-7.954491e-001	-6.079374e-001
34831194.000	-7.955748e-001	-6.079019e-001
34837188.000	-7.956068e-001	-6.077874e-001
34843182.000	-7.957295e-001	-6.077300e-001
34849176.000	-7.957243e-001	-6.076015e-001
34855170.000	-7.957997e-001	-6.075590e-001
34861164.000	-7.958710e-001	-6.074882e-001
34867158.000	-7.959522e-001	-6.074197e-001
34873152.000	-7.960039e-001	-6.073111e-001
34879146.000	-7.960793e-001	-6.072185e-001
34885140.000	-7.961489e-001	-6.071179e-001
34891134.000	-7.961495e-001	-6.069882e-001
34897128.000	-7.962299e-001	-6.069770e-001
34903122.000	-7.962828e-001	-6.068482e-001
34909116.000	-7.963809e-001	-6.067681e-001
34915110.000	-7.963928e-001	-6.066916e-001
34921104.000	-7.965252e-001	-6.066338e-001
34927098.000	-7.965392e-001	-6.065606e-001
34933092.000	-7.965928e-001	-6.063985e-001
34939086.000	-7.966912e-001	-6.063687e-001
34945080.000	-7.967316e-001	-6.062408e-001
34951074.000	-7.967713e-001	-6.062102e-001
34957068.000	-7.968700e-001	-6.061020e-001
34963062.000	-7.968918e-001	-6.060175e-001
34969056.000	-7.969770e-001	-6.059493e-001
34975050.000	-7.970197e-001	-6.058200e-001
34981044.000	-7.971002e-001	-6.057851e-001
34987038.000	-7.971554e-001	-6.056713e-001
34993032.000	-7.972623e-001	-6.056087e-001
34999026.000	-7.973002e-001	-6.055088e-001
35005020.000	-7.973847e-001	-6.053959e-001
35011014.000	-7.974224e-001	-6.053681e-001
35017008.000	-7.974330e-001	-6.052811e-001
35023002.000	-7.975154e-001	-6.052035e-001
35028996.000	-7.975617e-001	-6.051389e-001
35034990.000	-7.976748e-001	-6.049907e-001
35040984.000	-7.977560e-001	-6.049646e-001
35046978.000	-7.977636e-001	-6.048259e-001
35052972.000	-7.978381e-001	-6.047509e-001
35058966.000	-7.978597e-001	-6.046608e-001
35064960.000	-7.979782e-001	-6.045877e-001
35070954.000	-7.980382e-001	-6.045147e-001
35076948.000	-7.981255e-001	-6.044781e-001
35082942.000	-7.981737e-001	-6.043740e-001
35088936.000	-7.981850e-001	-6.042272e-001
35094930.000	-7.983254e-001	-6.041973e-001
35100924.000	-7.983621e-001	-6.041196e-001
35106918.000	-7.983965e-001	-6.040115e-001
35112912.000	-7.984796e-001	-6.039735e-001
35118906.000	-7.985667e-001	-6.039106e-001
35124900.000	-7.986148e-001	-6.037236e-001
35130894.000	-7.986789e-001	-6.036169e-001
35136888.000	-7.987039e-001	-6.036014e-001
35142882.000	-7.987482e-001	-6.035340e-001
35148876.000	-7.988696e-001	-6.034390e-001
35154870.000	-7.989225e-001	-6.033189e-001
35160864.000	-7.989705e-001	-6.032819e-001
35166858.000	-7.990482e-001	-6.032467e-001
35172852.000	-7.990238e-001	-6.031413e-001
35178846.000	-7.991451e-001	-6.029858e-001
35184840.000	-7.992441e-001	-6.029469e-001
35190834.000	-7.992998e-001	-6.029100e-001
35196828.000	-7.993556e-001	-6.027988e-001
35202822.000	-7.994527e-001	-6.027157e-001
35208816.000	-7.995263e-001	-6.026615e-001
35214810.000	-7.995825e-001	-6.025750e-001
35220804.000	-7.995953e-001	-6.024720e-001
35226798.000	-7.996520e-001	-6.023567e-001
35232792.000	-7.997108e-001	-6.022804e-001
35238786.000	-7.997942e-001	-6.022241e-001
35244780.000	-7.998573e-001	-6.021306e-001
35250774.000	-7.998944e-001	-6.020658e-001
35256768.000	-7.999939e-001	-6.019759e-001
35262762.000	-8.000493e-001	-6.019357e-001
35268756.000	-8.001053e-001	-6.018113e-001
35274750.000	-8.001620e-001	-6.017621e-001
35280744.000	-8.002044e-001	-6.016461e-001
35286738.000	-8.002851e-001	-6.015996e-001
35292732.000	-8.003383e-001	-6.014993e-001
35298726.000	-8.004458e-001	-6.013835e-001
35304720.000	-8.005127e-001	-6.013522e-001
35310714.000	-8.005837e-001	-6.012220e-001
35316708.000	-8.005911e-001	-6.011664e-001
35322702.000	-8.006791e-001	-6.011307e-001
35328696.000	-8.007089e-001	-6.010205e-001
35334690.000	-8.007837e-001	-6.009260e-001
35340684.000	-8.008471e-001	-6.008675e-001
35346678.000	-8.009207e-001	-6.007148e-001
35352672.000	-8.009431e-001	-6.006650e-001
35358666.000	-8.009835e-001	-6.005233e-001
35364660.000	-8.011050e-001	-6.005065e-001
35370654.000	-8.011135e-001	-6.004112e-001
35376648.000	-8.011975e-001	-6.003308e-001
35382642.000	-8.012569e-001	-6.002262e-001
35388636.000	-8.013204e-001	-6.001447e-001
35394630.000	-8.013791e-001	-6.000774e-001
35400624.000	-8.014667e-001	-5.999847e-001
35406618.000	-8.014534e-001	-5.999370e-001
35412612.000	-8.015945e-001	-5.998429e-001
35418606.000	-8.016364e-001	-5.997030e-001
35424600.000	-8.016776e-001	-5.996808e-001
35430594.000	-8.016857e-001	-5.996134e-001
35436588.000	-8.018311e-001	-5.994727e-001
35442582.000	-8.018485e-001	-5.993999e-001
35448576.000	-8.019525e-001	-5.993808e-001
35454570.000	-8.020234e-001	-5.992675e-001
35460564.000	-8.021449e-001	-5.991718e-001
35466558.000	-8.021168e-001	-5.991078e-001
35472552.000	-8.022003e-001	-5.990913e-001
35478546.000	-8.022683e-001	-5.989707e-001
35484540.000	-8.022922e-001	-5.988695e-001
35490534.000	-8.023894e-001	-5.988196e-001
35496528.000	-8.024220e-001	-5.987233e-001
35502522.000	-8.024325e-001	-5.985785e-001
35508516.000	-8.025310e-001	-5.985557e-001
35514510.000	-8.026375e-001	-5.984909e-001
35520504.000	-8.027169e-001	-5.983984e-001
35526498.000	-8.027185e-001	-5.983211e-001
35532492.000	-8.028017e-001	-5.982208e-001
35538486.000	-8.028326e-001	-5.981271e-001
35544480.000	-8.028755e-001	-5.980635e-001
35550474.000	-8.029269e-001	-5.979571e-001
35556468.000	-8.030472e-001	-5.978855e-001
35562462.000	-8.030640e-001	-5.977776e-001
35568456.000	-8.031545e-001	-5.977469e-001
35574450.000	-8.031884e-001	-5.976982e-001
35580444.000	-8.033192e-001	-5.975605e-001
35586438.000	-8.033169e-001	-5.975429e-001
35592432.000	-8.033596e-001	-5.973778e-001
35598426.000	-8.034576e-001	-5.973399e-001
35604420.000	-8.035572e-001	-5.972506e-001
35610414.000	-8.035822e-001	-5.971522e-001
35616408.000	-8.036341e-001	-5.970652e-001
35622402.000	-8.037274e-001	-5.970270e-001
35628396.000	-8.037769e-001	-5.969780e-001
35634390.000	-8.037821e-001	-5.967880e-001
35640384.000	-8.039022e-001	-5.967433e-001
35646378.000	-8.038958e-001	-5.966488e-001
35652372.000	-8.039779e-001	-5.966043e-001
35658366.000	-8.040384e-001	-5.964930e-001
35664360.000	-8.041078e-001	-5.964416e-001
35670354.000	-8.041710e-001	-5.963553e-001
35676348.000	-8.041934e-001	-5.962518e-001
35682342.000	-8.042628e-001	-5.961404e-001
35688336.000	-8.043535e-001	-5.961023e-001
35694330.000	-8.043439e-001	-5.960259e-001
35700324.000	-8.044754e-001	-5.959851e-001
35706318.000	-8.045396e-001	-5.958764e-001
35712312.000	-8.046040e-001	-5.957872e-001
35718306.000	-8.046296e-001	-5.957543e-001
35724300.000	-8.047000e-001	-5.956261e-001
35730294.000	-8.047569e-001	-5.955567e-001
35736288.000	-8.048309e-001	-5.954517e-001
35742282.000	-8.048865e-001	-5.954096e-001
35748276.000	-8.049707e-001	-5.953325e-001
35754270.000	-8.049778e-001	-5.952111e-001
35760264.000	-8.050856e-001	-5.951306e-001
35766258.000	-8.051363e-001	-5.950721e-001
35772252.000	-8.051768e-001	-5.949799e-001
35778246.000	-8.051650e-001	-5.948883e-001
35784240.000	-8.052980e-001	-5.948188e-001
35790234.000	-8.053132e-001	-5.947074e-001
35796228.000	-8.053837e-001	-5.946331e-001
35802222.000	-8.054429e-001	-5.945476e-001
35808216.000	-8.055227e-001	-5.944446e-001
35814210.000	-8.055447e-001	-5.943768e-001
35820204.000	-8.056580e-001	-5.943251e-001
35826198.000	-8.056465e-001	-5.941907e-001
35832192.000	-8.057180e-001	-5.941528e-001
35838186.000	-8.058102e-001	-5.940737e-001
35844180.000	-8.058388e-001	-5.940089e-001
35850174.000	-8.059391e-001	-5.938715e-001
35856168.000	-8.059667e-001	-5.938680e-001
35862162.000	-8.060578e-001	-5.937533e-001
35868156.000	-8.061139e-001	-5.936753e-001
35874150.000	-8.061902e-001	-5.935538e-001
35880144.000	-8.062093e-001	-5.935467e-001
35886138.000	-8.062846e-001	-5.934291e-001
35892132.000	-8.063268e-001	-5.933728e-001
35898126.000	-8.063718e-001	-5.932610e-001
35904120.000	-8.064143e-001	-5.931529e-001
35910114.000	-8.065093e-001	-5.930770e-001
35916108.000	-8.065659e-001	-5.930615e-001
35922102.000	-8.066228e-001	-5.929416e-001
35928096.000	-8.066822e-001	-5.928738e-001
35934090.000	-8.067373e-001	-5.927852e-001
35940084.000	-8.067691e-001	-5.926894e-001
35946078.000	-8.068771e-001	-5.926754e-001
35952072.000	-8.068882e-001	-5.925691e-001
35958066.000	-8.070091e-001	-5.924205e-001
35964060.000	-8.070635e-001	-5.923761e-001
35970054.000	-8.071239e-001	-5.923275e-001
35976048.000	-8.071582e-001	-5.921870e-001
35982042.000	-8.072360e-001	-5.921261e-001
35988036.000	-8.072669e-001	-5.920837e-001
35994030.000	-8.073334e-001	-5.919606e-001
36000024.000	-8.073579e-001	-5.919413e-001
36006018.000	-8.074592e-001	-5.918325e-001
36012012.000	-8.074923e-001	-5.917484e-001
36018006.000	-8.075443e-001	-5.917141e-001
36024000.000	-8.076520e-001	-5.916049e-001
36029994.000	-8.076432e-001	-5.915283e-001
36035988.000	-8.077270e-001	-5.913868e-001
36041982.000	-8.077494e-001	-5.913528e-001
36047976.000	-8.078942e-001	-5.912665e-001
36053970.000	-8.079123e-001	-5.912163e-001
36059964.000	-8.080060e-001	-5.911598e-001
36065958.000	-8.080386e-001	-5.910500e-001
36071952.000	-8.081326e-001	-5.909234e-001
36077946.000	-8.081313e-001	-5.908861e-001
36083940.000	-8.082176e-001	-5.907783e-001
36089934.000	-8.081934e-001	-5.906837e-001
36095928.000	-8.082950e-001	-5.905909e-001
36101922.000	-8.084059e-001	-5.905696e-001
36107916.000	-8.084393e-001	-5.904825e-001
36113910.000	-8.084808e-001	-5.903271e-001
36119904.000	-8.085494e-001	-5.903321e-001
36125898.000	-8.086069e-001	-5.902418e-001
36131892.000	-8.086528e-001	-5.901462e-001
36137886.000	-8.087265e-001	-5.900786e-001
36143880.000	-8.087545e-001	-5.899825e-001
36149874.000	-8.088215e-001	-5.899152e-001
36155868.000	-8.089080e-001	-5.898323e-001
36161862.000	-8.089515e-001	-5.897098e-001
36167856.000	-8.090092e-001	-5.896782e-001
36173850.000	-8.091111e-001	-5.896060e-001
36179844.000	-8.091865e-001	-5.895421e-001
36185838.000	-8.092378e-001	-5.894871e-001
36191832.000	-8.092311e-001	-5.893732e-001
36197826.000	-8.093232e-001	-5.892760e-001
36203820.000	-8.093733e-001	-5.892178e-001
36209814.000	-8.094366e-001	-5.891158e-001
36215808.000	-8.094395e-001	-5.890244e-001
36221802.000	-8.095126e-001	-5.889775e-001
36227796.000	-8.095858e-001	-5.888929e-001
36233790.000	-8.096483e-001	-5.887962e-001
36239784.000	-8.097162e-001	-5.887193e-001
36245778.000	-8.097256e-001	-5.886572e-001
36251772.000	-8.098089e-001	-5.885434e-001
36257766.000	-8.099047e-001	-5.884329e-001
36263760.000	-8.099040e-001	-5.883381e-001
36269754.000	-8.100423e-001	-5.883213e-001
36275748.000	-8.100341e-001	-5.882113e-001
36281742.000	-8.101174e-001	-5.881867e-001
36287736.000	-8.101769e-001	-5.880903e-001
36293730.000	-8.101965e-001	-5.879859e-001
36299724.000	-8.102792e-001	-5.879602e-001
36305718.000	-8.103209e-001	-5.878922e-001
36311712.000	-8.103832e-001	-5.878097e-001
36317706.000	-8.104572e-001	-5.877482e-001
36323700.000	-8.105071e-001	-5.876474e-001
36329694.000	-8.105716e-001	-5.875755e-001
36335688.000	-8.106262e-001	-5.874268e-001
36341682.000	-8.106574e-001	-5.873276e-001
36347676.000	-8.107488e-001	-5.873325e-001
36353670.000	-8.108027e-001	-5.872427e-001
36359664.000	-8.107902e-001	-5.871337e-001
36365658.000	-8.109060e-001	-5.870411e-001
36371652.000	-8.109580e-001	-5.869698e-001
36377646.000	-8.109939e-001	-5.869510e-001
36383640.000	-8.110532e-001	-5.868343e-001
36389634.000	-8.111665e-001	-5.867657e-001
36395628.000	-8.111708e-001	-5.867081e-001
36401622.000	-8.112277e-001	-5.865742e-001
36407616.000	-8.113353e-001	-5.865326e-001
36413610.000	-8.113593e-001	-5.864322e-001
36419604.000	-8.114276e-001	-5.863252e-001
36425598.000	-8.114553e-001	-5.862757e-001
36431592.000	-8.115090e-001	-5.862420e-001
36437586.000	-8.115438e-001	-5.861451e-001
36443580.000	-8.116225e-001	-5.860557e-001
36449574.000	-8.116706e-001	-5.859626e-001
36455568.000	-8.116670e-001	-5.858893e-001
36461562.000	-8.117922e-001	-5.858551e-001
36467556.000	-8.118632e-001	-5.857240e-001
36473550.000	-8.119108e-001	-5.856071e-001
36479544.000	-8.119951e-001	-5.855278e-001
36485538.000	-8.119928e-001	-5.854985e-001
36491532.000	-8.120650e-001	-5.853496e-001
36497526.000	-8.121077e-001	-5.853267e-001
36503520.000	-8.121589e-001	-5.852362e-001
36509514.000	-8.121973e-001	-5.851412e-001
36515508.000	-8.123121e-001	-5.851442e-001
36521502.000	-8.123282e-001	-5.850241e-001
36527496.000	-8.124034e-001	-5.849403e-001
36533490.000	-8.124676e-001	-5.848519e-001
36539484.000	-8.125623e-001	-5.847887e-001
36545478.000	-8.125930e-001	-5.847039e-001
36551472.000	-8.126875e-001	-5.846093e-001
36557466.000	-8.126759e-001	-5.845479e-001
36563460.000	-8.127655e-001	-5.844474e-001
36569454.000	-8.127938e-001	-5.844275e-001
36575448.000	-8.128512e-001	-5.843064e-001
36581442.000	-8.129335e-001	-5.842315e-001
36587436.000	-8.129970e-001	-5.841588e-001
36593430.000	-8.130449e-001	-5.840972e-001
36599424.000	-8.130879e-001	-5.840172e-001
36605418.000	-8.131873e-001	-5.838735e-001
36611412.000	-8.132654e-001	-5.838580e-001
36617406.000	-8.132834e-001	-5.837915e-001
36623400.000	-8.132737e-001	-5.836989e-001
36629394.000	-8.133163e-001	-5.836152e-001
36635388.000	-8.134133e-001	-5.834958e-001
36641382.000	-8.134526e-001	-5.834597e-001
36647376.000	-8.135616e-001	-5.834193e-001
36653370.000	-8.136335e-001	-5.833041e-001
36659364.000	-8.136498e-001	-5.832248e-001
36665358.000	-8.137437e-001	-5.832111e-001
36671352.000	-8.137661e-001	-5.830589e-001
36677346.000	-8.138138e-001	-5.829877e-001
36683340.000	-8.138793e-001	-5.829714e-001
36689334.000	-8.139566e-001	-5.828405e-001
36695328.000	-8.139948e-001	-5.828145e-001
36701322.000	-8.140723e-001	-5.826815e-001
36707316.000	-8.141008e-001	-5.825824e-001
36713310.000	-8.141637e-001	-5.825116e-001
36719304.000	-8.142382e-001	-5.824262e-001
36725298.000	-8.143003e-001	-5.823893e-001
36731292.000	-8.143167e-001	-5.822958e-001
36737286.000	-8.143703e-001	-5.822027e-001
36743280.000	-8.144082e-001	-5.820960e-001
36749274.000	-8.144642e-001	-5.820741e-001
36755268.000	-8.145425e-001	-5.819795e-001
36761262.000	-8.146253e-001	-5.819401e-001
36767256.000	-8.146531e-001	-5.818253e-001
36773250.000	-8.147255e-001	-5.817549e-001
36779244.000	-8.147695e-001	-5.816950e-001
36785238.000	-8.148198e-001	-5.815936e-001
36791232.000	-8.148460e-001	-5.814888e-001
36797226.000	-8.149507e-001	-5.814814e-001
36803220.000	-8.149903e-001	-5.813953e-001
36809214.000	-8.150284e-001	-5.813377e-001
36815208.000	-8.150658e-001	-5.812158e-001
36821202.000	-8.151270e-001	-5.811077e-001
36827196.000	-8.152176e-001	-5.810844e-001
36833190.000	-8.152381e-001	-5.809735e-001
36839184.000	-8.153229e-001	-5.808927e-001
36845178.000	-8.153858e-001	-5.808197e-001
36851172.000	-8.153998e-001	-5.807160e-001
36857166.000	-8.154423e-001	-5.806818e-001
36863160.000	-8.155500e-001	-5.805783e-001
36869154.000	-8.155625e-001	-5.805252e-001
36875148.000	-8.156420e-001	-5.804092e-001
36881142.000	-8.156683e-001	-5.803233e-001
36887136.000	-8.157392e-001	-5.802668e-001
36893130.000	-8.158124e-001	-5.801619e-001
36899124.000	-8.158291e-001	-5.800671e-001
36905118.000	-8.158619e-001	-5.800535e-001
36911112.000	-8.159717e-001	-5.799728e-001
36917106.000	-8.159594e-001	-5.798521e-001
36923100.000	-8.160472e-001	-5.797676e-001
36929094.000	-8.160831e-001	-5.797241e-001
36935088.000	-8.161440e-001	-5.796516e-001
36941082.000	-8.161664e-001	-5.795604e-001
36947076.000	-8.162085e-001	-5.794575e-001
36953070.000	-8.163232e-001	-5.794167e-001
36959064.000	-8.163999e-001	-5.793162e-001
36965058.000	-8.164648e-001	-5.792067e-001
36971052.000	-8.164826e-001	-5.791964e-001
36977046.000	-8.165643e-001	-5.791061e-001
36983040.000	-8.165758e-001	-5.790244e-001
36989034.000	-8.166869e-001	-5.789830e-001
36995028.000	-8.167084e-001	-5.788683e-001
37001022.000	-8.167631e-001	-5.787869e-001
37007016.000	-8.168006e-001	-5.786949e-001
37013010.000	-8.168858e-001	-5.786278e-001
37019004.000	-8.169505e-001	-5.786046e-001
37024998.000	-8.169653e-001	-5.784850e-001
37030992.000	-8.169988e-001	-5.783786e-001
37036986.000	-8.170682e-001	-5.783171e-001
37042980.000	-8.171495e-001	-5.782580e-001
37048974.000	-8.171709e-001	-5.781358e-001
37054968.000	-8.171649e-001	-5.780831e-001
37060962.000	-8.172888e-001	-5.780130e-001
37066956.000	-8.173427e-001	-5.779643e-001
37072950.000	-8.174155e-001	-5.778616e-001
37078944.000	-8.173872e-001	-5.777923e-001
37084938.000	-8.174883e-001	-5.776741e-001
37090932.000	-8.175420e-001	-5.776175e-001
37096926.000	-8.176203e-001	-5.775583e-001
37102920.000	-8.176688e-001	-5.774314e-001
37108914.000	-8.177094e-001	-5.774072e-001
37114908.000	-8.177849e-001	-5.773304e-001
37120902.000	-8.178468e-001	-5.772354e-001
37126896.000	-8.178816e-001	-5.771722e-001
37132890.000	-8.179282e-001	-5.771132e-001
37138884.000	-8.180027e-001	-5.769688e-001
37144878.000	-8.180319e-001	-5.769626e-001
37150872.000	-8.181352e-001	-5.768689e-001
37156866.000	-8.181202e-001	-5.767684e-001
37162860.000	-8.182083e-001	-5.766636e-001
37168854.000	-8.182415e-001	-5.766251e-001
37174848.000	-8.182825e-001	-5.765787e-001
37180842.000	-8.183531e-001	-5.764533e-001
37186836.000	-8.184197e-001	-5.763758e-001
37192830.000	-8.184897e-001	-5.763071e-001
37198824.000	-8.185539e-001	-5.762331e-001
37204818.000	-8.185839e-001	-5.762175e-001
37210812.000	-8.186188e-001	-5.761103e-001
37216806.000	-8.187203e-001	-5.760446e-001
37222800.000	-8.187340e-001	-5.759691e-001
37228794.000	-8.187826e-001	-5.758872e-001
37234788.000	-8.188889e-001	-5.758580e-001
37240782.000	-8.189460e-001	-5.757254e-001
37246776.000	-8.189608e-001	-5.756976e-001
37252770.000	-8.190222e-001	-5.755663e-001
37258764.000	-8.190622e-001	-5.754708e-001
37264758.000	-8.190841e-001	-5.754785e-001
37270752.000	-8.192152e-001	-5.753869e-001
37276746.000	-8.192799e-001	-5.753257e-001
37282740.000	-8.192838e-001	-5.751677e-001
37288734.000	-8.193420e-001	-5.750745e-001
37294728.000	-8.193599e-001	-5.750511e-001
37300722.000	-8.194602e-001	-5.749759e-001
37306716.000	-8.194663e-001	-5.748836e-001
37312710.000	-8.195352e-001	-5.748381e-001
37318704.000	-8.195603e-001	-5.747240e-001
37324698.000	-8.196479e-001	-5.746709e-001
37330692.000	-8.197097e-001	-5.745855e-001
37336686.000	-8.197926e-001	-5.745014e-001
37342680.000	-8.197982e-001	-5.744000e-001
37348674.000	-8.198639e-001	-5.743450e-001
37354668.000	-8.198946e-001	-5.743042e-001
37360662.000	-8.199449e-001	-5.742344e-001
37366656.000	-8.200729e-001	-5.741882e-001
37372650.000	-8.200954e-001	-5.740500e-001
37378644.000	-8.200888e-001	-5.739819e-001
37384638.000	-8.202002e-001	-5.739626e-001
37390632.000	-8.202580e-001	-5.738181e-001
37396626.000	-8.202800e-001	-5.737971e-001
37402620.000	-8.203373e-001	-5.736942e-001
37408614.000	-8.204063e-001	-5.735986e-001
37414608.000	-8.204270e-001	-5.735634e-001
37420602.000	-8.204917e-001	-5.734253e-001
37426596.000	-8.205255e-001	-5.733607e-001
37432590.000	-8.205623e-001	-5.732274e-001
37438584.000	-8.205513e-001	-5.731564e-001
37444578.000	-8.206463e-001	-5.731313e-001
37450572.000	-8.207106e-001	-5.730481e-001
37456566.000	-8.207853e-001	-5.729452e-001
37462560.000	-8.208154e-001	-5.728670e-001
37468554.000	-8.208481e-001	-5.728059e-001
37474548.000	-8.209494e-001	-5.727445e-001
37480542.000	-8.209589e-001	-5.726662e-001
37486536.000	-8.210007e-001	-5.725535e-001
37492530.000	-8.210579e-001	-5.724753e-001
37498524.000	-8.210955e-001	-5.724243e-001
37504518.000	-8.212068e-001	-5.723950e-001
37510512.000	-8.212347e-001	-5.723392e-001
37516506.000	-8.213079e-001	-5.722156e-001
37522500.000	-8.213645e-001	-5.721757e-001
37528494.000	-8.213922e-001	-5.720615e-001
37534488.000	-8.214274e-001	-5.720429e-001
37540482.000	-8.214948e-001	-5.719119e-001
37546476.000	-8.215568e-001	-5.718811e-001
37552470.000	-8.216463e-001	-5.717631e-001
37558464.000	-8.216694e-001	-5.716567e-001
37564458.000	-8.216962e-001	-5.715885e-001
37570452.000	-8.217741e-001	-5.715071e-001
37576446.000	-8.218432e-001	-5.714353e-001
37582440.000	-8.218705e-001	-5.713658e-001
37588434.000	-8.219320e-001	-5.713315e-001
37594428.000	-8.219490e-001	-5.712366e-001
37600422.000	-8.219950e-001	-5.711639e-001
37606416.000	-8.220598e-001	-5.711037e-001
37612410.000	-8.220982e-001	-5.710243e-001
37618404.000	-8.221505e-001	-5.708980e-001
37624398.000	-8.221651e-001	-5.708217e-001
37630392.000	-8.222772e-001	-5.707630e-001
37636386.000	-8.223046e-001	-5.707230e-001
37642380.000	-8.223405e-001	-5.706067e-001
37648374.000	-8.223959e-001	-5.705225e-001
37654368.000	-8.224381e-001	-5.704942e-001
37660362.000	-8.225072e-001	-5.704171e-001
37666356.000	-8.226000e-001	-5.703125e-001
37672350.000	-8.226892e-001	-5.702771e-001
37678344.000	-8.227109e-001	-5.701653e-001
37684338.000	-8.227434e-001	-5.701310e-001
37690332.000	-8.228368e-001	-5.700622e-001
37696326.000	-8.228703e-001	-5.699601e-001
37702320.000	-8.228967e-001	-5.698609e-001
37708314.000	-8.229945e-001	-5.698425e-001
37714308.000	-8.230528e-001	-5.697815e-001
37720302.000	-8.230233e-001	-5.696141e-001
37726296.000	-8.230889e-001	-5.695546e-001
37732290.000	-8.231803e-001	-5.695152e-001
37738284.000	-8.232411e-001	-5.693914e-001
37744278.000	-8.232649e-001	-5.693772e-001
37750272.000	-8.233331e-001	-5.692588e-001
37756266.000	-8.233872e-001	-5.692145e-001
37762260.000	-8.234467e-001	-5.691457e-001
37768254.000	-8.234445e-001	-5.690588e-001
37774248.000	-8.235510e-001	-5.689981e-001
37780242.000	-8.235360e-001	-5.689035e-001
37786236.000	-8.236301e-001	-5.688219e-001
37792230.000	-8.236959e-001	-5.688054e-001
37798224.000	-8.237217e-001	-5.686901e-001
37804218.000	-8.237791e-001	-5.686202e-001
37810212.000	-8.238282e-001	-5.685786e-001
37816206.000	-8.238709e-001	-5.684518e-001
37822200.000	-8.238863e-001	-5.683277e-001
37828194.000	-8.239655e-001	-5.683074e-001
37834188.000	-8.240114e-001	-5.682728e-001
37840182.000	-8.240737e-001	-5.681580e-001
37846176.000	-8.241422e-001	-5.680695e-001
37852170.000	-8.242115e-001	-5.679886e-001
37858164.000	-8.242373e-001	-5.678913e-001
37864158.000	-8.242144e-001	-5.678137e-001
37870152.000	-8.243121e-001	-5.677945e-001
37876146.000	-8.243687e-001	-5.677068e-001
37882140.000	-8.244239e-001	-5.676397e-001
37888134.000	-8.244936e-001	-5.675914e-001
37894128.000	-8.245605e-001	-5.674835e-001
37900122.000	-8.245397e-001	-5.674093e-001
37906116.000	-8.246187e-001	-5.672832e-001
37912110.000	-8.246863e-001	-5.672503e-001
37918104.000	-8.247435e-001	-5.671883e-001
37924098.000	-8.247648e-001	-5.671330e-001
37930092.000	-8.248097e-001	-5.670719e-001
37936086.000	-8.249626e-001	-5.670150e-001
37942080.000	-8.249078e-001	-5.669015e-001
37948074.000	-8.250288e-001	-5.668101e-001
37954068.000	-8.250271e-001	-5.667738e-001
37960062.000	-8.250948e-001	-5.666613e-001
37966056.000	-8.251754e-001	-5.666644e-001
37972050.000	-8.252369e-001	-5.665880e-001
37978044.000	-8.252709e-001	-5.664505e-001
37984038.000	-8.253157e-001	-5.664426e-001
37990032.000	-8.254396e-001	-5.663344e-001
37996026.000	-8.254119e-001	-5.662961e-001
38002020.000	-8.255155e-001	-5.662065e-001
38008014.000	-8.255023e-001	-5.661057e-001
38014008.000	-8.255269e-001	-5.659848e-001
38020002.000	-8.256356e-001	-5.659865e-001
38025996.000	-8.257261e-001	-5.658647e-001
38031990.000	-8.257192e-001	-5.657857e-001
38037984.000	-8.257317e-001	-5.657193e-001
38043978.000	-8.257802e-001	-5.656579e-001
38049972.000	-8.258553e-001	-5.655596e-001
38055966.000	-8.258939e-001	-5.655124e-001
38061960.000	-8.259702e-001	-5.654686e-001
38067954.000	-8.260123e-001	-5.653515e-001
38073948.000	-8.261087e-001	-5.652322e-001
38079942.000	-8.260806e-001	-5.652316e-001
38085936.000	-8.261000e-001	-5.651172e-001
38091930.000	-8.262221e-001	-5.650399e-001
38097924.000	-8.262384e-001	-5.649592e-001
38103918.000	-8.263015e-001	-5.649101e-001
38109912.000	-8.263544e-001	-5.648823e-001
38115906.000	-8.263656e-001	-5.647372e-001
38121900.000	-8.264561e-001	-5.646802e-001
38127894.000	-8.265132e-001	-5.646284e-001
38133888.000	-8.265235e-001	-5.645288e-001
38139882.000	-8.266174e-001	-5.644729e-001
38145876.000	-8.266738e-001	-5.643996e-001
38151870.000	-8.267045e-001	-5.642756e-001
38157864.000	-8.267348e-001	-5.642304e-001
38163858.000	-8.268423e-001	-5.641780e-001
38169852.000	-8.268621e-001	-5.641230e-001
38175846.000	-8.269146e-001	-5.640632e-001
38181840.000	-8.269705e-001	-5.639857e-001
38187834.000	-8.270602e-001	-5.638854e-001
38193828.000	-8.270494e-001	-5.637697e-001
38199822.000	-8.271183e-001	-5.637273e-001
38205816.000	-8.271648e-001	-5.635953e-001
38211810.000	-8.271811e-001	-5.635505e-001
38217804.000	-8.272789e-001	-5.634829e-001
38223798.000	-8.272813e-001	-5.634285e-001
38229792.000	-8.273511e-001	-5.633429e-001
38235786.000	-8.273806e-001	-5.632215e-001
38241780.000	-8.274788e-001	-5.632447e-001
38247774.000	-8.274708e-001	-5.630880e-001
38253768.000	-8.275346e-001	-5.630422e-001
38259762.000	-8.276081e-001	-5.629690e-001
38265756.000	-8.276304e-001	-5.629102e-001
38271750.000	-8.277150e-001	-5.628432e-001
38277744.000	-8.277179e-001	-5.627776e-001
38283738.000	-8.277744e-001	-5.626976e-001
38289732.000	-8.278284e-001	-5.626210e-001
38295726.000	-8.278600e-001	-5.625432e-001
38301720.000	-8.279552e-001	-5.624447e-001
38307714.000	-8.280086e-001	-5.624069e-001
38313708.000	-8.280598e-001	-5.623510e-001
38319702.000	-8.281322e-001	-5.622233e-001
38325696.000	-8.281509e-001	-5.621610e-001
38331690.000	-8.281986e-001	-5.621254e-001
38337684.000	-8.282885e-001	-5.620615e-001
38343678.000	-8.282989e-001	-5.619687e-001
38349672.000	-8.283374e-001	-5.619601e-001
38355666.000	-8.283771e-001	-5.618179e-001
38361660.000	-8.284504e-001	-5.617646e-001
38367654.000	-8.285547e-001	-5.616594e-001
38373648.000	-8.285957e-001	-5.616024e-001
38379642.000	-8.286016e-001	-5.615878e-001
38385636.000	-8.286904e-001	-5.614715e-001
38391630.000	-8.286910e-001	-5.614277e-001
38397624.000	-8.287599e-001	-5.613278e-001
38403618.000	-8.288179e-001	-5.612357e-001
38409612.000	-8.288262e-001	-5.611670e-001
38415606.000	-8.289127e-001	-5.610877e-001
38421600.000	-8.289516e-001	-5.610464e-001
38427594.000	-8.289643e-001	-5.609467e-001
38433588.000	-8.290603e-001	-5.609021e-001
38439582.000	-8.290847e-001	-5.608209e-001
38445576.000	-8.291117e-001	-5.607037e-001
38451570.000	-8.292233e-001	-5.607468e-001
38457564.000	-8.292447e-001	-5.605942e-001
38463558.000	-8.292916e-001	-5.605174e-001
38469552.000	-8.293247e-001	-5.604468e-001
38475546.000	-8.294295e-001	-5.604046e-001
38481540.000	-8.294182e-001	-5.602742e-001
38487534.000	-8.295019e-001	-5.602798e-001
38493528.000	-8.295686e-001	-5.601776e-001
38499522.000	-8.295356e-001	-5.601052e-001
38505516.000	-8.296447e-001	-5.600095e-001
38511510.000	-8.296789e-001	-5.599363e-001
38517504.000	-8.297492e-001	-5.598519e-001
38523498.000	-8.298166e-001	-5.598019e-001
38529492.000	-8.298253e-001	-5.597106e-001
38535486.000	-8.298770e-001	-5.596706e-001
38541480.000	-8.299063e-001	-5.596065e-001
38547474.000	-8.299691e-001	-5.595169e-001
38553468.000	-8.300293e-001	-5.594337e-001
38559462.000	-8.300140e-001	-5.593527e-001
38565456.000	-8.301122e-001	-5.593142e-001
38571450.000	-8.301892e-001	-5.592347e-001
38577444.000	-8.302230e-001	-5.591768e-001
38583438.000	-8.302838e-001	-5.590860e-001
38589432.000	-8.302983e-001	-5.589506e-001
38595426.000	-8.303291e-001	-5.588875e-001
38601420.000	-8.303843e-001	-5.588749e-001
38607414.000	-8.304250e-001	-5.588320e-001
38613408.000	-8.304922e-001	-5.587274e-001
38619402.000	-8.305828e-001	-5.586680e-001
38625396.000	-8.306595e-001	-5.585745e-001
38631390.000	-8.306445e-001	-5.584607e-001
38637384.000	-8.306260e-001	-5.584077e-001
38643378.000	-8.307693e-001	-5.583697e-001
38649372.000	-8.307966e-001	-5.582512e-001
38655366.000	-8.308519e-001	-5.582047e-001
38661360.000	-8.308955e-001	-5.581403e-001
38667354.000	-8.308910e-001	-5.580437e-001
38673348.000	-8.309568e-001	-5.579582e-001
38679342.000	-8.310172e-001	-5.578961e-001
38685336.000	-8.310579e-001	-5.578124e-001
38691330.000	-8.311372e-001	-5.577164e-001
38697324.000	-8.311641e-001	-5.576598e-001
38703318.000	-8.312379e-001	-5.576287e-001
38709312.000	-8.312423e-001	-5.575196e-001
38715306.000	-8.312998e-001	-5.575115e-001
38721300.000	-8.313750e-001	-5.573987e-001
38727294.000	-8.313870e-001	-5.572768e-001
38733288.000	-8.314125e-001	-5.572292e-001
38739282.000	-8.314669e-001	-5.571874e-001
38745276.000	-8.315982e-001	-5.571286e-001
38751270.000	-8.316244e-001	-5.570616e-001
38757264.000	-8.316767e-001	-5.569854e-001
38763258.000	-8.316715e-001	-5.568777e-001
38769252.000	-8.317448e-001	-5.567816e-001
38775246.000	-8.318221e-001	-5.567667e-001
38781240.000	-8.318034e-001	-5.566770e-001
38787234.000	-8.318234e-001	-5.566018e-001
38793228.000	-8.319390e-001	-5.565095e-001
38799222.000	-8.319544e-001	-5.564843e-001
38805216.000	-8.320545e-001	-5.564069e-001
38811210.000	-8.320689e-001	-5.563170e-001
38817204.000	-8.321598e-001	-5.562583e-001
38823198.000	-8.321348e-001	-5.561879e-001
38829192.000	-8.321946e-001	-5.560889e-001
38835186.000	-8.322540e-001	-5.561023e-001
38841180.000	-8.322968e-001	-5.559874e-001
38847174.000	-8.323768e-001	-5.558601e-001
38853168.000	-8.323757e-001	-5.558260e-001
38859162.000	-8.324938e-001	-5.557798e-001
38865156.000	-8.325071e-001	-5.556693e-001
38871150.000	-8.325859e-001	-5.556258e-001
38877144.000	-8.326009e-001	-5.555351e-001
38883138.000	-8.326273e-001	-5.555021e-001
38889132.000	-8.327314e-001	-5.554313e-001
38895126.000	-8.327030e-001	-5.552837e-001
38901120.000	-8.328117e-001	-5.553058e-001
38907114.000	-8.328481e-001	-5.551981e-001
38913108.000	-8.328853e-001	-5.551165e-001
38919102.000	-8.329237e-001	-5.550231e-001
38925096.000	-8.330091e-001	-5.549924e-001
38931090.000	-8.330128e-001	-5.549324e-001
38937084.000	-8.330674e-001	-5.548330e-001
38943078.000	-8.330768e-001	-5.547407e-001
38949072.000	-8.331365e-001	-5.546490e-001
38955066.000	-8.332037e-001	-5.545956e-001
38961060.000	-8.332701e-001	-5.545589e-001
38967054.000	-8.333335e-001	-5.544663e-001
38973048.000	-8.333584e-001	-5.544253e-001
38979042.000	-8.334413e-001	-5.543036e-001
38985036.000	-8.333794e-001	-5.542414e-001
38991030.000	-8.334591e-001	-5.541853e-001
38997024.000	-8.335102e-001	-5.541549e-001
39003018.000	-8.335748e-001	-5.539913e-001
39009012.000	-8.336028e-001	-5.539954e-001
39015006.000	-8.336904e-001	-5.538820e-001
39021000.000	-8.337593e-001	-5.538739e-001
39026994.000	-8.337594e-001	-5.537503e-001
39032988.000	-8.337993e-001	-5.536881e-001
39038982.000	-8.338335e-001	-5.536042e-001
39044976.000	-8.339148e-001	-5.535112e-001
39050970.000	-8.339288e-001	-5.534672e-001
39056964.000	-8.340022e-001	-5.533949e-001
39062958.000	-8.340368e-001	-5.533502e-001
39068952.000	-8.341258e-001	-5.532986e-001
39074946.000	-8.341919e-001	-5.531653e-001
39080940.000	-8.341649e-001	-5.530997e-001
39086934.000	-8.342245e-001	-5.530386e-001
39092928.000	-8.342490e-001	-5.529446e-001
39098922.000	-8.343333e-001	-5.528949e-001
39104916.000	-8.343359e-001	-5.527971e-001
39110910.000	-8.344026e-001	-5.527445e-001
39116904.000	-8.344745e-001	-5.526612e-001
39122898.000	-8.345416e-001	-5.525896e-001
39128892.000	-8.345485e-001	-5.525274e-001
39134886.000	-8.346179e-001	-5.524734e-001
39140880.000	-8.346415e-001	-5.524052e-001
39146874.000	-8.346675e-001	-5.523271e-001
39152868.000	-8.347462e-001	-5.522563e-001
39158862.000	-8.347812e-001	-5.521789e-001
39164856.000	-8.348441e-001	-5.520689e-001
39170850.000	-8.348900e-001	-5.520153e-001
39176844.000	-8.349603e-001	-5.519386e-001
39182838.000	-8.349451e-001	-5.519154e-001
39188832.000	-8.350410e-001	-5.518657e-001
39194826.000	-8.350780e-001	-5.517628e-001
39200820.000	-8.351606e-001	-5.517021e-001
39206814.000	-8.352000e-001	-5.516620e-001
39212808.000	-8.352162e-001	-5.515769e-001
39218802.000	-8.352634e-001	-5.514759e-001
39224796.000	-8.352701e-001	-5.513782e-001
39230790.000	-8.353300e-001	-5.513022e-001
39236784.000	-8.354203e-001	-5.512656e-001
39242778.000	-8.354205e-001	-5.511802e-001
39248772.000	-8.354838e-001	-5.511075e-001
39254766.000	-8.355150e-001	-5.510081e-001
39260760.000	-8.356026e-001	-5.509544e-001
39266754.000	-8.356565e-001	-5.509521e-001
39272748.000	-8.357088e-001	-5.508360e-001
39278742.000	-8.357343e-001	-5.507628e-001
39284736.000	-8.357461e-001	-5.506946e-001
39290730.000	-8.357773e-001	-5.506128e-001
39296724.000	-8.358730e-001	-5.505824e-001
39302718.000	-8.358746e-001	-5.504918e-001
39308712.000	-8.359360e-001	-5.504089e-001
39314706.000	-8.359803e-001	-5.503355e-001
39320700.000	-8.360127e-001	-5.502543e-001
39326694.000	-8.360650e-001	-5.501751e-001
39332688.000	-8.361468e-001	-5.501740e-001
39338682.000	-8.361702e-001	-5.500577e-001
39344676.000	-8.361818e-001	-5.499792e-001
39350670.000	-8.362819e-001	-5.499600e-001
39356664.000	-8.363543e-001	-5.498844e-001
39362658.000	-8.363413e-001	-5.497731e-001
39368652.000	-8.364180e-001	-5.497384e-001
39374646.000	-8.364618e-001	-5.496548e-001
39380640.000	-8.364909e-001	-5.495978e-001
39386634.000	-8.364863e-001	-5.494159e-001
39392628.000	-8.365595e-001	-5.494278e-001
39398622.000	-8.367142e-001	-5.494038e-001
39404616.000	-8.366759e-001	-5.492527e-001
39410610.000	-8.367151e-001	-5.492301e-001
39416604.000	-8.367625e-001	-5.491509e-001
39422598.000	-8.368297e-001	-5.490853e-001
39428592.000	-8.368478e-001	-5.489844e-001
39434586.000	-8.368780e-001	-5.489538e-001
39440580.000	-8.369286e-001	-5.488659e-001
39446574.000	-8.370362e-001	-5.487554e-001
39452568.000	-8.371211e-001	-5.487273e-001
39458562.000	-8.370836e-001	-5.487141e-001
39464556.000	-8.371428e-001	-5.485877e-001
39470550.000	-8.371873e-001	-5.485345e-001
39476544.000	-8.372250e-001	-5.484169e-001
39482538.000	-8.372687e-001	-5.483903e-001
39488532.000	-8.373379e-001	-5.483115e-001
39494526.000	-8.373713e-001	-5.481970e-001
39500520.000	-8.374292e-001	-5.481725e-001
39506514.000	-8.374515e-001	-5.480745e-001
39512508.000	-8.375011e-001	-5.480396e-001
39518502.000	-8.375357e-001	-5.479692e-001
39524496.000	-8.376011e-001	-5.479500e-001
39530490.000	-8.376239e-001	-5.477953e-001
39536484.000	-8.376978e-001	-5.477350e-001
39542478.000	-8.376802e-001	-5.476673e-001
39548472.000	-8.377229e-001	-5.476035e-001
39554466.000	-8.378094e-001	-5.475154e-001
39560460.000	-8.378566e-001	-5.474754e-001
39566454.000	-8.379157e-001	-5.473424e-001
39572448.000	-8.379687e-001	-5.473304e-001
39578442.000	-8.380289e-001	-5.472642e-001
39584436.000	-8.380955e-001	-5.471814e-001
39590430.000	-8.380512e-001	-5.470951e-001
39596424.000	-8.381511e-001	-5.470348e-001
39602418.000	-8.381397e-001	-5.469467e-001
39608412.000	-8.382304e-001	-5.469396e-001
39614406.000	-8.382706e-001	-5.468364e-001
39620400.000	-8.383674e-001	-5.467430e-001
39626394.000	-8.383904e-001	-5.467032e-001
39632388.000	-8.383907e-001	-5.465883e-001
39638382.000	-8.384308e-001	-5.465294e-001
39644376.000	-8.384732e-001	-5.464948e-001
39650370.000	-8.385476e-001	-5.464411e-001
39656364.000	-8.386149e-001	-5.463577e-001
39662358.000	-8.386947e-001	-5.462948e-001
39668352.000	-8.386649e-001	-5.462082e-001
39674346.000	-8.387143e-001	-5.461133e-001
39680340.000	-8.387492e-001	-5.460529e-001
39686334.000	-8.388232e-001	-5.459902e-001
39692328.000	-8.388241e-001	-5.459195e-001
39698322.000	-8.389069e-001	-5.458369e-001
39704316.000	-8.389180e-001	-5.457550e-001
39710310.000	-8.389664e-001	-5.457132e-001
39716304.000	-8.390218e-001	-5.456090e-001
39722298.000	-8.391164e-001	-5.455833e-001
39728292.000	-8.391214e-001	-5.455081e-001
39734286.000	-8.391699e-001	-5.454709e-001
39740280.000	-8.391886e-001	-5.453575e-001
39746274.000	-8.392124e-001	-5.452551e-001
39752268.000	-8.392701e-001	-5.452348e-001
39758262.000	-8.393422e-001	-5.451680e-001
39764256.000	-8.394053e-001	-5.450674e-001
39770250.000	-8.393939e-001	-5.449943e-001
39776244.000	-8.394510e-001	-5.449407e-001
39782238.000	-8.394800e-001	-5.448558e-001
39788232.000	-8.395423e-001	-5.447962e-001
39794226.000	-8.395808e-001	-5.446998e-001
39800220.000	-8.396531e-001	-5.447170e-001
39806214.000	-8.396842e-001	-5.446057e-001
39812208.000	-8.397130e-001	-5.444837e-001
39818202.000	-8.397373e-001	-5.444327e-001
39824196.000	-8.398452e-001	-5.444038e-001
39830190.000	-8.398699e-001	-5.443434e-001
39836184.000	-8.399285e-001	-5.442396e-001
39842178.000	-8.399766e-001	-5.441733e-001
39848172.000	-8.400602e-001	-5.441343e-001
39854166.000	-8.400476e-001	-5.440576e-001
39860160.000	-8.401559e-001	-5.440359e-001
39866154.000	-8.401912e-001	-5.439710e-001
39872148.000	-8.401768e-001	-5.438273e-001
39878142.000	-8.403047e-001	-5.438261e-001
39884136.000	-8.402911e-001	-5.437143e-001
39890130.000	-8.403347e-001	-5.436871e-001
39896124.000	-8.404060e-001	-5.436414e-001
39902118.000	-8.404254e-001	-5.435545e-001
39908112.000	-8.404924e-001	-5.434745e-001
39914106.000	-8.405390e-001	-5.434317e-001
39920100.000	-8.405807e-001	-5.433630e-001
39926094.000	-8.405715e-001	-5.432465e-001
39932088.000	-8.406299e-001	-5.432346e-001
39938082.000	-8.406904e-001	-5.430693e-001
39944076.000	-8.407153e-001	-5.430735e-001
39950070.000	-8.407719e-001	-5.430059e-001
39956064.000	-8.408086e-001	-5.428580e-001
39962058.000	-8.408309e-001	-5.427976e-001
39968052.000	-8.408574e-001	-5.427503e-001
39974046.000	-8.409833e-001	-5.426808e-001
39980040.000	-8.409662e-001	-5.426110e-001
39986034.000	-8.410346e-001	-5.425169e-001
39992028.000	-8.410880e-001	-5.424761e-001
39998022.000	-8.410774e-001	-5.423638e-001
40004016.000	-8.411855e-001	-5.423489e-001
40010010.000	-8.411805e-001	-5.422582e-001
40016004.000	-8.412854e-001	-5.422066e-001
40021998.000	-8.413049e-001	-5.421815e-001
40027992.000	-8.413429e-001	-5.420466e-001
40033986.000	-8.414077e-001	-5.419973e-001
40039980.000	-8.414349e-001	-5.419597e-001
40045974.000	-8.414649e-001	-5.418662e-001
40051968.000	-8.415473e-001	-5.417966e-001
40057962.000	-8.415793e-001	-5.417659e-001
40063956.000	-8.416207e-001	-5.416399e-001
40069950.000	-8.416206e-001	-5.415638e-001
40075944.000	-8.417034e-001	-5.415258e-001
40081938.000	-8.417433e-001	-5.414772e-001
40087932.000	-8.417846e-001	-5.413974e-001
40093926.000	-8.418232e-001	-5.413398e-001
40099920.000	-8.418859e-001	-5.412927e-001
40105914.000	-8.419204e-001	-5.412078e-001
40111908.000	-8.419875e-001	-5.411096e-001
40117902.000	-8.419930e-001	-5.410486e-001
40123896.000	-8.420430e-001	-5.409925e-001
40129890.000	-8.420899e-001	-5.409267e-001
40135884.000	-8.421498e-001	-5.408966e-001
40141878.000	-8.421638e-001	-5.408016e-001
40147872.000	-8.422180e-001	-5.407087e-001
40153866.000	-8.422604e-001	-5.405987e-001
40159860.000	-8.422935e-001	-5.405654e-001
40165854.000	-8.423014e-001	-5.404829e-001
40171848.000	-8.423729e-001	-5.404595e-001
40177842.000	-8.424150e-001	-5.403321e-001
40183836.000	-8.424844e-001	-5.403194e-001
40189830.000	-8.425443e-001	-5.402123e-001
40195824.000	-8.425429e-001	-5.401399e-001
40201818.000	-8.426006e-001	-5.400719e-001
40207812.000	-8.426433e-001	-5.400126e-001
40213806.000	-8.427094e-001	-5.400001e-001
40219800.000	-8.427628e-001	-5.398997e-001
40225794.000	-8.428115e-001	-5.398792e-001
40231788.000	-8.428104e-001	-5.397215e-001
40237782.000	-8.429072e-001	-5.397039e-001
40243776.000	-8.429948e-001	-5.396350e-001
40249770.000	-8.429445e-001	-5.395191e-001
40255764.000	-8.429754e-001	-5.395039e-001
40261758.000	-8.430750e-001	-5.394342e-001
40267752.000	-8.431186e-001	-5.393798e-001
40273746.000	-8.431254e-001	-5.392265e-001
40279740.000	-8.431948e-001	-5.391738e-001
40285734.000	-8.432247e-001	-5.391392e-001
40291728.000	-8.432461e-001	-5.390911e-001
40297722.000	-8.433334e-001	-5.389923e-001
40303716.000	-8.433218e-001	-5.389314e-001
40309710.000	-8.433435e-001	-5.388161e-001
40315704.000	-8.434260e-001	-5.388098e-001
40321698.000	-8.435021e-001	-5.387076e-001
40327692.000	-8.435565e-001	-5.386765e-001
40333686.000	-8.435933e-001	-5.385814e-001
40339680.000	-8.436112e-001	-5.385401e-001
40345674.000	-8.436640e-001	-5.384520e-001
40351668.000	-8.436814e-001	-5.383991e-001
40357662.000	-8.437498e-001	-5.383407e-001
40363656.000	-8.437571e-001	-5.382088e-001
40369650.000	-8.438675e-001	-5.381919e-001
40375644.000	-8.438890e-001	-5.381502e-001
40381638.000	-8.439331e-001	-5.380691e-001
40387632.000	-8.439654e-001	-5.380044e-001
40393626.000	-8.440218e-001	-5.379428e-001
40399620.000	-8.440326e-001	-5.378513e-001
40405614.000	-8.440827e-001	-5.378049e-001
40411608.000	-8.441321e-001	-5.377034e-001
40417602.000	-8.442057e-001	-5.376321e-001
40423596.000	-8.442023e-001	-5.375218e-001
40429590.000	-8.442210e-001	-5.375184e-001
40435584.000	-8.442913e-001	-5.374066e-001
40441578.000	-8.442971e-001	-5.373679e-001
40447572.000	-8.443568e-001	-5.373561e-001
40453566.000	-8.444509e-001	-5.372364e-001
40459560.000	-8.444256e-001	-5.371413e-001
40465554.000	-8.445410e-001	-5.371666e-001
40471548.000	-8.445161e-001	-5.370686e-001
40477542.000	-8.445908e-001	-5.369778e-001
40483536.000	-8.446479e-001	-5.368755e-001
40489530.000	-8.446549e-001	-5.368376e-001
40495524.000	-8.446963e-001	-5.367705e-001
40501518.000	-8.447764e-001	-5.366677e-001
40507512.000	-8.448539e-001	-5.366543e-001
40513506.000	-8.449028e-001	-5.365720e-001
40519500.000	-8.449397e-001	-5.365677e-001
40525494.000	-8.449913e-001	-5.364475e-001
40531488.000	-8.449743e-001	-5.363978e-001
40537482.000	-8.450216e-001	-5.363113e-001
40543476.000	-8.450504e-001	-5.362089e-001
40549470.000	-8.451131e-001	-5.362113e-001
40555464.000	-8.450960e-001	-5.360642e-001
40561458.000	-8.451512e-001	-5.359614e-001
40567452.000	-8.451780e-001	-5.359381e-001
40573446.000	-8.452410e-001	-5.358644e-001
40579440.000	-8.453038e-001	-5.357671e-001
40585434.000	-8.453740e-001	-5.357567e-001
40591428.000	-8.454211e-001	-5.357039e-001
40597422.000	-8.454493e-001	-5.356004e-001
40603416.000	-8.454937e-001	-5.355971e-001
40609410.000	-8.455016e-001	-5.354963e-001
40615404.000	-8.455463e-001	-5.353874e-001
40621398.000	-8.455975e-001	-5.353504e-001
40627392.000	-8.456598e-001	-5.352399e-001
40633386.000	-8.456863e-001	-5.351847e-001
40639380.000	-8.457082e-001	-5.350990e-001
40645374.000	-8.457647e-001	-5.350754e-001
40651368.000	-8.457926e-001	-5.350302e-001
40657362.000	-8.458379e-001	-5.349652e-001
40663356.000	-8.459086e-001	-5.348663e-001
40669350.000	-8.459237e-001	-5.348022e-001
40675344.000	-8.459636e-001	-5.347157e-001
40681338.000	-8.460133e-001	-5.347092e-001
40687332.000	-8.460812e-001	-5.346425e-001
40693326.000	-8.461121e-001	-5.345296e-001
40699320.000	-8.461686e-001	-5.345024e-001
40705314.000	-8.461658e-001	-5.344063e-001
40711308.000	-8.462009e-001	-5.343551e-001
40717302.000	-8.463029e-001	-5.342685e-001
40723296.000	-8.463502e-001	-5.342259e-001
40729290.000	-8.463224e-001	-5.341546e-001
40735284.000	-8.464382e-001	-5.340638e-001
40741278.000	-8.463985e-001	-5.339689e-001
40747272.000	-8.464846e-001	-5.339681e-001
40753266.000	-8.465000e-001	-5.338718e-001
40759260.000	-8.466024e-001	-5.338183e-001
40765254.000	-8.466016e-001	-5.337334e-001
40771248.000	-8.467020e-001	-5.337487e-001
40777242.000	-8.466767e-001	-5.335926e-001
40783236.000	-8.467407e-001	-5.335295e-001
40789230.000	-8.467808e-001	-5.334501e-001
40795224.000	-8.468504e-001	-5.333877e-001
40801218.000	-8.468470e-001	-5.333571e-001
40807212.000	-8.468619e-001	-5.332405e-001
40813206.000	-8.469379e-001	-5.332155e-001
40819200.000	-8.470048e-001	-5.331465e-001
40825194.000	-8.470109e-001	-5.330338e-001
40831188.000	-8.470881e-001	-5.330034e-001
40837182.000	-8.470981e-001	-5.329576e-001
40843176.000	-8.471357e-001	-5.329041e-001
40849170.000	-8.471950e-001	-5.328216e-001
40855164.000	-8.472602e-001	-5.327398e-001
40861158.000	-8.472453e-001	-5.326690e-001
40867152.000	-8.472390e-001	-5.326297e-001
40873146.000	-8.473530e-001	-5.325372e-001
40879140.000	-8.474091e-001	-5.324541e-001
40885134.000	-8.474363e-001	-5.324102e-001
40891128.000	-8.474782e-001	-5.323203e-001
40897122.000	-8.475357e-001	-5.322746e-001
40903116.000	-8.474910e-001	-5.321911e-001
40909110.000	-8.475940e-001	-5.321189e-001
40915104.000	-8.476123e-001	-5.320723e-001
40921098.000	-8.477036e-001	-5.319585e-001
40927092.000	-8.477290e-001	-5.319623e-001
40933086.000	-8.477600e-001	-5.318615e-001
40939080.000	-8.478087e-001	-5.317504e-001
40945074.000	-8.478405e-001	-5.316907e-001
40951068.000	-8.478809e-001	-5.316462e-001
40957062.000	-8.479221e-001	-5.315720e-001
40963056.000	-8.479728e-001	-5.315077e-001
40969050.000	-8.479501e-001	-5.314289e-001
40975044.000	-8.480355e-001	-5.313814e-001
40981038.000	-8.480399e-001	-5.313090e-001
40987032.000	-8.481440e-001	-5.312536e-001
40993026.000	-8.481466e-001	-5.311443e-001
40999020.000	-8.481963e-001	-5.311340e-001
41005014.000	-8.481842e-001	-5.310652e-001
41011008.000	-8.482660e-001	-5.310117e-001
41017002.000	-8.483230e-001	-5.309156e-001
41022996.000	-8.483622e-001	-5.308741e-001
41028990.000	-8.484289e-001	-5.308045e-001
41034984.000	-8.484541e-001	-5.306967e-001
41040978.000	-8.485065e-001	-5.306633e-001
41046972.000	-8.485771e-001	-5.306149e-001
41052966.000	-8.485422e-001	-5.304704e-001
41058960.000	-8.485989e-001	-5.304479e-001
41064954.000	-8.486701e-001	-5.304122e-001
41070948.000	-8.487030e-001	-5.303499e-001
41076942.000	-8.487014e-001	-5.302594e-001
41082936.000	-8.487665e-001	-5.302043e-001
41088930.000	-8.488258e-001	-5.301261e-001
41094924.000	-8.488699e-001	-5.301221e-001
41100918.000	-8.488874e-001	-5.299807e-001
41106912.000	-8.489343e-001	-5.299086e-001
41112906.000	-8.489622e-001	-5.298583e-001
41118900.000	-8.490592e-001	-5.297814e-001
41124894.000	-8.490610e-001	-5.297516e-001
41130888.000	-8.491167e-001	-5.296578e-001
41136882.000	-8.491421e-001	-5.295968e-001
41142876.000	-8.491554e-001	-5.295300e-001
41148870.000	-8.491933e-001	-5.294134e-001
41154864.000	-8.492425e-001	-5.294071e-001
41160858.000	-8.493001e-001	-5.293224e-001
41166852.000	-8.493236e-001	-5.292626e-001
41172846.000	-8.493324e-001	-5.291926e-001
41178840.000	-8.493768e-001	-5.291099e-001
41184834.000	-8.494279e-001	-5.290096e-001
41190828.000	-8.495049e-001	-5.289681e-001
41196822.000	-8.495466e-001	-5.288975e-001
41202816.000	-8.495701e-001	-5.288735e-001
41208810.000	-8.496167e-001	-5.287859e-001
41214804.000	-8.497047e-001	-5.287705e-001
41220798.000	-8.497064e-001	-5.286860e-001
41226792.000	-8.497903e-001	-5.285732e-001
41232786.000	-8.497837e-001	-5.285751e-001
41238780.000	-8.498520e-001	-5.284926e-001
41244774.000	-8.498890e-001	-5.284164e-001
41250768.000	-8.499258e-001	-5.283153e-001
41256762.000	-8.499830e-001	-5.282981e-001
41262756.000	-8.499995e-001	-5.282431e-001
41268750.000	-8.500324e-001	-5.281440e-001
41274744.000	-8.500656e-001	-5.280981e-001
41280738.000	-8.501384e-001	-5.279992e-001
41286732.000	-8.501874e-001	-5.279291e-001
41292726.000	-8.502205e-001	-5.278215e-001
41298720.000	-8.501920e-001	-5.278298e-001
41304714.000	-8.502438e-001	-5.277811e-001
41310708.000	-8.503227e-001	-5.276836e-001
41316702.000	-8.503858e-001	-5.276513e-001
41322696.000	-8.503564e-001	-5.275411e-001
41328690.000	-8.504188e-001	-5.275411e-001
41334684.000	-8.504877e-001	-5.274687e-001
41340678.000	-8.505076e-001	-5.273719e-001
41346672.000	-8.505899e-001	-5.272786e-001
41352666.000	-8.505983e-001	-5.272870e-001
41358660.000	-8.506637e-001	-5.271887e-001
41364654.000	-8.506667e-001	-5.271167e-001
41370648.000	-8.507474e-001	-5.270223e-001
41376642.000	-8.507605e-001	-5.270195e-001
41382636.000	-8.507376e-001	-5.269169e-001
41388630.000	-8.508482e-001	-5.268301e-001
41394624.000	-8.508829e-001	-5.267717e-001
41400618.000	-8.508922e-001	-5.266952e-001
41406612.000	-8.509102e-001	-5.266200e-001
41412606.000	-8.510275e-001	-5.266012e-001
41418600.000	-8.510416e-001	-5.265156e-001
41424594.000	-8.510931e-001	-5.264396e-001
41430588.000	-8.511574e-001	-5.264007e-001
41436582.000	-8.511385e-001	-5.262999e-001
41442576.000	-8.512438e-001	-5.262512e-001
41448570.000	-8.512415e-001	-5.261763e-001
41454564.000	-8.512391e-001	-5.260810e-001
41460558.000	-8.513127e-001	-5.260864e-001
41466552.000	-8.513508e-001	-5.259600e-001
41472546.000	-8.513828e-001	-5.259784e-001
41478540.000	-8.514488e-001	-5.258192e-001
41484534.000	-8.515035e-001	-5.258229e-001
41490528.000	-8.515371e-001	-5.257396e-001
41496522.000	-8.515510e-001	-5.256301e-001
41502516.000	-8.516065e-001	-5.256406e-001
41508510.000	-8.516530e-001	-5.254927e-001
41514504.000	-8.516994e-001	-5.254761e-001
41520498.000	-8.516354e-001	-5.253740e-001
41526492.000	-8.517210e-001	-5.253135e-001
41532486.000	-8.517756e-001	-5.252394e-001
41538480.000	-8.518635e-001	-5.252205e-001
41544474.000	-8.518668e-001	-5.251338e-001
41550468.000	-8.518985e-001	-5.251056e-001
41556462.000	-8.519618e-001	-5.250507e-001
41562456.000	-8.520283e-001	-5.249261e-001
41568450.000	-8.520310e-001	-5.249000e-001
41574444.000	-8.520568e-001	-5.248089e-001
41580438.000	-8.521229e-001	-5.247812e-001
41586432.000	-8.521184e-001	-5.246812e-001
41592426.000	-8.522323e-001	-5.246609e-001
41598420.000	-8.522084e-001	-5.245654e-001
41604414.000	-8.522638e-001	-5.244652e-001
41610408.000	-8.523143e-001	-5.244143e-001
41616402.000	-8.523487e-001	-5.243709e-001
41622396.000	-8.523614e-001	-5.242463e-001
41628390.000	-8.524788e-001	-5.242207e-001
41634384.000	-8.524834e-001	-5.241686e-001
41640378.000	-8.524831e-001	-5.240846e-001
41646372.000	-8.526101e-001	-5.240440e-001
41652366.000	-8.525929e-001	-5.240060e-001
41658360.000	-8.526100e-001	-5.239122e-001
41664354.000	-8.526486e-001	-5.238090e-001
41670348.000	-8.526538e-001	-5.237606e-001
41676342.000	-8.527135e-001	-5.237075e-001
41682336.000	-8.528201e-001	-5.236237e-001
41688330.000	-8.527963e-001	-5.236083e-001
41694324.000	-8.528563e-001	-5.235324e-001
41700318.000	-8.528672e-001	-5.234150e-001
41706312.000	-8.529405e-001	-5.233739e-001
41712306.000	-8.529870e-001	-5.233067e-001
41718300.000	-8.529963e-001	-5.232760e-001
41724294.000	-8.530566e-001	-5.231878e-001
41730288.000	-8.530604e-001	-5.230988e-001
41736282.000	-8.531521e-001	-5.230613e-001
41742276.000	-8.531611e-001	-5.229929e-001
41748270.000	-8.532101e-001	-5.229193e-001
41754264.000	-8.532420e-001	-5.229198e-001
41760258.000	-8.532871e-001	-5.227912e-001
41766252.000	-8.533391e-001	-5.227682e-001
41772246.000	-8.533628e-001	-5.226670e-001
41778240.000	-8.533820e-001	-5.226330e-001
41784234.000	-8.533984e-001	-5.225383e-001
41790228.000	-8.534830e-001	-5.224997e-001
41796222.000	-8.535033e-001	-5.224410e-001
41802216.000	-8.535452e-001	-5.223141e-001
41808210.000	-8.536069e-001	-5.222848e-001
41814204.000	-8.536169e-001	-5.222381e-001
41820198.000	-8.536840e-001	-5.221477e-001
41826192.000	-8.537035e-001	-5.221175e-001
41832186.000	-8.537924e-001	-5.220663e-001
41838180.000	-8.537713e-001	-5.219404e-001
41844174.000	-8.537835e-001	-5.218700e-001
41850168.000	-8.538995e-001	-5.218148e-001
41856162.000	-8.539021e-001	-5.217908e-001
41862156.000	-8.539080e-001	-5.217074e-001
41868150.000	-8.540085e-001	-5.216459e-001
41874144.000	-8.540561e-001	-5.215701e-001
41880138.000	-8.541083e-001	-5.215747e-001
41886132.000	-8.541305e-001	-5.214274e-001
41892126.000	-8.541611e-001	-5.214321e-001
41898120.000	-8.541872e-001	-5.213029e-001
41904114.000	-8.541954e-001	-5.212862e-001
41910108.000	-8.542491e-001	-5.212448e-001
41916102.000	-8.543065e-001	-5.211624e-001
41922096.000	-8.543160e-001	-5.210433e-001
41928090.000	-8.543580e-001	-5.210119e-001
41934084.000	-8.544147e-001	-5.209524e-001
41940078.000	-8.544606e-001	-5.209028e-001
41946072.000	-8.545051e-001	-5.207425e-001
41952066.000	-8.545436e-001	-5.207808e-001
41958060.000	-8.545185e-001	-5.206937e-001
41964054.000	-8.545514e-001	-5.205691e-001
41970048.000	-8.546514e-001	-5.205559e-001
41976042.000	-8.546565e-001	-5.205064e-001
41982036.000	-8.546928e-001	-5.203948e-001
41988030.000	-8.547576e-001	-5.203446e-001
41994024.000	-8.547722e-001	-5.202965e-001
42000018.000	-8.548543e-001	-5.202237e-001
42006012.000	-8.548767e-001	-5.201934e-001
42012006.000	-8.549210e-001	-5.200679e-001
42018000.000	-8.549901e-001	-5.200867e-001
42023994.000	-8.549960e-001	-5.200056e-001
42029988.000	-8.550263e-001	-5.199514e-001
42035982.000	-8.550666e-001	-5.198319e-001
42041976.000	-8.551150e-001	-5.197919e-001
42047970.000	-8.551511e-001	-5.197186e-001
42053964.000	-8.551848e-001	-5.196597e-001
42059958.000	-8.552003e-001	-5.196085e-001
42065952.000	-8.552657e-001	-5.195357e-001
42071946.000	-8.553366e-001	-5.194426e-001
42077940.000	-8.553329e-001	-5.193957e-001
42083934.000	-8.553600e-001	-5.193019e-001
42089928.000	-8.554020e-001	-5.192974e-001
42095922.000	-8.554251e-001	-5.191763e-001
42101916.000	-8.554886e-001	-5.191081e-001
42107910.000	-8.555682e-001	-5.190778e-001
42113904.000	-8.555464e-001	-5.189813e-001
42119898.000	-8.555994e-001	-5.189221e-001
42125892.000	-8.556478e-001	-5.188861e-001
42131886.000	-8.556513e-001	-5.188132e-001
42137880.000	-8.557477e-001	-5.187817e-001
42143874.000	-8.557819e-001	-5.186888e-001
42149868.000	-8.558334e-001	-5.186835e-001
42155862.000	-8.558596e-001	-5.185758e-001
42161856.000	-8.558422e-001	-5.184896e-001
42167850.000	-8.558842e-001	-5.184709e-001
42173844.000	-8.559602e-001	-5.184088e-001
42179838.000	-8.560189e-001	-5.183092e-001
42185832.000	-8.560706e-001	-5.182934e-001
42191826.000	-8.560460e-001	-5.182488e-001
42197820.000	-8.561067e-001	-5.181393e-001
42203814.000	-8.561662e-001	-5.180922e-001
42209808.000	-8.562233e-001	-5.180687e-001
42215802.000	-8.562492e-001	-5.179518e-001
42221796.000	-8.562627e-001	-5.178728e-001
42227790.000	-8.562943e-001	-5.177998e-001
42233784.000	-8.563211e-001	-5.177254e-001
42239778.000	-8.563548e-001	-5.176654e-001
42245772.000	-8.563907e-001	-5.176430e-001
42251766.000	-8.564326e-001	-5.175596e-001
42257760.000	-8.564973e-001	-5.175187e-001
42263754.000	-8.565042e-001	-5.174560e-001
42269748.000	-8.565661e-001	-5.173927e-001
42275742.000	-8.566017e-001	-5.172570e-001
42281736.000	-8.566029e-001	-5.172169e-001
42287730.000	-8.566436e-001	-5.171792e-001
42293724.000	-8.567380e-001	-5.171207e-001
42299718.000	-8.568016e-001	-5.170881e-001
42305712.000	-8.567892e-001	-5.169854e-001
42311706.000	-8.568209e-001	-5.169288e-001
42317700.000	-8.568587e-001	-5.168875e-001
42323694.000	-8.569027e-001	-5.168108e-001
42329688.000	-8.568892e-001	-5.167371e-001
42335682.000	-8.569905e-001	-5.166440e-001
42341676.000	-8.570252e-001	-5.165757e-001
42347670.000	-8.570429e-001	-5.165161e-001
42353664.000	-8.570826e-001	-5.164605e-001
42359658.000	-8.570836e-001	-5.164003e-001
42365652.000	-8.571337e-001	-5.163484e-001
42371646.000	-8.571967e-001	-5.162744e-001
42377640.000	-8.572082e-001	-5.161953e-001
42383634.000	-8.572497e-001	-5.161663e-001
42389628.000	-8.572681e-001	-5.161278e-001
42395622.000	-8.573046e-001	-5.159835e-001
42401616.000	-8.573843e-001	-5.160089e-001
42407610.000	-8.574257e-001	-5.159285e-001
42413604.000	-8.574718e-001	-5.158976e-001
42419598.000	-8.574953e-001	-5.158044e-001
42425592.000	-8.574875e-001	-5.157490e-001
42431586.000	-8.575407e-001	-5.156871e-001
42437580.000	-8.575778e-001	-5.156156e-001
42443574.000	-8.576095e-001	-5.155719e-001
42449568.000	-8.576428e-001	-5.154907e-001
42455562.000	-8.577273e-001	-5.153980e-001
42461556.000	-8.577322e-001	-5.153237e-001
42467550.000	-8.578321e-001	-5.153275e-001
42473544.000	-8.578504e-001	-5.153194e-001
42479538.000	-8.578906e-001	-5.152173e-001
42485532.000	-8.579287e-001	-5.151580e-001
42491526.000	-8.579599e-001	-5.150269e-001
42497520.000	-8.580007e-001	-5.149731e-001
42503514.000	-8.580266e-001	-5.149035e-001
42509508.000	-8.580278e-001	-5.148158e-001
42515502.000	-8.580618e-001	-5.148125e-001
42521496.000	-8.581124e-001	-5.146905e-001
42527490.000	-8.581653e-001	-5.147139e-001
42533484.000	-8.581710e-001	-5.145906e-001
42539478.000	-8.582959e-001	-5.145541e-001
42545472.000	-8.583067e-001	-5.144388e-001
42551466.000	-8.582714e-001	-5.144111e-001
42557460.000	-8.583221e-001	-5.144090e-001
42563454.000	-8.584215e-001	-5.143462e-001
42569448.000	-8.584456e-001	-5.142145e-001
42575442.000	-8.585079e-001	-5.141859e-001
42581436.000	-8.585041e-001	-5.140861e-001
42587430.000	-8.585398e-001	-5.140706e-001
42593424.000	-8.585846e-001	-5.139889e-001
42599418.000	-8.586281e-001	-5.139221e-001
42605412.000	-8.586223e-001	-5.138489e-001
42611406.000	-8.586705e-001	-5.138340e-001
42617400.000	-8.586980e-001	-5.137603e-001
42623394.000	-8.587826e-001	-5.136819e-001
42629388.000	-8.587730e-001	-5.135700e-001
42635382.000	-8.588198e-001	-5.135284e-001
42641376.000	-8.588691e-001	-5.135427e-001
42647370.000	-8.589157e-001	-5.134133e-001
42653364.000	-8.589179e-001	-5.133890e-001
42659358.000	-8.589723e-001	-5.132973e-001
42665352.000	-8.589798e-001	-5.132235e-001
42671346.000	-8.590440e-001	-5.132116e-001
42677340.000	-8.590578e-001	-5.131089e-001
42683334.000	-8.591708e-001	-5.130947e-001
42689328.000	-8.591671e-001	-5.130341e-001
42695322.000	-8.591994e-001	-5.129653e-001
42701316.000	-8.592342e-001	-5.128701e-001
42707310.000	-8.593306e-001	-5.128105e-001
42713304.000	-8.592903e-001	-5.127513e-001
42719298.000	-8.593724e-001	-5.126702e-001
42725292.000	-8.594009e-001	-5.126323e-001
42731286.000	-8.594269e-001	-5.125669e-001
42737280.000	-8.594339e-001	-5.124387e-001
42743274.000	-8.594956e-001	-5.124756e-001
42749268.000	-8.595665e-001	-5.123940e-001
42755262.000	-8.595841e-001	-5.123457e-001
42761256.000	-8.595904e-001	-5.122337e-001
42767250.000	-8.596924e-001	-5.121864e-001
42773244.000	-8.597248e-001	-5.121271e-001
42779238.000	-8.597272e-001	-5.120508e-001
42785232.000	-8.597726e-001	-5.120287e-001
42791226.000	-8.598175e-001	-5.119805e-001
42797220.000	-8.598120e-001	-5.119059e-001
42803214.000	-8.598373e-001	-5.118434e-001
42809208.000	-8.599062e-001	-5.117455e-001
42815202.000	-8.599325e-001	-5.116955e-001
42821196.000	-8.599824e-001	-5.116197e-001
42827190.000	-8.599830e-001	-5.115938e-001
42833184.000	-8.600655e-001	-5.114948e-001
42839178.000	-8.600869e-001	-5.114142e-001
42845172.000	-8.600974e-001	-5.113577e-001
42851166.000	-8.601479e-001	-5.113226e-001
42857160.000	-8.601805e-001	-5.111924e-001
42863154.000	-8.601962e-001	-5.111988e-001
42869148.000	-8.602763e-001	-5.111198e-001
42875142.000	-8.602974e-001	-5.110453e-001
42881136.000	-8.602966e-001	-5.109972e-001
42887130.000	-8.603847e-001	-5.109355e-001
42893124.000	-8.604159e-001	-5.108992e-001
42899118.000	-8.604469e-001	-5.108165e-001
42905112.000	-8.604522e-001	-5.107306e-001
42911106.000	-8.604984e-001	-5.107028e-001
42917100.000	-8.605507e-001	-5.106156e-001
42923094.000	-8.606004e-001	-5.106086e-001
42929088.000	-8.606383e-001	-5.104955e-001
42935082.000	-8.606715e-001	-5.104211e-001
42941076.000	-8.607078e-001	-5.104312e-001
42947070.000	-8.607530e-001	-5.103707e-001
42953064.000	-8.607771e-001	-5.102599e-001
42959058.000	-8.607951e-001	-5.102527e-001
42965052.000	-8.608196e-001	-5.101895e-001
42971046.000	-8.608913e-001	-5.101142e-001
42977040.000	-8.608996e-001	-5.100354e-001
42983034.000	-8.609701e-001	-5.099056e-001
42989028.000	-8.609303e-001	-5.098929e-001
42995022.000	-8.610109e-001	-5.098537e-001
43001016.000	-8.610962e-001	-5.097363e-001
43007010.000	-8.611549e-001	-5.097112e-001
43013004.000	-8.610991e-001	-5.096695e-001
43018998.000	-8.611542e-001	-5.095702e-001
43024992.000	-8.612427e-001	-5.095307e-001
43030986.000	-8.612112e-001	-5.094831e-001
43036980.000	-8.612547e-001	-5.093547e-001
43042974.000	-8.612925e-001	-5.093532e-001
43048968.000	-8.613329e-001	-5.092566e-001
43054962.000	-8.613734e-001	-5.092468e-001
43060956.000	-8.613791e-001	-5.090539e-001
43066950.000	-8.614607e-001	-5.090759e-001
43072944.000	-8.614577e-001	-5.090239e-001
43078938.000	-8.615228e-001	-5.089315e-001
43084932.000	-8.615204e-001	-5.088579e-001
43090926.000	-8.615566e-001	-5.088309e-001
43096920.000	-8.615997e-001	-5.087388e-001
43102914.000	-8.616453e-001	-5.087125e-001
43108908.000	-8.616491e-001	-5.086446e-001
43114902.000	-8.616895e-001	-5.085460e-001
43120896.000	-8.617652e-001	-5.085383e-001
43126890.000	-8.618439e-001	-5.085051e-001
43132884.000	-8.618477e-001	-5.084070e-001
43138878.000	-8.618950e-001	-5.083816e-001
43144872.000	-8.619477e-001	-5.082851e-001
43150866.000	-8.619705e-001	-5.082326e-001
43156860.000	-8.620186e-001	-5.081743e-001
43162854.000	-8.620157e-001	-5.081221e-001
43168848.000	-8.620730e-001	-5.080725e-001
43174842.000	-8.620740e-001	-5.079487e-001
43180836.000	-8.621522e-001	-5.079437e-001
43186830.000	-8.621779e-001	-5.078678e-001
43192824.000	-8.621852e-001	-5.078130e-001
43198818.000	-8.622619e-001	-5.077554e-001
43204812.000	-8.622798e-001	-5.077134e-001
43210806.000	-8.623024e-001	-5.075900e-001
43216800.000	-8.623345e-001	-5.075432e-001
43222794.000	-8.623669e-001	-5.075127e-001
43228788.000	-8.624412e-001	-5.074597e-001
43234782.000	-8.624397e-001	-5.073876e-001
43240776.000	-8.624988e-001	-5.072885e-001
43246770.000	-8.624684e-001	-5.072352e-001
43252764.000	-8.625172e-001	-5.071812e-001
43258758.000	-8.625738e-001	-5.071488e-001
43264752.000	-8.626302e-001	-5.070614e-001
43270746.000	-8.626179e-001	-5.070135e-001
43276740.000	-8.626838e-001	-5.069199e-001
43282734.000	-8.627111e-001	-5.068831e-001
43288728.000	-8.627700e-001	-5.068115e-001
43294722.000	-8.627627e-001	-5.067805e-001
43300716.000	-8.628087e-001	-5.067069e-001
43306710.000	-8.628798e-001	-5.066453e-001
43312704.000	-8.629148e-001	-5.066334e-001
43318698.000	-8.629196e-001	-5.064478e-001
43324692.000	-8.629681e-001	-5.064638e-001
43330686.000	-8.630206e-001	-5.064166e-001
43336680.000	-8.630479e-001	-5.063689e-001
43342674.000	-8.630768e-001	-5.062532e-001
43348668.000	-8.630939e-001	-5.061658e-001
43354662.000	-8.631333e-001	-5.061591e-001
43360656.000	-8.631673e-001	-5.060348e-001
43366650.000	-8.631978e-001	-5.060349e-001
43372644.000	-8.632524e-001	-5.060037e-001
43378638.000	-8.632941e-001	-5.059151e-001
43384632.000	-8.633375e-001	-5.058213e-001
43390626.000	-8.633392e-001	-5.057876e-001
43396620.000	-8.633719e-001	-5.057103e-001
43402614.000	-8.633983e-001	-5.056676e-001
43408608.000	-8.634695e-001	-5.055193e-001
43414602.000	-8.635113e-001	-5.055431e-001
43420596.000	-8.635254e-001	-5.054471e-001
43426590.000	-8.635505e-001	-5.054219e-001
43432584.000	-8.635701e-001	-5.053321e-001
43438578.000	-8.636463e-001	-5.053189e-001
43444572.000	-8.636203e-001	-5.051937e-001
43450566.000	-8.636770e-001	-5.051143e-001
43456560.000	-8.637075e-001	-5.050845e-001
43462554.000	-8.637449e-001	-5.049938e-001
43468548.000	-8.637723e-001	-5.049893e-001
43474542.000	-8.638437e-001	-5.049553e-001
43480536.000	-8.638347e-001	-5.048512e-001
43486530.000	-8.638904e-001	-5.047783e-001
43492524.000	-8.639536e-001	-5.047369e-001
43498518.000	-8.639671e-001	-5.046658e-001
43504512.000	-8.639791e-001	-5.046292e-001
43510506.000	-8.640380e-001	-5.044777e-001
43516500.000	-8.640758e-001	-5.045039e-001
43522494.000	-8.640936e-001	-5.044561e-001
43528488.000	-8.641232e-001	-5.043684e-001
43534482.000	-8.642310e-001	-5.043533e-001
43540476.000	-8.642406e-001	-5.042943e-001
43546470.000	-8.642683e-001	-5.042216e-001
43552464.000	-8.642920e-001	-5.041115e-001
43558458.000	-8.643204e-001	-5.040582e-001
43564452.000	-8.643509e-001	-5.040332e-001
43570446.000	-8.644192e-001	-5.039757e-001
43576440.000	-8.643996e-001	-5.038853e-001
43582434.000	-8.644651e-001	-5.038300e-001
43588428.000	-8.645059e-001	-5.037598e-001
43594422.000	-8.645359e-001	-5.037179e-001
43600416.000	-8.645266e-001	-5.036311e-001
43606410.000	-8.646229e-001	-5.036129e-001
43612404.000	-8.646360e-001	-5.035249e-001
43618398.000	-8.646259e-001	-5.034823e-001
43624392.000	-8.646870e-001	-5.033472e-001
43630386.000	-8.647734e-001	-5.033657e-001
43636380.000	-8.648060e-001	-5.032501e-001
43642374.000	-8.647382e-001	-5.032530e-001
43648368.000	-8.648335e-001	-5.031600e-001
43654362.000	-8.648327e-001	-5.031420e-001
43660356.000	-8.649117e-001	-5.029912e-001
43666350.000	-8.649174e-001	-5.029485e-001
43672344.000	-8.649283e-001	-5.029276e-001
43678338.000	-8.649596e-001	-5.028302e-001
43684332.000	-8.650430e-001	-5.027707e-001
43690326.000	-8.650516e-001	-5.027307e-001
43696320.000	-8.651234e-001	-5.026801e-001
43702314.000	-8.651916e-001	-5.026171e-001
43708308.000	-8.651563e-001	-5.025629e-001
43714302.000	-8.651840e-001	-5.024689e-001
43720296.000	-8.652537e-001	-5.024681e-001
43726290.000	-8.652509e-001	-5.024222e-001
43732284.000	-8.652808e-001	-5.023841e-001
43738278.000	-8.653244e-001	-5.022167e-001
43744272.000	-8.653477e-001	-5.021766e-001
43750266.000	-8.653917e-001	-5.021553e-001
43756260.000	-8.654348e-001	-5.020711e-001
43762254.000	-8.654772e-001	-5.019915e-001
43768248.000	-8.654920e-001	-5.019641e-001
43774242.000	-8.655169e-001	-5.018875e-001
43780236.000	-8.655714e-001	-5.018931e-001
43786230.000	-8.656463e-001	-5.018544e-001
43792224.000	-8.656480e-001	-5.017384e-001
43798218.000	-8.656513e-001	-5.016502e-001
43804212.000	-8.657085e-001	-5.016049e-001
43810206.000	-8.656804e-001	-5.015194e-001
43816200.000	-8.657608e-001	-5.014614e-001
43822194.000	-8.658211e-001	-5.013903e-001
43828188.000	-8.658424e-001	-5.013868e-001
43834182.000	-8.658916e-001	-5.013067e-001
43840176.000	-8.658825e-001	-5.012123e-001
43846170.000	-8.659790e-001	-5.011797e-001
43852164.000	-8.660170e-001	-5.011254e-001
43858158.000	-8.659722e-001	-5.010486e-001
43864152.000	-8.660434e-001	-5.010056e-001
43870146.000	-8.660842e-001	-5.009386e-001
43876140.000	-8.661390e-001	-5.008809e-001
43882134.000	-8.661467e-001	-5.008104e-001
43888128.000	-8.661221e-001	-5.007540e-001
43894122.000	-8.662140e-001	-5.007106e-001
43900116.000	-8.662381e-001	-5.006317e-001
43906110.000	-8.662847e-001	-5.006073e-001
43912104.000	-8.663401e-001	-5.005257e-001
43918098.000	-8.663527e-001	-5.004562e-001
43924092.000	-8.663689e-001	-5.003654e-001
43930086.000	-8.664570e-001	-5.003570e-001
43936080.000	-8.664852e-001	-5.003057e-001
43942074.000	-8.665121e-001	-5.002656e-001
43948068.000	-8.665329e-001	-5.001654e-001
43954062.000	-8.665162e-001	-5.000833e-001
43960056.000	-8.665992e-001	-5.000035e-001
43966050.000	-8.666284e-001	-5.000115e-001
43972044.000	-8.666102e-001	-4.999029e-001
43978038.000	-8.667199e-001	-4.999119e-001
43984032.000	-8.666740e-001	-4.997598e-001
43990026.000	-8.667532e-001	-4.996866e-001
43996020.000	-8.667699e-001	-4.996855e-001
44002014.000	-8.668862e-001	-4.996543e-001
44008008.000	-8.668952e-001	-4.995638e-001
44014002.000	-8.669132e-001	-4.995666e-001
44019996.000	-8.669092e-001	-4.994499e-001
44025990.000	-8.669747e-001	-4.994478e-001
44031984.000	-8.670506e-001	-4.993952e-001
44037978.000	-8.670341e-001	-4.993109e-001
44043972.000	-8.670932e-001	-4.992527e-001
44049966.000	-8.671274e-001	-4.992161e-001
44055960.000	-8.671714e-001	-4.991201e-001
44061954.000	-8.671587e-001	-4.990142e-001
44067948.000	-8.671756e-001	-4.990066e-001
44073942.000	-8.672949e-001	-4.989573e-001
44079936.000	-8.672490e-001	-4.988401e-001
44085930.000	-8.673090e-001	-4.988491e-001
44091924.000	-8.673284e-001	-4.986907e-001
44097918.000	-8.673800e-001	-4.986653e-001
44103912.000	-8.674113e-001	-4.986480e-001
44109906.000	-8.674686e-001	-4.985483e-001
44115900.000	-8.674823e-001	-4.985197e-001
44121894.000	-8.674824e-001	-4.984527e-001
44127888.000	-8.675473e-001	-4.983516e-001
44133882.000	-8.676068e-001	-4.983581e-001
44139876.000	-8.675962e-001	-4.983040e-001
44145870.000	-8.676632e-001	-4.982790e-001
44151864.000	-8.676861e-001	-4.981722e-001
44157858.000	-8.677062e-001	-4.981217e-001
44163852.000	-8.677292e-001	-4.980474e-001
44169846.000	-8.677784e-001	-4.980080e-001
44175840.000	-8.677998e-001	-4.979523e-001
44181834.000	-8.678442e-001	-4.978938e-001
44187828.000	-8.678922e-001	-4.978066e-001
44193822.000	-8.678877e-001	-4.977680e-001
44199816.000	-8.679553e-001	-4.976970e-001
44205810.000	-8.679353e-001	-4.976133e-001
44211804.000	-8.679994e-001	-4.975758e-001
44217798.000	-8.680533e-001	-4.975529e-001
44223792.000	-8.680848e-001	-4.974513e-001
44229786.000	-8.680927e-001	-4.973498e-001
44235780.000	-8.682004e-001	-4.973418e-001
44241774.000	-8.681959e-001	-4.972671e-001
44247768.000	-8.682005e-001	-4.971860e-001
44253762.000	-8.682550e-001	-4.971320e-001
44259756.000	-8.682183e-001	-4.970747e-001
44265750.000	-8.683162e-001	-4.970437e-001
44271744.000	-8.683571e-001	-4.970126e-001
44277738.000	-8.683648e-001	-4.969452e-001
44283732.000	-8.684153e-001	-4.968177e-001
44289726.000	-8.684839e-001	-4.968449e-001
44295720.000	-8.685651e-001	-4.967853e-001
44301714.000	-8.685644e-001	-4.967109e-001
44307708.000	-8.685360e-001	-4.966381e-001
44313702.000	-8.685635e-001	-4.965688e-001
44319696.000	-8.686611e-001	-4.965552e-001
44325690.000	-8.686195e-001	-4.964537e-001
44331684.000	-8.687175e-001	-4.964047e-001
44337678.000	-8.687214e-001	-4.963928e-001
44343672.000	-8.687494e-001	-4.963034e-001
44349666.000	-8.688262e-001	-4.962865e-001
44355660.000	-8.688286e-001	-4.961199e-001
44361654.000	-8.688446e-001	-4.960685e-001
44367648.000	-8.688576e-001	-4.960486e-001
44373642.000	-8.689622e-001	-4.959812e-001
44379636.000	-8.689360e-001	-4.959485e-001
44385630.000	-8.689915e-001	-4.958836e-001
44391624.000	-8.689366e-001	-4.957998e-001
44397618.000	-8.690726e-001	-4.957204e-001
44403612.000	-8.690336e-001	-4.957317e-001
44409606.000	-8.691254e-001	-4.956103e-001
44415600.000	-8.691158e-001	-4.955868e-001
44421594.000	-8.691711e-001	-4.955919e-001
44427588.000	-8.692092e-001	-4.954449e-001
44433582.000	-8.692731e-001	-4.954050e-001
44439576.000	-8.692955e-001	-4.953619e-001
44445570.000	-8.692770e-001	-4.953161e-001
44451564.000	-8.693601e-001	-4.952577e-001
44457558.000	-8.694111e-001	-4.952404e-001
44463552.000	-8.694107e-001	-4.951347e-001
44469546.000	-8.694243e-001	-4.950702e-001
44475540.000	-8.694722e-001	-4.949900e-001
44481534.000	-8.695044e-001	-4.949361e-001
44487528.000	-8.695150e-001	-4.948529e-001
44493522.000	-8.695874e-001	-4.947515e-001
44499516.000	-8.695972e-001	-4.948183e-001
44505510.000	-8.696288e-001	-4.947254e-001
44511504.000	-8.696823e-001	-4.946237e-001
44517498.000	-8.697340e-001	-4.945885e-001
44523492.000	-8.697503e-001	-4.945397e-001
44529486.000	-8.697919e-001	-4.944739e-001
44535480.000	-8.697889e-001	-4.944351e-001
44541474.000	-8.697972e-001	-4.943382e-001
44547468.000	-8.698443e-001	-4.942719e-001
44553462.000	-8.698994e-001	-4.942059e-001
44559456.000	-8.699125e-001	-4.942192e-001
44565450.000	-8.699440e-001	-4.940808e-001
44571444.000	-8.700149e-001	-4.940791e-001
44577438.000	-8.700156e-001	-4.939931e-001
44583432.000	-8.700392e-001	-4.939639e-001
44589426.000	-8.700940e-001	-4.938859e-001
44595420.000	-8.701200e-001	-4.938320e-001
44601414.000	-8.701298e-001	-4.937708e-001
44607408.000	-8.701757e-001	-4.937038e-001
44613402.000	-8.702423e-001	-4.936672e-001
44619396.000	-8.702791e-001	-4.936311e-001
44625390.000	-8.702966e-001	-4.935665e-001
44631384.000	-8.703269e-001	-4.935009e-001
44637378.000	-8.703633e-001	-4.934424e-001
44643372.000	-8.703779e-001	-4.934028e-001
44649366.000	-8.704279e-001	-4.932848e-001
44655360.000	-8.704753e-001	-4.932601e-001
44661354.000	-8.704336e-001	-4.931154e-001
44667348.000	-8.704904e-001	-4.931447e-001
44673342.000	-8.705338e-001	-4.930770e-001
44679336.000	-8.705772e-001	-4.930215e-001
44685330.000	-8.706161e-001	-4.929852e-001
44691324.000	-8.706704e-001	-4.928790e-001
44697318.000	-8.707102e-001	-4.928733e-001
44703312.000	-8.706536e-001	-4.927495e-001
44709306.000	-8.707099e-001	-4.926926e-001
44715300.000	-8.707439e-001	-4.926461e-001
44721294.000	-8.708408e-001	-4.926188e-001
44727288.000	-8.708334e-001	-4.925482e-001
44733282.000	-8.708640e-001	-4.924886e-001
44739276.000	-8.708605e-001	-4.924289e-001
44745270.000	-8.709893e-001	-4.923974e-001
44751264.000	-8.709803e-001	-4.923116e-001
44757258.000	-8.710151e-001	-4.922752e-001
44763252.000	-8.709821e-001	-4.922144e-001
44769246.000	-8.710356e-001	-4.922048e-001
44775240.000	-8.710491e-001	-4.920588e-001
44781234.000	-8.710886e-001	-4.920434e-001
44787228.000	-8.711300e-001	-4.919368e-001
44793222.000	-8.711466e-001	-4.918694e-001
44799216.000	-8.711912e-001	-4.918584e-001
44805210.000	-8.712420e-001	-4.917533e-001
44811204.000	-8.712960e-001	-4.917246e-001
44817198.000	-8.713009e-001	-4.916977e-001
44823192.000	-8.713343e-001	-4.915931e-001
44829186.000	-8.713511e-001	-4.915633e-001
44835180.000	-8.714151e-001	-4.915344e-001
44841174.000	-8.714651e-001	-4.914940e-001
44847168.000	-8.714572e-001	-4.913728e-001
44853162.000	-8.715036e-001	-4.913203e-001
44859156.000	-8.715361e-001	-4.912488e-001
44865150.000	-8.715494e-001	-4.912284e-001
44871144.000	-8.715601e-001	-4.911493e-001
44877138.000	-8.716173e-001	-4.910701e-001
44883132.000	-8.716858e-001	-4.909726e-001
44889126.000	-8.716392e-001	-4.909924e-001
44895120.000	-8.717021e-001	-4.909348e-001
44901114.000	-8.717836e-001	-4.909217e-001
44907108.000	-8.717673e-001	-4.908120e-001
44913102.000	-8.717887e-001	-4.907709e-001
44919096.000	-8.718504e-001	-4.907223e-001
44925090.000	-8.718947e-001	-4.906686e-001
44931084.000	-8.719052e-001	-4.906046e-001
44937078.000	-8.719146e-001	-4.905137e-001
44943072.000	-8.719892e-001	-4.904479e-001
44949066.000	-8.720051e-001	-4.904137e-001
44955060.000	-8.719676e-001	-4.903160e-001
44961054.000	-8.720545e-001	-4.903303e-001
44967048.000	-8.721251e-001	-4.902497e-001
44973042.000	-8.721291e-001	-4.901300e-001
44979036.000	-8.721361e-001	-4.900850e-001
44985030.000	-8.722191e-001	-4.900339e-001
44991024.000	-8.722097e-001	-4.899873e-001
44997018.000	-8.722615e-001	-4.899657e-001
45003012.000	-8.723412e-001	-4.899209e-001
45009006.000	-8.723164e-001	-4.898551e-001
45015000.000	-8.723528e-001	-4.897712e-001
45020994.000	-8.723255e-001	-4.897312e-001
45026988.000	-8.723774e-001	-4.896734e-001
45032982.000	-8.724517e-001	-4.895788e-001
45038976.000	-8.725101e-001	-4.895153e-001
45044970.000	-8.725060e-001	-4.894766e-001
45050964.000	-8.725320e-001	-4.894214e-001
45056958.000	-8.725794e-001	-4.893804e-001
45062952.000	-8.726194e-001	-4.892776e-001
45068946.000	-8.725894e-001	-4.892643e-001
45074940.000	-8.726867e-001	-4.891449e-001
45080934.000	-8.726922e-001	-4.891116e-001
45086928.000	-8.727030e-001	-4.890903e-001
45092922.000	-8.727426e-001	-4.890141e-001
45098916.000	-8.727951e-001	-4.889939e-001
45104910.000	-8.728258e-001	-4.889109e-001
45110904.000	-8.728735e-001	-4.888150e-001
45116898.000	-8.729106e-001	-4.887969e-001
45122892.000	-8.729261e-001	-4.887740e-001
45128886.000	-8.730158e-001	-4.886749e-001
45134880.000	-8.729975e-001	-4.886160e-001
45140874.000	-8.730652e-001	-4.885774e-001
45146868.000	-8.730826e-001	-4.885321e-001
45152862.000	-8.730911e-001	-4.884312e-001
45158856.000	-8.730940e-001	-4.883964e-001
45164850.000	-8.731617e-001	-4.883629e-001
45170844.000	-8.731700e-001	-4.882950e-001
45176838.000	-8.732096e-001	-4.882196e-001
45182832.000	-8.732668e-001	-4.881433e-001
45188826.000	-8.732714e-001	-4.881248e-001
45194820.000	-8.733089e-001	-4.880906e-001
45200814.000	-8.732999e-001	-4.879901e-001
45206808.000	-8.733450e-001	-4.879773e-001
45212802.000	-8.734437e-001	-4.878880e-001
45218796.000	-8.733991e-001	-4.878046e-001
45224790.000	-8.734301e-001	-4.877279e-001
45230784.000	-8.734431e-001	-4.876519e-001
45236778.000	-8.734735e-001	-4.876295e-001
45242772.000	-8.735148e-001	-4.875442e-001
45248766.000	-8.735350e-001	-4.875053e-001
45254760.000	-8.736194e-001	-4.874675e-001
45260754.000	-8.736214e-001	-4.873776e-001
45266748.000	-8.737131e-001	-4.873615e-001
45272742.000	-8.737307e-001	-4.873316e-001
45278736.000	-8.736838e-001	-4.872319e-001
45284730.000	-8.737663e-001	-4.872252e-001
45290724.000	-8.737879e-001	-4.871470e-001
45296718.000	-8.738312e-001	-4.870380e-001
45302712.000	-8.738591e-001	-4.870388e-001
45308706.000	-8.738997e-001	-4.870046e-001
45314700.000	-8.739354e-001	-4.869324e-001
45320694.000	-8.739433e-001	-4.869247e-001
45326688.000	-8.739756e-001	-4.867928e-001
45332682.000	-8.740258e-001	-4.867631e-001
45338676.000	-8.740305e-001	-4.867315e-001
45344670.000	-8.740765e-001	-4.866137e-001
45350664.000	-8.740736e-001	-4.865949e-001
45356658.000	-8.741151e-001	-4.865080e-001
45362652.000	-8.741754e-001	-4.864931e-001
45368646.000	-8.741847e-001	-4.864595e-001
45374640.000	-8.742471e-001	-4.863400e-001
45380634.000	-8.743100e-001	-4.863581e-001
45386628.000	-8.742690e-001	-4.862594e-001
45392622.000	-8.742738e-001	-4.861984e-001
45398616.000	-8.743592e-001	-4.861602e-001
45404610.000	-8.743619e-001	-4.860310e-001
45410604.000	-8.743949e-001	-4.860191e-001
45416598.000	-8.745176e-001	-4.860120e-001
45422592.000	-8.744723e-001	-4.858933e-001
45428586.000	-8.745662e-001	-4.858517e-001
45434580.000	-8.745340e-001	-4.858047e-001
45440574.000	-8.745793e-001	-4.857366e-001
45446568.000	-8.746452e-001	-4.857124e-001
45452562.000	-8.746191e-001	-4.856201e-001
45458556.000	-8.746898e-001	-4.855670e-001
45464550.000	-8.746998e-001	-4.855627e-001
45470544.000	-8.747416e-001	-4.854817e-001
45476538.000	-8.747914e-001	-4.853756e-001
45482532.000	-8.748295e-001	-4.853564e-001
45488526.000	-8.748557e-001	-4.853051e-001
45494520.000	-8.748670e-001	-4.852171e-001
45500514.000	-8.749025e-001	-4.851926e-001
45506508.000	-8.748942e-001	-4.851457e-001
45512502.000	-8.749412e-001	-4.850325e-001
45518496.000	-8.749787e-001	-4.849834e-001
45524490.000	-8.750341e-001	-4.849882e-001
45530484.000	-8.750627e-001	-4.849606e-001
45536478.000	-8.751241e-001	-4.848482e-001
45542472.000	-8.751975e-001	-4.848548e-001
45548466.000	-8.751661e-001	-4.847159e-001
45554460.000	-8.751795e-001	-4.846782e-001
45560454.000	-8.752127e-001	-4.846260e-001
45566448.000	-8.752977e-001	-4.846078e-001
45572442.000	-8.752548e-001	-4.845213e-001
45578436.000	-8.753705e-001	-4.844272e-001
45584430.000	-8.753180e-001	-4.843892e-001
45590424.000	-8.753612e-001	-4.843601e-001
45596418.000	-8.753900e-001	-4.842432e-001
45602412.000	-8.754381e-001	-4.842161e-001
45608406.000	-8.754324e-001	-4.841493e-001
45614400.000	-8.755009e-001	-4.841091e-001
45620394.000	-8.754884e-001	-4.840005e-001
45626388.000	-8.755726e-001	-4.840083e-001
45632382.000	-8.755600e-001	-4.839742e-001
45638376.000	-8.756094e-001	-4.838863e-001
45644370.000	-8.756361e-001	-4.838261e-001
45650364.000	-8.756552e-001	-4.837553e-001
45656358.000	-8.757137e-001	-4.836936e-001
45662352.000	-8.757596e-001	-4.836763e-001
45668346.000	-8.757624e-001	-4.836243e-001
45674340.000	-8.757801e-001	-4.835268e-001
45680334.000	-8.758254e-001	-4.834970e-001
45686328.000	-8.758561e-001	-4.834860e-001
45692322.000	-8.758740e-001	-4.833914e-001
45698316.000	-8.759269e-001	-4.833505e-001
45704310.000	-8.759291e-001	-4.832802e-001
45710304.000	-8.759500e-001	-4.832660e-001
45716298.000	-8.759848e-001	-4.831880e-001
45722292.000	-8.760165e-001	-4.831327e-001
45728286.000	-8.760519e-001	-4.830771e-001
45734280.000	-8.760898e-001	-4.829534e-001
45740274.000	-8.760833e-001	-4.829637e-001
45746268.000	-8.761602e-001	-4.829068e-001
45752262.000	-8.761756e-001	-4.828445e-001
45758256.000	-8.761795e-001	-4.827739e-001
45764250.000	-8.762237e-001	-4.827150e-001
45770244.000	-8.762713e-001	-4.826564e-001
45776238.000	-8.763097e-001	-4.826194e-001
45782232.000	-8.763306e-001	-4.825339e-001
45788226.000	-8.763306e-001	-4.825168e-001
45794220.000	-8.763970e-001	-4.824027e-001
45800214.000	-8.764285e-001	-4.824113e-001
45806208.000	-8.764470e-001	-4.823391e-001
45812202.000	-8.764640e-001	-4.822361e-001
45818196.000	-8.764725e-001	-4.822042e-001
45824190.000	-8.765022e-001	-4.821702e-001
45830184.000	-8.765354e-001	-4.820648e-001
45836178.000	-8.766050e-001	-4.820610e-001
45842172.000	-8.766360e-001	-4.820279e-001
45848166.000	-8.767016e-001	-4.819087e-001
45854160.000	-8.767033e-001	-4.818735e-001
45860154.000	-8.767334e-001	-4.818730e-001
45866148.000	-8.767927e-001	-4.817833e-001
45872142.000	-8.767564e-001	-4.817140e-001
45878136.000	-8.768058e-001	-4.816719e-001
45884130.000	-8.768098e-001	-4.815972e-001
45890124.000	-8.768931e-001	-4.815529e-001
45896118.000	-8.769079e-001	-4.814754e-001
45902112.000	-8.769390e-001	-4.814624e-001
45908106.000	-8.769505e-001	-4.814003e-001
45914100.000	-8.770140e-001	-4.813851e-001
45920094.000	-8.770063e-001	-4.812932e-001
45926088.000	-8.770922e-001	-4.812354e-001
45932082.000	-8.770591e-001	-4.812270e-001
45938076.000	-8.771353e-001	-4.811382e-001
45944070.000	-8.771022e-001	-4.810651e-001
45950064.000	-8.771640e-001	-4.810267e-001
45956058.000	-8.771846e-001	-4.809519e-001
45962052.000	-8.772220e-001	-4.809201e-001
45968046.000	-8.772847e-001	-4.808502e-001
45974040.000	-8.772864e-001	-4.807404e-001
45980034.000	-8.772772e-001	-4.806819e-001
45986028.000	-8.773217e-001	-4.807050e-001
45992022.000	-8.773815e-001	-4.806278e-001
45998016.000	-8.774203e-001	-4.805704e-001
46004010.000	-8.774516e-001	-4.805443e-001
46010004.000	-8.774518e-001	-4.804290e-001
46015998.000	-8.774668e-001	-4.804379e-001
46021992.000	-8.775520e-001	-4.803651e-001
46027986.000	-8.776010e-001	-4.802703e-001
46033980.000	-8.775775e-001	-4.801969e-001
46039974.000	-8.776058e-001	-4.801241e-001
46045968.000	-8.776435e-001	-4.801242e-001
46051962.000	-8.776551e-001	-4.800919e-001
46057956.000	-8.776693e-001	-4.799639e-001
46063950.000	-8.777584e-001	-4.799401e-001
46069944.000	-8.777017e-001	-4.798349e-001
46075938.000	-8.777816e-001	-4.797892e-001
46081932.000	-8.778014e-001	-4.797431e-001
46087926.000	-8.777754e-001	-4.796664e-001
46093920.000	-8.779023e-001	-4.796627e-001
46099914.000	-8.778964e-001	-4.796081e-001
46105908.000	-8.779259e-001	-4.795615e-001
46111902.000	-8.779421e-001	-4.795345e-001
46117896.000	-8.779820e-001	-4.794170e-001
46123890.000	-8.780179e-001	-4.793994e-001
46129884.000	-8.780445e-001	-4.793568e-001
46135878.000	-8.780714e-001	-4.792736e-001
46141872.000	-8.781251e-001	-4.792303e-001
46147866.000	-8.781345e-001	-4.791846e-001
46153860.000	-8.781692e-001	-4.790469e-001
46159854.000	-8.781640e-001	-4.790432e-001
46165848.000	-8.782248e-001	-4.789986e-001
46171842.000	-8.782343e-001	-4.789416e-001
46177836.000	-8.782547e-001	-4.788993e-001
46183830.000	-8.782988e-001	-4.788612e-001
46189824.000	-8.783372e-001	-4.787639e-001
46195818.000	-8.783619e-001	-4.787307e-001
46201812.000	-8.783945e-001	-4.786638e-001
46207806.000	-8.784057e-001	-4.785956e-001
46213800.000	-8.784410e-001	-4.785622e-001
46219794.000	-8.785101e-001	-4.784914e-001
46225788.000	-8.785076e-001	-4.784153e-001
46231782.000	-8.785257e-001	-4.783841e-001
46237776.000	-8.785899e-001	-4.782920e-001
46243770.000	-8.786028e-001	-4.782804e-001
46249764.000	-8.786405e-001	-4.781877e-001
46255758.000	-8.786659e-001	-4.781552e-001
46261752.000	-8.787446e-001	-4.781707e-001
46267746.000	-8.787326e-001	-4.780776e-001
46273740.000	-8.787203e-001	-4.779984e-001
46279734.000	-8.787978e-001	-4.779611e-001
46285728.000	-8.788424e-001	-4.779551e-001
46291722.000	-8.788248e-001	-4.778348e-001
46297716.000	-8.788654e-001	-4.778093e-001
46303710.000	-8.788976e-001	-4.777426e-001
46309704.000	-8.788897e-001	-4.776045e-001
46315698.000	-8.789795e-001	-4.776203e-001
46321692.000	-8.789867e-001	-4.775677e-001
46327686.000	-8.790397e-001	-4.775099e-001
46333680.000	-8.789825e-001	-4.774805e-001
46339674.000	-8.790893e-001	-4.774070e-001
46345668.000	-8.791284e-001	-4.773030e-001
46351662.000	-8.791191e-001	-4.772751e-001
46357656.000	-8.791474e-001	-4.772160e-001
46363650.000	-8.791673e-001	-4.772104e-001
46369644.000	-8.791822e-001	-4.771487e-001
46375638.000	-8.792732e-001	-4.770775e-001
46381632.000	-8.792350e-001	-4.770108e-001
46387626.000	-8.792797e-001	-4.770036e-001
46393620.000	-8.793162e-001	-4.769198e-001
46399614.000	-8.793103e-001	-4.768350e-001
46405608.000	-8.793976e-001	-4.768074e-001
46411602.000	-8.793887e-001	-4.767233e-001
46417596.000	-8.794566e-001	-4.767273e-001
46423590.000	-8.794413e-001	-4.766344e-001
46429584.000	-8.794996e-001	-4.766041e-001
46435578.000	-8.795135e-001	-4.765665e-001
46441572.000	-8.795832e-001	-4.764556e-001
46447566.000	-8.796100e-001	-4.763775e-001
46453560.000	-8.796295e-001	-4.763079e-001
46459554.000	-8.796371e-001	-4.763059e-001
46465548.000	-8.796452e-001	-4.762490e-001
46471542.000	-8.797318e-001	-4.762020e-001
46477536.000	-8.796783e-001	-4.761517e-001
46483530.000	-8.797581e-001	-4.760841e-001
46489524.000	-8.797988e-001	-4.760301e-001
46495518.000	-8.798063e-001	-4.759703e-001
46501512.000	-8.798392e-001	-4.758948e-001
46507506.000	-8.798772e-001	-4.758649e-001
46513500.000	-8.798470e-001	-4.757946e-001
46519494.000	-8.799052e-001	-4.757759e-001
46525488.000	-8.799604e-001	-4.756991e-001
46531482.000	-8.800004e-001	-4.756056e-001
46537476.000	-8.800392e-001	-4.755629e-001
46543470.000	-8.800529e-001	-4.755474e-001
46549464.000	-8.800493e-001	-4.754360e-001
46555458.000	-8.801123e-001	-4.753732e-001
46561452.000	-8.801275e-001	-4.753795e-001
46567446.000	-8.801597e-001	-4.753234e-001
46573440.000	-8.801747e-001	-4.753513e-001
46579434.000	-8.802317e-001	-4.752145e-001
46585428.000	-8.802166e-001	-4.751212e-001
46591422.000	-8.802493e-001	-4.751207e-001
46597416.000	-8.803399e-001	-4.750478e-001
46603410.000	-8.802840e-001	-4.750129e-001
46609404.000	-8.803244e-001	-4.749495e-001
46615398.000	-8.803437e-001	-4.749022e-001
46621392.000	-8.804004e-001	-4.748008e-001
46627386.000	-8.804406e-001	-4.747881e-001
46633380.000	-8.804747e-001	-4.747154e-001
46639374.000	-8.804782e-001	-4.746942e-001
46645368.000	-8.805224e-001	-4.745908e-001
46651362.000	-8.805519e-001	-4.745640e-001
46657356.000	-8.805797e-001	-4.744906e-001
46663350.000	-8.806052e-001	-4.744223e-001
46669344.000	-8.806272e-001	-4.743624e-001
46675338.000	-8.806376e-001	-4.743598e-001
46681332.000	-8.806766e-001	-4.742693e-001
46687326.000	-8.807333e-001	-4.742657e-001
46693320.000	-8.807830e-001	-4.742270e-001
46699314.000	-8.807543e-001	-4.741250e-001
46705308.000	-8.808220e-001	-4.740916e-001
46711302.000	-8.808561e-001	-4.740524e-001
46717296.000	-8.809013e-001	-4.740239e-001
46723290.000	-8.809407e-001	-4.739511e-001
46729284.000	-8.809598e-001	-4.738462e-001
46735278.000	-8.809547e-001	-4.738077e-001
46741272.000	-8.809841e-001	-4.737496e-001
46747266.000	-8.810607e-001	-4.737470e-001
46753260.000	-8.810361e-001	-4.736255e-001
46759254.000	-8.810409e-001	-4.735838e-001
46765248.000	-8.810921e-001	-4.735256e-001
46771242.000	-8.811010e-001	-4.734817e-001
46777236.000	-8.811390e-001	-4.734436e-001
46783230.000	-8.812043e-001	-4.733894e-001
46789224.000	-8.812043e-001	-4.732785e-001
46795218.000	-8.812304e-001	-4.732909e-001
46801212.000	-8.812351e-001	-4.732319e-001
46807206.000	-8.812823e-001	-4.731702e-001
46813200.000	-8.813119e-001	-4.730787e-001
46819194.000	-8.813286e-001	-4.730766e-001
46825188.000	-8.813878e-001	-4.729748e-001
46831182.000	-8.814277e-001	-4.729369e-001
46837176.000	-8.814576e-001	-4.728957e-001
46843170.000	-8.814561e-001	-4.728333e-001
46849164.000	-8.814470e-001	-4.727818e-001
46855158.000	-8.815618e-001	-4.727574e-001
46861152.000	-8.815773e-001	-4.726628e-001
46867146.000	-8.815968e-001	-4.726171e-001
46873140.000	-8.816133e-001	-4.725712e-001
46879134.000	-8.816594e-001	-4.725933e-001
46885128.000	-8.816470e-001	-4.724489e-001
46891122.000	-8.817305e-001	-4.724205e-001
46897116.000	-8.817537e-001	-4.723678e-001
46903110.000	-8.817979e-001	-4.723483e-001
46909104.000	-8.817969e-001	-4.722000e-001
46915098.000	-8.818042e-001	-4.722329e-001
46921092.000	-8.818036e-001	-4.721390e-001
46927086.000	-8.818746e-001	-4.721008e-001
46933080.000	-8.818688e-001	-4.720843e-001
46939074.000	-8.818910e-001	-4.720548e-001
46945068.000	-8.819464e-001	-4.719528e-001
46951062.000	-8.820071e-001	-4.718754e-001
46957056.000	-8.820497e-001	-4.718900e-001
46963050.000	-8.820234e-001	-4.717841e-001
46969044.000	-8.820853e-001	-4.717459e-001
46975038.000	-8.820895e-001	-4.716432e-001
46981032.000	-8.821016e-001	-4.716714e-001
46987026.000	-8.821498e-001	-4.715800e-001
46993020.000	-8.821705e-001	-4.715597e-001
46999014.000	-8.822156e-001	-4.714526e-001
47005008.000	-8.822423e-001	-4.714187e-001
47011002.000	-8.822426e-001	-4.713579e-001
47016996.000	-8.822678e-001	-4.712823e-001
47022990.000	-8.823479e-001	-4.712953e-001
47028984.000	-8.823061e-001	-4.711573e-001
47034978.000	-8.823837e-001	-4.711594e-001
47040972.000	-8.824193e-001	-4.711232e-001
47046966.000	-8.824539e-001	-4.710265e-001
47052960.000	-8.824245e-001	-4.709321e-001
47058954.000	-8.824715e-001	-4.709214e-001
47064948.000	-8.825136e-001	-4.708585e-001
47070942.000	-8.825470e-001	-4.708260e-001
47076936.000	-8.825507e-001	-4.707828e-001
47082930.000	-8.825615e-001	-4.706901e-001
47088924.000	-8.825905e-001	-4.706405e-001
47094918.000	-8.826412e-001	-4.705708e-001
47100912.000	-8.826419e-001	-4.705190e-001
47106906.000	-8.827197e-001	-4.704782e-001
47112900.000	-8.826897e-001	-4.704233e-001
47118894.000	-8.827651e-001	-4.703808e-001
47124888.000	-8.827522e-001	-4.702968e-001
47130882.000	-8.828569e-001	-4.703004e-001
47136876.000	-8.828568e-001	-4.702158e-001
47142870.000	-8.828976e-001	-4.701814e-001
47148864.000	-8.829012e-001	-4.701643e-001
47154858.000	-8.829599e-001	-4.700983e-001
47160852.000	-8.829701e-001	-4.700376e-001
47166846.000	-8.829904e-001	-4.699892e-001
47172840.000	-8.830030e-001	-4.699593e-001
47178834.000	-8.829752e-001	-4.698514e-001
47184828.000	-8.830187e-001	-4.698068e-001
47190822.000	-8.831007e-001	-4.697428e-001
47196816.000	-8.831000e-001	-4.697080e-001
47202810.000	-8.831364e-001	-4.697103e-001
47208804.000	-8.831684e-001	-4.695846e-001
47214798.000	-8.831769e-001	-4.695606e-001
47220792.000	-8.832353e-001	-4.695393e-001
47226786.000	-8.832719e-001	-4.694048e-001
47232780.000	-8.832506e-001	-4.694158e-001
47238774.000	-8.832879e-001	-4.693001e-001
47244768.000	-8.833155e-001	-4.692684e-001
47250762.000	-8.833515e-001	-4.691896e-001
47256756.000	-8.834139e-001	-4.691497e-001
47262750.000	-8.834079e-001	-4.691585e-001
47268744.000	-8.834436e-001	-4.690916e-001
47274738.000	-8.834712e-001	-4.690054e-001
47280732.000	-8.835316e-001	-4.689935e-001
47286726.000	-8.835441e-001	-4.689213e-001
47292720.000	-8.835917e-001	-4.688581e-001
47298714.000	-8.836056e-001	-4.687828e-001
47304708.000	-8.836306e-001	-4.687814e-001
47310702.000	-8.836384e-001	-4.686991e-001
47316696.000	-8.836875e-001	-4.686345e-001
47322690.000	-8.836654e-001	-4.685904e-001
47328684.000	-8.837575e-001	-4.685446e-001
47334678.000	-8.838051e-001	-4.684875e-001
47340672.000	-8.837354e-001	-4.684270e-001
47346666.000	-8.837919e-001	-4.683850e-001
47352660.000	-8.838195e-001	-4.682986e-001
47358654.000	-8.838377e-001	-4.681923e-001
47364648.000	-8.839578e-001	-4.682079e-001
47370642.000	-8.838667e-001	-4.681231e-001
47376636.000	-8.839415e-001	-4.680968e-001
47382630.000	-8.839373e-001	-4.680302e-001
47388624.000	-8.839949e-001	-4.679672e-001
47394618.000	-8.840029e-001	-4.679346e-001
47400612.000	-8.840288e-001	-4.678553e-001
47406606.000	-8.840366e-001	-4.678072e-001
47412600.000	-8.840576e-001	-4.677793e-001
47418594.000	-8.841292e-001	-4.677289e-001
47424588.000	-8.841642e-001	-4.676917e-001
47430582.000	-8.841392e-001	-4.676447e-001
47436576.000	-8.842399e-001	-4.675807e-001
47442570.000	-8.842739e-001	-4.675313e-001
47448564.000	-8.842977e-001	-4.675167e-001
47454558.000	-8.842387e-001	-4.674346e-001
47460552.000	-8.843192e-001	-4.673480e-001
47466546.000	-8.843135e-001	-4.673721e-001
47472540.000	-8.844141e-001	-4.672523e-001
47478534.000	-8.843642e-001	-4.672190e-001
47484528.000	-8.843849e-001	-4.671584e-001
47490522.000	-8.843966e-001	-4.670718e-001
47496516.000	-8.844964e-001	-4.670965e-001
47502510.000	-8.844776e-001	-4.669627e-001
47508504.000	-8.844968e-001	-4.669562e-001
47514498.000	-8.845789e-001	-4.669581e-001
47520492.000	-8.845913e-001	-4.668504e-001
47526486.000	-8.846114e-001	-4.667888e-001
47532480.000	-8.846592e-001	-4.667610e-001
47538474.000	-8.846736e-001	-4.667130e-001
47544468.000	-8.846921e-001	-4.666421e-001
47550462.000	-8.847190e-001	-4.665570e-001
47556456.000	-8.847372e-001	-4.665609e-001
47562450.000	-8.847788e-001	-4.665058e-001
47568444.000	-8.848235e-001	-4.664773e-001
47574438.000	-8.848232e-001	-4.663860e-001
47580432.000	-8.848763e-001	-4.663071e-001
47586426.000	-8.849145e-001	-4.663075e-001
47592420.000	-8.849203e-001	-4.662157e-001
47598414.000	-8.849628e-001	-4.662267e-001
47604408.000	-8.849849e-001	-4.661186e-001
47610402.000	-8.849985e-001	-4.661007e-001
47616396.000	-8.850767e-001	-4.660224e-001
47622390.000	-8.850534e-001	-4.659496e-001
47628384.000	-8.850969e-001	-4.659460e-001
47634378.000	-8.851358e-001	-4.658246e-001
47640372.000	-8.851556e-001	-4.658024e-001
47646366.000	-8.851418e-001	-4.657589e-001
47652360.000	-8.851574e-001	-4.657238e-001
47658354.000	-8.852286e-001	-4.656679e-001
47664348.000	-8.852270e-001	-4.655989e-001
47670342.000	-8.852855e-001	-4.655700e-001
47676336.000	-8.853108e-001	-4.655320e-001
47682330.000	-8.853342e-001	-4.654421e-001
47688324.000	-8.853774e-001	-4.654128e-001
47694318.000	-8.853890e-001	-4.653387e-001
47700312.000	-8.854415e-001	-4.652787e-001
47706306.000	-8.854109e-001	-4.652525e-001
47712300.000	-8.854326e-001	-4.651427e-001
47718294.000	-8.854615e-001	-4.651302e-001
47724288.000	-8.854884e-001	-4.650226e-001
47730282.000	-8.855311e-001	-4.650522e-001
47736276.000	-8.855391e-001	-4.649813e-001
47742270.000	-8.856009e-001	-4.649051e-001
47748264.000	-8.856451e-001	-4.648315e-001
47754258.000	-8.856481e-001	-4.648459e-001
47760252.000	-8.856573e-001	-4.647381e-001
47766246.000	-8.857030e-001	-4.647751e-001
47772240.000	-8.856648e-001	-4.646524e-001
47778234.000	-8.857241e-001	-4.646398e-001
47784228.000	-8.857614e-001	-4.645391e-001
47790222.000	-8.857885e-001	-4.645063e-001
47796216.000	-8.858422e-001	-4.644649e-001
47802210.000	-8.858869e-001	-4.644758e-001
47808204.000	-8.858578e-001	-4.643013e-001
47814198.000	-8.858347e-001	-4.643033e-001
47820192.000	-8.859038e-001	-4.642226e-001
47826186.000	-8.860033e-001	-4.642202e-001
47832180.000	-8.859586e-001	-4.641117e-001
47838174.000	-8.860333e-001	-4.641538e-001
47844168.000	-8.860722e-001	-4.640929e-001
47850162.000	-8.860595e-001	-4.640237e-001
47856156.000	-8.861260e-001	-4.639594e-001
47862150.000	-8.861503e-001	-4.638834e-001
47868144.000	-8.861436e-001	-4.638336e-001
47874138.000	-8.861768e-001	-4.637786e-001
47880132.000	-8.861714e-001	-4.637277e-001
47886126.000	-8.862092e-001	-4.636870e-001
47892120.000	-8.862374e-001	-4.636046e-001
47898114.000	-8.863063e-001	-4.635913e-001
47904108.000	-8.863354e-001	-4.635577e-001
47910102.000	-8.863306e-001	-4.634498e-001
47916096.000	-8.863440e-001	-4.634483e-001
47922090.000	-8.863782e-001	-4.633804e-001
47928084.000	-8.863929e-001	-4.633161e-001
47934078.000	-8.864071e-001	-4.632575e-001
47940072.000	-8.864905e-001	-4.632349e-001
47946066.000	-8.864887e-001	-4.631529e-001
47952060.000	-8.864792e-001	-4.631394e-001
47958054.000	-8.865924e-001	-4.630650e-001
47964048.000	-8.866359e-001	-4.630598e-001
47970042.000	-8.866158e-001	-4.629427e-001
47976036.000	-8.866902e-001	-4.629484e-001
47982030.000	-8.866508e-001	-4.628609e-001
47988024.000	-8.866649e-001	-4.628052e-001
47994018.000	-8.866547e-001	-4.627688e-001
48000012.000	-8.867029e-001	-4.626439e-001
48006006.000	-8.867375e-001	-4.626841e-001
48012000.000	-8.867035e-001	-4.626117e-001
48017994.000	-8.867973e-001	-4.625182e-001
48023988.000	-8.868441e-001	-4.624745e-001
48029982.000	-8.868472e-001	-4.624634e-001
48035976.000	-8.868620e-001	-4.623761e-001
48041970.000	-8.869187e-001	-4.623432e-001
48047964.000	-8.869505e-001	-4.623512e-001
48053958.000	-8.870306e-001	-4.622640e-001
48059952.000	-8.869818e-001	-4.622278e-001
48065946.000	-8.870345e-001	-4.621622e-001
48071940.000	-8.870666e-001	-4.621088e-001
48077934.000	-8.870774e-001	-4.620770e-001
48083928.000	-8.870406e-001	-4.619434e-001
48089922.000	-8.871628e-001	-4.619104e-001
48095916.000	-8.871484e-001	-4.618670e-001
48101910.000	-8.871180e-001	-4.618390e-001
48107904.000	-8.871858e-001	-4.617754e-001
48113898.000	-8.872058e-001	-4.617514e-001
48119892.000	-8.872676e-001	-4.616924e-001
48125886.000	-8.872867e-001	-4.616889e-001
48131880.000	-8.872975e-001	-4.615180e-001
48137874.000	-8.873248e-001	-4.614963e-001
48143868.000	-8.873223e-001	-4.614258e-001
48149862.000	-8.874110e-001	-4.613854e-001
48155856.000	-8.873993e-001	-4.613246e-001
48161850.000	-8.874403e-001	-4.613186e-001
48167844.000	-8.874264e-001	-4.612806e-001
48173838.000	-8.875171e-001	-4.612193e-001
48179832.000	-8.874863e-001	-4.611620e-001
48185826.000	-8.875516e-001	-4.611199e-001
48191820.000	-8.875767e-001	-4.610462e-001
48197814.000	-8.876046e-001	-4.610018e-001
48203808.000	-8.876094e-001	-4.609272e-001
48209802.000	-8.876753e-001	-4.608993e-001
48215796.000	-8.876726e-001	-4.608742e-001
48221790.000	-8.876593e-001	-4.608145e-001
48227784.000	-8.877933e-001	-4.607788e-001
48233778.000	-8.877634e-001	-4.606856e-001
48239772.000	-8.878226e-001	-4.606281e-001
48245766.000	-8.877977e-001	-4.606056e-001
48251760.000	-8.878405e-001	-4.605289e-001
48257754.000	-8.878303e-001	-4.604827e-001
48263748.000	-8.878245e-001	-4.604323e-001
48269742.000	-8.878970e-001	-4.603562e-001
48275736.000	-8.879419e-001	-4.603467e-001
48281730.000	-8.879217e-001	-4.603030e-001
48287724.000	-8.879726e-001	-4.602983e-001
48293718.000	-8.879928e-001	-4.601818e-001
48299712.000	-8.880564e-001	-4.601137e-001
48305706.000	-8.880290e-001	-4.601163e-001
48311700.000	-8.880600e-001	-4.600341e-001
48317694.000	-8.880660e-001	-4.600026e-001
48323688.000	-8.881349e-001	-4.599281e-001
48329682.000	-8.881491e-001	-4.599306e-001
48335676.000	-8.882136e-001	-4.598107e-001
48341670.000	-8.882216e-001	-4.597952e-001
48347664.000	-8.882492e-001	-4.597498e-001
48353658.000	-8.882659e-001	-4.597172e-001
48359652.000	-8.882912e-001	-4.596347e-001
48365646.000	-8.883539e-001	-4.595868e-001
48371640.000	-8.883253e-001	-4.595183e-001
48377634.000	-8.883576e-001	-4.595157e-001
48383628.000	-8.883813e-001	-4.594639e-001
48389622.000	-8.884435e-001	-4.593524e-001
48395616.000	-8.884359e-001	-4.593189e-001
48401610.000	-8.884953e-001	-4.592716e-001
48407604.000	-8.885145e-001	-4.592552e-001
48413598.000	-8.885373e-001	-4.591977e-001
48419592.000	-8.885717e-001	-4.591628e-001
48425586.000	-8.885397e-001	-4.590660e-001
48431580.000	-8.885895e-001	-4.590145e-001
48437574.000	-8.886094e-001	-4.589463e-001
48443568.000	-8.885737e-001	-4.588748e-001
48449562.000	-8.886866e-001	-4.589003e-001
48455556.000	-8.887146e-001	-4.588142e-001
48461550.000	-8.887183e-001	-4.587441e-001
48467544.000	-8.887038e-001	-4.586887e-001
48473538.000	-8.887700e-001	-4.586863e-001
48479532.000	-8.888386e-001	-4.586506e-001
48485526.000	-8.888471e-001	-4.585556e-001
48491520.000	-8.888579e-001	-4.585170e-001
48497514.000	-8.889015e-001	-4.584457e-001
48503508.000	-8.888839e-001	-4.583793e-001
48509502.000	-8.889440e-001	-4.583644e-001
48515496.000	-8.889955e-001	-4.582791e-001
48521490.000	-8.889686e-001	-4.582353e-001
48527484.000	-8.889903e-001	-4.582032e-001
48533478.000	-8.890303e-001	-4.581347e-001
48539472.000	-8.890635e-001	-4.581238e-001
48545466.000	-8.891489e-001	-4.580978e-001
48551460.000	-8.891326e-001	-4.580267e-001
48557454.000	-8.891314e-001	-4.579664e-001
48563448.000	-8.891620e-001	-4.579191e-001
48569442.000	-8.892118e-001	-4.578725e-001
48575436.000	-8.892292e-001	-4.578471e-001
48581430.000	-8.892979e-001	-4.577861e-001
48587424.000	-8.892852e-001	-4.577193e-001
48593418.000	-8.893057e-001	-4.576600e-001
48599412.000	-8.893272e-001	-4.576086e-001
48605406.000	-8.893483e-001	-4.575491e-001
48611400.000	-8.893926e-001	-4.575008e-001
48617394.000	-8.893762e-001	-4.574842e-001
48623388.000	-8.894255e-001	-4.574447e-001
48629382.000	-8.894949e-001	-4.573959e-001
48635376.000	-8.895205e-001	-4.573072e-001
48641370.000	-8.894624e-001	-4.572519e-001
48647364.000	-8.895347e-001	-4.571756e-001
48653358.000	-8.895757e-001	-4.571928e-001
48659352.000	-8.895578e-001	-4.571358e-001
48665346.000	-8.896324e-001	-4.570690e-001
48671340.000	-8.895854e-001	-4.569558e-001
48677334.000	-8.896751e-001	-4.569771e-001
48683328.000	-8.896654e-001	-4.569110e-001
48689322.000	-8.897294e-001	-4.568819e-001
48695316.000	-8.897322e-001	-4.568236e-001
48701310.000	-8.897689e-001	-4.568095e-001
48707304.000	-8.898043e-001	-4.567152e-001
48713298.000	-8.898090e-001	-4.566260e-001
48719292.000	-8.897724e-001	-4.565947e-001
48725286.000	-8.898648e-001	-4.565563e-001
48731280.000	-8.898474e-001	-4.564539e-001
48737274.000	-8.898779e-001	-4.564518e-001
48743268.000	-8.899332e-001	-4.564114e-001
48749262.000	-8.899821e-001	-4.563727e-001
48755256.000	-8.899673e-001	-4.563011e-001
48761250.000	-8.899934e-001	-4.563084e-001
48767244.000	-8.900143e-001	-4.562289e-001
48773238.000	-8.900709e-001	-4.561790e-001
48779232.000	-8.900513e-001	-4.561012e-001
48785226.000	-8.900778e-001	-4.560540e-001
48791220.000	-8.901783e-001	-4.560214e-001
48797214.000	-8.901614e-001	-4.559480e-001
48803208.000	-8.901959e-001	-4.558937e-001
48809202.000	-8.902086e-001	-4.558563e-001
48815196.000	-8.901934e-001	-4.558090e-001
48821190.000	-8.901495e-001	-4.557453e-001
48827184.000	-8.903069e-001	-4.557016e-001
48833178.000	-8.903126e-001	-4.556658e-001
48839172.000	-8.903571e-001	-4.556243e-001
48845166.000	-8.903597e-001	-4.555979e-001
48851160.000	-8.904430e-001	-4.555375e-001
48857154.000	-8.904215e-001	-4.554874e-001
48863148.000	-8.903928e-001	-4.553489e-001
48869142.000	-8.904595e-001	-4.552874e-001
48875136.000	-8.904327e-001	-4.552510e-001
48881130.000	-8.904593e-001	-4.551779e-001
48887124.000	-8.905203e-001	-4.551485e-001
48893118.000	-8.906061e-001	-4.551236e-001
48899112.000	-8.905481e-001	-4.551132e-001
48905106.000	-8.906311e-001	-4.550718e-001
48911100.000	-8.906049e-001	-4.549707e-001
48917094.000	-8.906215e-001	-4.549109e-001
48923088.000	-8.906543e-001	-4.548910e-001
48929082.000	-8.907153e-001	-4.548071e-001
48935076.000	-8.907570e-001	-4.547786e-001
48941070.000	-8.907251e-001	-4.546971e-001
48947064.000	-8.907755e-001	-4.546690e-001
48953058.000	-8.907941e-001	-4.546436e-001
48959052.000	-8.908376e-001	-4.545453e-001
48965046.000	-8.908872e-001	-4.545294e-001
48971040.000	-8.908734e-001	-4.545047e-001
48977034.000	-8.909405e-001	-4.544894e-001
48983028.000	-8.909339e-001	-4.543790e-001
48989022.000	-8.909473e-001	-4.543477e-001
48995016.000	-8.909709e-001	-4.542979e-001
49001010.000	-8.910648e-001	-4.543449e-001
49007004.000	-8.910360e-001	-4.541940e-001
49012998.000	-8.910751e-001	-4.541652e-001
49018992.000	-8.910888e-001	-4.540982e-001
49024986.000	-8.910930e-001	-4.540843e-001
49030980.000	-8.911693e-001	-4.540628e-001
49036974.000	-8.911958e-001	-4.539769e-001
49042968.000	-8.911732e-001	-4.538532e-001
49048962.000	-8.912086e-001	-4.538401e-001
49054956.000	-8.912224e-001	-4.537530e-001
49060950.000	-8.912538e-001	-4.537660e-001
49066944.000	-8.912710e-001	-4.537020e-001
49072938.000	-8.913378e-001	-4.536259e-001
49078932.000	-8.913393e-001	-4.535696e-001
49084926.000	-8.914109e-001	-4.535363e-001
49090920.000	-8.913801e-001	-4.534845e-001
49096914.000	-8.914652e-001	-4.535055e-001
49102908.000	-8.914024e-001	-4.533950e-001
49108902.000	-8.914659e-001	-4.533735e-001
49114896.000	-8.914977e-001	-4.533071e-001
49120890.000	-8.915053e-001	-4.532509e-001
49126884.000	-8.915065e-001	-4.531816e-001
49132878.000	-8.915265e-001	-4.531371e-001
49138872.000	-8.915826e-001	-4.530912e-001
49144866.000	-8.915888e-001	-4.530304e-001
49150860.000	-8.916378e-001	-4.530013e-001
49156854.000	-8.916544e-001	-4.529403e-001
49162848.000	-8.916847e-001	-4.528771e-001
49168842.000	-8.917185e-001	-4.528890e-001
49174836.000	-8.917078e-001	-4.528139e-001
49180830.000	-8.917334e-001	-4.527662e-001
49186824.000	-8.917383e-001	-4.527141e-001
49192818.000	-8.917845e-001	-4.526200e-001
49198812.000	-8.918429e-001	-4.526264e-001
49204806.000	-8.918259e-001	-4.525336e-001
49210800.000	-8.919026e-001	-4.524669e-001
49216794.000	-8.919347e-001	-4.524580e-001
49222788.000	-8.919201e-001	-4.524163e-001
49228782.000	-8.919609e-001	-4.523703e-001
49234776.000	-8.919928e-001	-4.523425e-001
49240770.000	-8.919752e-001	-4.522740e-001
49246764.000	-8.920250e-001	-4.522662e-001
49252758.000	-8.920648e-001	-4.521669e-001
49258752.000	-8.920800e-001	-4.520986e-001
49264746.000	-8.920925e-001	-4.520662e-001
49270740.000	-8.921912e-001	-4.520407e-001
49276734.000	-8.921324e-001	-4.519575e-001
49282728.000	-8.921920e-001	-4.519114e-001
49288722.000	-8.922084e-001	-4.518673e-001
49294716.000	-8.921992e-001	-4.518298e-001
49300710.000	-8.922356e-001	-4.517342e-001
49306704.000	-8.922737e-001	-4.516882e-001
49312698.000	-8.923127e-001	-4.517063e-001
49318692.000	-8.923452e-001	-4.516668e-001
49324686.000	-8.923319e-001	-4.515867e-001
49330680.000	-8.924091e-001	-4.515401e-001
49336674.000	-8.924238e-001	-4.515000e-001
49342668.000	-8.924493e-001	-4.514431e-001
49348662.000	-8.924771e-001	-4.514019e-001
49354656.000	-8.925138e-001	-4.513336e-001
49360650.000	-8.925114e-001	-4.512924e-001
49366644.000	-8.925196e-001	-4.512077e-001
49372638.000	-8.925426e-001	-4.511836e-001
49378632.000	-8.925923e-001	-4.511705e-001
49384626.000	-8.926106e-001	-4.511053e-001
49390620.000	-8.926415e-001	-4.510031e-001
49396614.000	-8.926327e-001	-4.509839e-001
49402608.000	-8.926271e-001	-4.509142e-001
49408602.000	-8.927192e-001	-4.508902e-001
49414596.000	-8.927340e-001	-4.508349e-001
49420590.000	-8.927312e-001	-4.508128e-001
49426584.000	-8.927814e-001	-4.507346e-001
49432578.000	-8.928288e-001	-4.507213e-001
49438572.000	-8.927877e-001	-4.506462e-001
49444566.000	-8.928504e-001	-4.506447e-001
49450560.000	-8.928472e-001	-4.505226e-001
49456554.000	-8.929193e-001	-4.504904e-001
49462548.000	-8.929597e-001	-4.504329e-001
49468542.000	-8.929342e-001	-4.503958e-001
49474536.000	-8.929708e-001	-4.503486e-001
49480530.000	-8.929903e-001	-4.502833e-001
49486524.000	-8.929882e-001	-4.502476e-001
49492518.000	-8.929616e-001	-4.501074e-001
49498512.000	-8.930779e-001	-4.501291e-001
49504506.000	-8.930791e-001	-4.501150e-001
49510500.000	-8.931276e-001	-4.500515e-001
49516494.000	-8.931339e-001	-4.499717e-001
49522488.000	-8.931412e-001	-4.499790e-001
49528482.000	-8.931856e-001	-4.498320e-001
49534476.000	-8.931972e-001	-4.498679e-001
49540470.000	-8.932224e-001	-4.497872e-001
49546464.000	-8.932581e-001	-4.497960e-001
49552458.000	-8.932385e-001	-4.497470e-001
49558452.000	-8.932892e-001	-4.496571e-001
49564446.000	-8.933701e-001	-4.496330e-001
49570440.000	-8.933486e-001	-4.496127e-001
49576434.000	-8.933894e-001	-4.495056e-001
49582428.000	-8.934024e-001	-4.494380e-001
49588422.000	-8.934218e-001	-4.494263e-001
49594416.000	-8.934224e-001	-4.493697e-001
49600410.000	-8.934672e-001	-4.493254e-001
49606404.000	-8.934928e-001	-4.492616e-001
49612398.000	-8.934723e-001	-4.492577e-001
49618392.000	-8.935224e-001	-4.491574e-001
49624386.000	-8.935539e-001	-4.491093e-001
49630380.000	-8.935830e-001	-4.490793e-001
49636374.000	-8.935983e-001	-4.490729e-001
49642368.000	-8.936022e-001	-4.489584e-001
49648362.000	-8.936143e-001	-4.489262e-001
49654356.000	-8.936938e-001	-4.488623e-001
49660350.000	-8.937190e-001	-4.488426e-001
49666344.000	-8.937089e-001	-4.487561e-001
49672338.000	-8.937740e-001	-4.487235e-001
49678332.000	-8.938132e-001	-4.486995e-001
49684326.000	-8.938015e-001	-4.486251e-001
49690320.000	-8.938749e-001	-4.485471e-001
49696314.000	-8.938873e-001	-4.485557e-001
49702308.000	-8.938706e-001	-4.485056e-001
49708302.000	-8.939544e-001	-4.484783e-001
49714296.000	-8.939060e-001	-4.483241e-001
49720290.000	-8.939799e-001	-4.483463e-001
49726284.000	-8.939251e-001	-4.482336e-001
49732278.000	-8.940474e-001	-4.482506e-001
49738272.000	-8.940153e-001	-4.481985e-001
49744266.000	-8.940767e-001	-4.481485e-001
49750260.000	-8.941129e-001	-4.481084e-001
49756254.000	-8.940993e-001	-4.480518e-001
49762248.000	-8.941379e-001	-4.480401e-001
49768242.000	-8.941414e-001	-4.480260e-001
49774236.000	-8.941958e-001	-4.479013e-001
49780230.000	-8.942172e-001	-4.479098e-001
49786224.000	-8.942403e-001	-4.478206e-001
49792218.000	-8.942209e-001	-4.477627e-001
49798212.000	-8.943106e-001	-4.477228e-001
49804206.000	-8.943068e-001	-4.476855e-001
49810200.000	-8.943316e-001	-4.476126e-001
49816194.000	-8.943708e-001	-4.475338e-001
49822188.000	-8.943848e-001	-4.475564e-001
49828182.000	-8.944061e-001	-4.474995e-001
49834176.000	-8.943996e-001	-4.474289e-001
49840170.000	-8.943794e-001	-4.474142e-001
49846164.000	-8.944908e-001	-4.473256e-001
49852158.000	-8.945143e-001	-4.472831e-001
49858152.000	-8.944919e-001	-4.472184e-001
49864146.000	-8.945256e-001	-4.471786e-001
49870140.000	-8.945100e-001	-4.470966e-001
49876134.000	-8.946225e-001	-4.471129e-001
49882128.000	-8.946089e-001	-4.470481e-001
49888122.000	-8.946636e-001	-4.470564e-001
49894116.000	-8.946198e-001	-4.469724e-001
49900110.000	-8.947051e-001	-4.469362e-001
49906104.000	-8.947249e-001	-4.468811e-001
49912098.000	-8.947088e-001	-4.468056e-001
49918092.000	-8.947335e-001	-4.467473e-001
49924086.000	-8.947972e-001	-4.466970e-001
49930080.000	-8.947842e-001	-4.466635e-001
49936074.000	-8.948640e-001	-4.466477e-001
49942068.000	-8.948058e-001	-4.465672e-001
49948062.000	-8.948789e-001	-4.465145e-001
49954056.000	-8.948817e-001	-4.464517e-001
49960050.000	-8.949068e-001	-4.464420e-001
49966044.000	-8.949080e-001	-4.463779e-001
49972038.000	-8.950031e-001	-4.462899e-001
49978032.000	-8.949222e-001	-4.462248e-001
49984026.000	-8.950311e-001	-4.462849e-001
49990020.000	-8.950154e-001	-4.461742e-001
49996014.000	-8.949874e-001	-4.460671e-001
50002008.000	-8.950444e-001	-4.460247e-001
50008002.000	-8.950358e-001	-4.460359e-001
50013996.000	-8.950455e-001	-4.459433e-001
50019990.000	-8.951593e-001	-4.458788e-001
50025984.000	-8.951365e-001	-4.458655e-001
50031978.000	-8.951377e-001	-4.457969e-001
50037972.000	-8.951836e-001	-4.457295e-001
50043966.000	-8.951868e-001	-4.457171e-001
50049960.000	-8.952274e-001	-4.456782e-001
50055954.000	-8.952519e-001	-4.455700e-001
50061948.000	-8.952669e-001	-4.455742e-001
50067942.000	-8.953133e-001	-4.455730e-001
50073936.000	-8.953385e-001	-4.454796e-001
50079930.000	-8.953837e-001	-4.453881e-001
50085924.000	-8.953560e-001	-4.453732e-001
50091918.000	-8.954028e-001	-4.452963e-001
50097912.000	-8.953946e-001	-4.452800e-001
50103906.000	-8.954522e-001	-4.452370e-001
50109900.000	-8.954663e-001	-4.451848e-001
50115894.000	-8.955216e-001	-4.451225e-001
50121888.000	-8.955318e-001	-4.451050e-001
50127882.000	-8.955101e-001	-4.450696e-001
50133876.000	-8.955839e-001	-4.449404e-001
50139870.000	-8.956278e-001	-4.449136e-001
50145864.000	-8.956112e-001	-4.449371e-001
50151858.000	-8.956399e-001	-4.448254e-001
50157852.000	-8.956865e-001	-4.447912e-001
50163846.000	-8.956491e-001	-4.447917e-001
50169840.000	-8.956674e-001	-4.447025e-001
50175834.000	-8.956966e-001	-4.446670e-001
50181828.000	-8.958237e-001	-4.446190e-001
50187822.000	-8.958121e-001	-4.445898e-001
50193816.000	-8.958119e-001	-4.445144e-001
50199810.000	-8.958369e-001	-4.445238e-001
50205804.000	-8.958388e-001	-4.444105e-001
50211798.000	-8.958983e-001	-4.443742e-001
50217792.000	-8.959116e-001	-4.443223e-001
50223786.000	-8.958793e-001	-4.442547e-001
50229780.000	-8.959310e-001	-4.442655e-001
50235774.000	-8.959670e-001	-4.441710e-001
50241768.000	-8.959826e-001	-4.440983e-001
50247762.000	-8.959955e-001	-4.440077e-001
50253756.000	-8.960132e-001	-4.440297e-001
50259750.000	-8.960354e-001	-4.439505e-001
50265744.000	-8.960549e-001	-4.439117e-001
50271738.000	-8.960466e-001	-4.438768e-001
50277732.000	-8.961366e-001	-4.438599e-001
50283726.000	-8.961657e-001	-4.438230e-001
50289720.000	-8.961844e-001	-4.437172e-001
50295714.000	-8.961726e-001	-4.436316e-001
50301708.000	-8.962076e-001	-4.436244e-001
50307702.000	-8.961713e-001	-4.435565e-001
50313696.000	-8.962340e-001	-4.434853e-001
50319690.000	-8.962479e-001	-4.434815e-001
50325684.000	-8.962760e-001	-4.435000e-001
50331678.000	-8.963286e-001	-4.434373e-001
50337672.000	-8.963336e-001	-4.433646e-001
50343666.000	-8.963392e-001	-4.432847e-001
50349660.000	-8.963740e-001	-4.432711e-001
50355654.000	-8.963777e-001	-4.431765e-001
50361648.000	-8.964649e-001	-4.431783e-001
50367642.000	-8.964683e-001	-4.430839e-001
50373636.000	-8.964566e-001	-4.430831e-001
50379630.000	-8.964911e-001	-4.429716e-001
50385624.000	-8.964620e-001	-4.429068e-001
50391618.000	-8.965190e-001	-4.428456e-001
50397612.000	-8.965697e-001	-4.428817e-001
50403606.000	-8.965552e-001	-4.427994e-001
50409600.000	-8.966063e-001	-4.427454e-001
50415594.000	-8.965864e-001	-4.426895e-001
50421588.000	-8.966408e-001	-4.426583e-001
50427582.000	-8.966392e-001	-4.426047e-001
50433576.000	-8.966604e-001	-4.425624e-001
50439570.000	-8.966992e-001	-4.424787e-001
50445564.000	-8.967399e-001	-4.424803e-001
50451558.000	-8.967184e-001	-4.424270e-001
50457552.000	-8.968040e-001	-4.424153e-001
50463546.000	-8.967611e-001	-4.423668e-001
50469540.000	-8.968277e-001	-4.422748e-001
50475534.000	-8.968248e-001	-4.422776e-001
50481528.000	-8.969039e-001	-4.421686e-001
50487522.000	-8.968873e-001	-4.421746e-001
50493516.000	-8.968814e-001	-4.420819e-001
50499510.000	-8.969066e-001	-4.420285e-001
50505504.000	-8.969320e-001	-4.419435e-001
50511498.000	-8.969990e-001	-4.418891e-001
50517492.000	-8.969926e-001	-4.419061e-001
50523486.000	-8.970091e-001	-4.418313e-001
50529480.000	-8.970796e-001	-4.418017e-001
50535474.000	-8.970720e-001	-4.417705e-001
50541468.000	-8.970895e-001	-4.417090e-001
50547462.000	-8.971044e-001	-4.416852e-001
50553456.000	-8.971913e-001	-4.416471e-001
50559450.000	-8.972059e-001	-4.415901e-001
50565444.000	-8.971858e-001	-4.415096e-001
50571438.000	-8.972113e-001	-4.414539e-001
50577432.000	-8.972236e-001	-4.414191e-001
50583426.000	-8.972339e-001	-4.413665e-001
50589420.000	-8.972798e-001	-4.413341e-001
50595414.000	-8.972587e-001	-4.412945e-001
50601408.000	-8.973262e-001	-4.412521e-001
50607402.000	-8.973455e-001	-4.411910e-001
50613396.000	-8.973901e-001	-4.411341e-001
50619390.000	-8.973792e-001	-4.410869e-001
50625384.000	-8.973915e-001	-4.410189e-001
50631378.000	-8.974213e-001	-4.410523e-001
50637372.000	-8.974739e-001	-4.409969e-001
50643366.000	-8.974682e-001	-4.409492e-001
50649360.000	-8.974985e-001	-4.408639e-001
50655354.000	-8.975161e-001	-4.408547e-001
50661348.000	-8.975579e-001	-4.407826e-001
50667342.000	-8.975650e-001	-4.406975e-001
50673336.000	-8.976265e-001	-4.406637e-001
50679330.000	-8.976124e-001	-4.406040e-001
50685324.000	-8.976581e-001	-4.405677e-001
50691318.000	-8.976614e-001	-4.405397e-001
50697312.000	-8.977043e-001	-4.404318e-001
50703306.000	-8.977316e-001	-4.403928e-001
50709300.000	-8.977417e-001	-4.404227e-001
50715294.000	-8.977437e-001	-4.404173e-001
50721288.000	-8.978190e-001	-4.403209e-001
50727282.000	-8.977726e-001	-4.402521e-001
50733276.000	-8.977651e-001	-4.401748e-001
50739270.000	-8.978221e-001	-4.401369e-001
50745264.000	-8.978631e-001	-4.401245e-001
50751258.000	-8.978779e-001	-4.400570e-001
50757252.000	-8.978854e-001	-4.399882e-001
50763246.000	-8.979322e-001	-4.400077e-001
50769240.000	-8.979359e-001	-4.399191e-001
50775234.000	-8.979604e-001	-4.398860e-001
50781228.000	-8.980109e-001	-4.398324e-001
50787222.000	-8.980871e-001	-4.397700e-001
50793216.000	-8.980250e-001	-4.397295e-001
50799210.000	-8.980252e-001	-4.396827e-001
50805204.000	-8.981232e-001	-4.396656e-001
50811198.000	-8.980877e-001	-4.395484e-001
50817192.000	-8.981581e-001	-4.395675e-001
50823186.000	-8.981455e-001	-4.394904e-001
50829180.000	-8.981310e-001	-4.394474e-001
50835174.000	-8.982070e-001	-4.393752e-001
50841168.000	-8.982111e-001	-4.393109e-001
50847162.000	-8.982197e-001	-4.392930e-001
50853156.000	-8.982359e-001	-4.392128e-001
50859150.000	-8.982871e-001	-4.391666e-001
50865144.000	-8.982580e-001	-4.391313e-001
50871138.000	-8.983529e-001	-4.391702e-001
50877132.000	-8.983607e-001	-4.390863e-001
50883126.000	-8.983594e-001	-4.390708e-001
50889120.000	-8.983910e-001	-4.389577e-001
50895114.000	-8.984376e-001	-4.389300e-001
50901108.000	-8.983964e-001	-4.388696e-001
50907102.000	-8.984275e-001	-4.387821e-001
50913096.000	-8.984893e-001	-4.387769e-001
50919090.000	-8.985199e-001	-4.387312e-001
50925084.000	-8.985489e-001	-4.386995e-001
50931078.000	-8.985226e-001	-4.386663e-001
50937072.000	-8.985657e-001	-4.386165e-001
50943066.000	-8.985876e-001	-4.385219e-001
50949060.000	-8.985866e-001	-4.384846e-001
50955054.000	-8.986107e-001	-4.384629e-001
50961048.000	-8.986320e-001	-4.384187e-001
50967042.000	-8.986948e-001	-4.383884e-001
50973036.000	-8.987094e-001	-4.383521e-001
50979030.000	-8.986762e-001	-4.382007e-001
50985024.000	-8.987005e-001	-4.381950e-001
50991018.000	-8.986991e-001	-4.381556e-001
50997012.000	-8.987553e-001	-4.381373e-001
51003006.000	-8.987890e-001	-4.380679e-001
51009000.000	-8.988008e-001	-4.380360e-001
51014994.000	-8.988051e-001	-4.379960e-001
51020988.000	-8.988508e-001	-4.379135e-001
51026982.000	-8.988533e-001	-4.378603e-001
51032976.000	-8.989124e-001	-4.378680e-001
51038970.000	-8.989357e-001	-4.378027e-001
51044964.000	-8.989815e-001	-4.377627e-001
51050958.000	-8.989738e-001	-4.376886e-001
51056952.000	-8.989990e-001	-4.376532e-001
51062946.000	-8.990166e-001	-4.376170e-001
51068940.000	-8.990303e-001	-4.376289e-001
51074934.000	-8.990632e-001	-4.374631e-001
51080928.000	-8.990969e-001	-4.375129e-001
51086922.000	-8.991268e-001	-4.374408e-001
51092916.000	-8.991797e-001	-4.373711e-001
51098910.000	-8.990917e-001	-4.373607e-001
51104904.000	-8.991858e-001	-4.372373e-001
51110898.000	-8.991995e-001	-4.372403e-001
51116892.000	-8.992076e-001	-4.372074e-001
51122886.000	-8.992506e-001	-4.371722e-001
51128880.000	-8.992672e-001	-4.370642e-001
51134874.000	-8.992893e-001	-4.370719e-001
51140868.000	-8.992637e-001	-4.370239e-001
51146862.000	-8.992898e-001	-4.369629e-001
51152856.000	-8.993561e-001	-4.369190e-001
51158850.000	-8.994097e-001	-4.368664e-001
51164844.000	-8.993441e-001	-4.368472e-001
51170838.000	-8.994031e-001	-4.367477e-001
51176832.000	-8.994389e-001	-4.367214e-001
51182826.000	-8.994281e-001	-4.366659e-001
51188820.000	-8.994165e-001	-4.366317e-001
51194814.000	-8.995271e-001	-4.366402e-001
51200808.000	-8.995008e-001	-4.365583e-001
51206802.000	-8.995012e-001	-4.364612e-001
51212796.000	-8.995219e-001	-4.364736e-001
51218790.000	-8.996062e-001	-4.363862e-001
51224784.000	-8.996148e-001	-4.364137e-001
51230778.000	-8.996710e-001	-4.363205e-001
51236772.000	-8.996378e-001	-4.362807e-001
51242766.000	-8.996709e-001	-4.362206e-001
51248760.000	-8.997355e-001	-4.362365e-001
51254754.000	-8.996762e-001	-4.361261e-001
51260748.000	-8.997587e-001	-4.361131e-001
51266742.000	-8.997769e-001	-4.360442e-001
51272736.000	-8.997849e-001	-4.359946e-001
51278730.000	-8.998123e-001	-4.359343e-001
51284724.000	-8.998752e-001	-4.359106e-001
51290718.000	-8.998682e-001	-4.358956e-001
51296712.000	-8.999018e-001	-4.358272e-001
51302706.000	-8.998995e-001	-4.358130e-001
51308700.000	-8.999357e-001	-4.357750e-001
51314694.000	-8.999858e-001	-4.357002e-001
51320688.000	-8.999468e-001	-4.355981e-001
51326682.000	-8.999537e-001	-4.356136e-001
51332676.000	-8.999911e-001	-4.355641e-001
51338670.000	-9.000431e-001	-4.355082e-001
51344664.000	-9.000675e-001	-4.354295e-001
51350658.000	-9.000419e-001	-4.354234e-001
51356652.000	-9.001111e-001	-4.353771e-001
51362646.000	-9.001012e-001	-4.353103e-001
51368640.000	-9.001275e-001	-4.352784e-001
51374634.000	-9.001712e-001	-4.352018e-001
51380628.000	-9.001701e-001	-4.351267e-001
51386622.000	-9.001865e-001	-4.351009e-001
51392616.000	-9.001929e-001	-4.350590e-001
51398610.000	-9.001499e-001	-4.350729e-001
51404604.000	-9.002281e-001	-4.349340e-001
51410598.000	-9.002848e-001	-4.349422e-001
51416592.000	-9.002449e-001	-4.349166e-001
51422586.000	-9.003205e-001	-4.348471e-001
51428580.000	-9.002788e-001	-4.348373e-001
51434574.000	-9.003737e-001	-4.348070e-001
51440568.000	-9.004036e-001	-4.347068e-001
51446562.000	-9.003687e-001	-4.346390e-001
51452556.000	-9.004591e-001	-4.346283e-001
51458550.000	-9.004354e-001	-4.345560e-001
51464544.000	-9.005059e-001	-4.345366e-001
51470538.000	-9.005069e-001	-4.344307e-001
51476532.000	-9.005451e-001	-4.344881e-001
51482526.000	-9.005594e-001	-4.344084e-001
51488520.000	-9.005407e-001	-4.343276e-001
51494514.000	-9.006348e-001	-4.343044e-001
51500508.000	-9.006171e-001	-4.343140e-001
51506502.000	-9.006599e-001	-4.342605e-001
51512496.000	-9.006818e-001	-4.341383e-001
51518490.000	-9.006601e-001	-4.341334e-001
51524484.000	-9.006683e-001	-4.340700e-001
51530478.000	-9.007166e-001	-4.340583e-001
51536472.000	-9.007879e-001	-4.340141e-001
51542466.000	-9.007619e-001	-4.339299e-001
51548460.000	-9.007481e-001	-4.338479e-001
51554454.000	-9.008080e-001	-4.338547e-001
51560448.000	-9.007476e-001	-4.337502e-001
51566442.000	-9.008231e-001	-4.337712e-001
51572436.000	-9.008711e-001	-4.337142e-001
51578430.000	-9.008446e-001	-4.336243e-001
51584424.000	-9.008746e-001	-4.335998e-001
51590418.000	-9.009130e-001	-4.335462e-001
51596412.000	-9.009673e-001	-4.335248e-001
51602406.000	-9.009749e-001	-4.334677e-001
51608400.000	-9.009475e-001	-4.334270e-001
51614394.000	-9.010436e-001	-4.333532e-001
51620388.000	-9.010402e-001	-4.333670e-001
51626382.000	-9.010905e-001	-4.332803e-001
51632376.000	-9.010869e-001	-4.332267e-001
51638370.000	-9.010844e-001	-4.332145e-001
51644364.000	-9.011204e-001	-4.331678e-001
51650358.000	-9.011628e-001	-4.330949e-001
51656352.000	-9.011541e-001	-4.330958e-001
51662346.000	-9.011826e-001	-4.330118e-001
51668340.000	-9.011953e-001	-4.329491e-001
51674334.000	-9.012326e-001	-4.329284e-001
51680328.000	-9.012306e-001	-4.328912e-001
51686322.000	-9.013063e-001	-4.328511e-001
51692316.000	-9.012629e-001	-4.327777e-001
51698310.000	-9.013215e-001	-4.327494e-001
51704304.000	-9.013059e-001	-4.326728e-001
51710298.000	-9.013040e-001	-4.326963e-001
51716292.000	-9.013764e-001	-4.326001e-001
51722286.000	-9.014413e-001	-4.325476e-001
51728280.000	-9.014800e-001	-4.325540e-001
51734274.000	-9.014329e-001	-4.324509e-001
51740268.000	-9.014728e-001	-4.324542e-001
51746262.000	-9.014576e-001	-4.323740e-001
51752256.000	-9.015052e-001	-4.323433e-001
51758250.000	-9.015089e-001	-4.322642e-001
51764244.000	-9.015302e-001	-4.322419e-001
51770238.000	-9.015798e-001	-4.322183e-001
51776232.000	-9.015775e-001	-4.321657e-001
51782226.000	-9.016184e-001	-4.320813e-001
51788220.000	-9.016709e-001	-4.320110e-001
51794214.000	-9.016763e-001	-4.320347e-001
51800208.000	-9.016684e-001	-4.319575e-001
51806202.000	-9.016878e-001	-4.319539e-001
51812196.000	-9.017197e-001	-4.319008e-001
51818190.000	-9.017666e-001	-4.318639e-001
51824184.000	-9.017315e-001	-4.317205e-001
51830178.000	-9.017789e-001	-4.317447e-001
51836172.000	-9.017637e-001	-4.316851e-001
51842166.000	-9.018361e-001	-4.316427e-001
51848160.000	-9.018612e-001	-4.315904e-001
51854154.000	-9.018150e-001	-4.315596e-001
51860148.000	-9.018394e-001	-4.315056e-001
51866142.000	-9.018918e-001	-4.314504e-001
51872136.000	-9.019249e-001	-4.314544e-001
51878130.000	-9.019649e-001	-4.314045e-001
51884124.000	-9.019686e-001	-4.313294e-001
51890118.000	-9.019646e-001	-4.312764e-001
51896112.000	-9.020091e-001	-4.312478e-001
51902106.000	-9.019901e-001	-4.312003e-001
51908100.000	-9.020378e-001	-4.311328e-001
51914094.000	-9.020775e-001	-4.311173e-001
51920088.000	-9.020658e-001	-4.310877e-001
51926082.000	-9.021145e-001	-4.310406e-001
51932076.000	-9.021331e-001	-4.309450e-001
51938070.000	-9.021685e-001	-4.309236e-001
51944064.000	-9.021655e-001	-4.309223e-001
51950058.000	-9.022245e-001	-4.308732e-001
51956052.000	-9.022068e-001	-4.308123e-001
51962046.000	-9.022793e-001	-4.307446e-001
51968040.000	-9.022513e-001	-4.306934e-001
51974034.000	-9.022539e-001	-4.307149e-001
51980028.000	-9.022711e-001	-4.306191e-001
51986022.000	-9.023160e-001	-4.305457e-001
51992016.000	-9.023351e-001	-4.304886e-001
51998010.000	-9.023773e-001	-4.304687e-001
52004004.000	-9.024224e-001	-4.304557e-001
52009998.000	-9.023774e-001	-4.303986e-001
52015992.000	-9.024437e-001	-4.303153e-001
52021986.000	-9.024259e-001	-4.302845e-001
52027980.000	-9.024341e-001	-4.303163e-001
52033974.000	-9.024971e-001	-4.302252e-001
52039968.000	-9.025408e-001	-4.301912e-001
52045962.000	-9.025068e-001	-4.301554e-001
52051956.000	-9.025975e-001	-4.300809e-001
52057950.000	-9.025382e-001	-4.299872e-001
52063944.000	-9.025437e-001	-4.299627e-001
52069938.000	-9.025870e-001	-4.299344e-001
52075932.000	-9.026277e-001	-4.298902e-001
52081926.000	-9.026331e-001	-4.298538e-001
52087920.000	-9.026694e-001	-4.298205e-001
52093914.000	-9.027119e-001	-4.297910e-001
52099908.000	-9.026967e-001	-4.297216e-001
52105902.000	-9.027528e-001	-4.296599e-001
52111896.000	-9.027383e-001	-4.296394e-001
52117890.000	-9.027945e-001	-4.296153e-001
52123884.000	-9.027952e-001	-4.295430e-001
52129878.000	-9.028190e-001	-4.294283e-001
52135872.000	-9.028299e-001	-4.294452e-001
52141866.000	-9.028239e-001	-4.293565e-001
52147860.000	-9.028831e-001	-4.293294e-001
52153854.000	-9.029176e-001	-4.293517e-001
52159848.000	-9.029270e-001	-4.292527e-001
52165842.000	-9.029266e-001	-4.292399e-001
52171836.000	-9.029543e-001	-4.291932e-001
52177830.000	-9.030020e-001	-4.291247e-001
52183824.000	-9.029766e-001	-4.291136e-001
52189818.000	-9.029892e-001	-4.290675e-001
52195812.000	-9.030229e-001	-4.289588e-001
52201806.000	-9.030401e-001	-4.289636e-001
52207800.000	-9.030462e-001	-4.288808e-001
52213794.000	-9.030797e-001	-4.288345e-001
52219788.000	-9.031483e-001	-4.288079e-001
52225782.000	-9.031373e-001	-4.288195e-001
52231776.000	-9.031519e-001	-4.287619e-001
52237770.000	-9.031820e-001	-4.287170e-001
52243764.000	-9.031973e-001	-4.285859e-001
52249758.000	-9.032314e-001	-4.286053e-001
52255752.000	-9.032464e-001	-4.285589e-001
52261746.000	-9.032641e-001	-4.284460e-001
52267740.000	-9.033052e-001	-4.284184e-001
52273734.000	-9.032956e-001	-4.284065e-001
52279728.000	-9.033038e-001	-4.283577e-001
52285722.000	-9.033557e-001	-4.282934e-001
52291716.000	-9.033719e-001	-4.283213e-001
52297710.000	-9.033923e-001	-4.282796e-001
52303704.000	-9.034383e-001	-4.281838e-001
52309698.000	-9.034685e-001	-4.281406e-001
52315692.000	-9.034490e-001	-4.280673e-001
52321686.000	-9.034705e-001	-4.280974e-001
52327680.000	-9.035076e-001	-4.280285e-001
52333674.000	-9.035473e-001	-4.279458e-001
52339668.000	-9.035791e-001	-4.279111e-001
52345662.000	-9.035354e-001	-4.278906e-001
52351656.000	-9.035388e-001	-4.278070e-001
52357650.000	-9.036015e-001	-4.277651e-001
52363644.000	-9.035993e-001	-4.277144e-001
52369638.000	-9.036295e-001	-4.277281e-001
52375632.000	-9.036801e-001	-4.276576e-001
52381626.000	-9.036459e-001	-4.276343e-001
52387620.000	-9.036789e-001	-4.275612e-001
52393614.000	-9.037230e-001	-4.275203e-001
52399608.000	-9.037608e-001	-4.275108e-001
52405602.000	-9.037550e-001	-4.274111e-001
52411596.000	-9.037949e-001	-4.273347e-001
52417590.000	-9.038040e-001	-4.273396e-001
52423584.000	-9.038627e-001	-4.273138e-001
52429578.000	-9.038502e-001	-4.271684e-001
52435572.000	-9.038420e-001	-4.271988e-001
52441566.000	-9.038587e-001	-4.271431e-001
52447560.000	-9.039124e-001	-4.271352e-001
52453554.000	-9.039192e-001	-4.270897e-001
52459548.000	-9.039590e-001	-4.270521e-001
52465542.000	-9.039353e-001	-4.270071e-001
52471536.000	-9.039542e-001	-4.269808e-001
52477530.000	-9.040012e-001	-4.268832e-001
52483524.000	-9.040721e-001	-4.268503e-001
52489518.000	-9.040148e-001	-4.268086e-001
52495512.000	-9.040621e-001	-4.267663e-001
52501506.000	-9.040279e-001	-4.267325e-001
52507500.000	-9.041043e-001	-4.266330e-001
52513494.000	-9.041371e-001	-4.266474e-001
52519488.000	-9.041232e-001	-4.265770e-001
52525482.000	-9.041754e-001	-4.265074e-001
52531476.000	-9.041887e-001	-4.264982e-001
52537470.000	-9.041812e-001	-4.264441e-001
52543464.000	-9.041997e-001	-4.264230e-001
52549458.000	-9.042507e-001	-4.263804e-001
52555452.000	-9.042344e-001	-4.263027e-001
52561446.000	-9.043037e-001	-4.263050e-001
52567440.000	-9.042815e-001	-4.262300e-001
52573434.000	-9.043257e-001	-4.261944e-001
52579428.000	-9.043373e-001	-4.260850e-001
52585422.000	-9.043742e-001	-4.261028e-001
52591416.000	-9.043692e-001	-4.260752e-001
52597410.000	-9.043815e-001	-4.260317e-001
52603404.000	-9.043843e-001	-4.259644e-001
52609398.000	-9.044413e-001	-4.259052e-001
52615392.000	-9.044820e-001	-4.258896e-001
52621386.000	-9.045402e-001	-4.258422e-001
52627380.000	-9.045750e-001	-4.257681e-001
52633374.000	-9.045038e-001	-4.258033e-001
52639368.000	-9.045245e-001	-4.256971e-001
52645362.000	-9.045487e-001	-4.256139e-001
52651356.000	-9.045491e-001	-4.255700e-001
52657350.000	-9.046417e-001	-4.255510e-001
52663344.000	-9.046463e-001	-4.254964e-001
52669338.000	-9.046657e-001	-4.254799e-001
52675332.000	-9.047321e-001	-4.254523e-001
52681326.000	-9.046697e-001	-4.254014e-001
52687320.000	-9.047527e-001	-4.253576e-001
52693314.000	-9.047609e-001	-4.253122e-001
52699308.000	-9.047198e-001	-4.252399e-001
52705302.000	-9.047708e-001	-4.252462e-001
52711296.000	-9.047700e-001	-4.251887e-001
52717290.000	-9.048288e-001	-4.251504e-001
52723284.000	-9.048221e-001	-4.250404e-001
52729278.000	-9.048410e-001	-4.250340e-001
52735272.000	-9.048712e-001	-4.249788e-001
52741266.000	-9.049348e-001	-4.248992e-001
52747260.000	-9.048983e-001	-4.249095e-001
52753254.000	-9.049847e-001	-4.248286e-001
52759248.000	-9.049369e-001	-4.247852e-001
52765242.000	-9.049854e-001	-4.248157e-001
52771236.000	-9.050292e-001	-4.247731e-001
52777230.000	-9.050792e-001	-4.246682e-001
52783224.000	-9.049975e-001	-4.246015e-001
52789218.000	-9.050026e-001	-4.245554e-001
52795212.000	-9.050276e-001	-4.245422e-001
52801206.000	-9.050822e-001	-4.244878e-001
52807200.000	-9.051509e-001	-4.244933e-001
52813194.000	-9.050748e-001	-4.244238e-001
52819188.000	-9.051624e-001	-4.243580e-001
52825182.000	-9.051908e-001	-4.242861e-001
52831176.000	-9.051950e-001	-4.242868e-001
52837170.000	-9.051695e-001	-4.242759e-001
52843164.000	-9.052522e-001	-4.242561e-001
52849158.000	-9.052846e-001	-4.241369e-001
52855152.000	-9.052628e-001	-4.240542e-001
52861146.000	-9.052866e-001	-4.240675e-001
52867140.000	-9.052783e-001	-4.239985e-001
52873134.000	-9.053072e-001	-4.239954e-001
52879128.000	-9.053653e-001	-4.239184e-001
52885122.000	-9.053862e-001	-4.238858e-001
52891116.000	-9.054119e-001	-4.238408e-001
52897110.000	-9.054144e-001	-4.237638e-001
52903104.000	-9.054418e-001	-4.237418e-001
52909098.000	-9.053991e-001	-4.236842e-001
52915092.000	-9.055199e-001	-4.236797e-001
52921086.000	-9.054797e-001	-4.236073e-001
52927080.000	-9.054801e-001	-4.235899e-001
52933074.000	-9.055061e-001	-4.235092e-001
52939068.000	-9.055710e-001	-4.235091e-001
52945062.000	-9.055595e-001	-4.234766e-001
52951056.000	-9.055859e-001	-4.233976e-001
52957050.000	-9.055993e-001	-4.233396e-001
52963044.000	-9.056450e-001	-4.233001e-001
52969038.000	-9.056232e-001	-4.232785e-001
52975032.000	-9.056689e-001	-4.232415e-001
52981026.000	-9.057109e-001	-4.231771e-001
52987020.000	-9.057348e-001	-4.231398e-001
52993014.000	-9.057451e-001	-4.231554e-001
52999008.000	-9.057580e-001	-4.230418e-001
53005002.000	-9.057832e-001	-4.230379e-001
53010996.000	-9.058097e-001	-4.229641e-001
53016990.000	-9.057866e-001	-4.228980e-001
53022984.000	-9.057809e-001	-4.228802e-001
53028978.000	-9.058361e-001	-4.228324e-001
53034972.000	-9.058402e-001	-4.227644e-001
53040966.000	-9.058620e-001	-4.227412e-001
53046960.000	-9.059115e-001	-4.227062e-001
53052954.000	-9.059307e-001	-4.226354e-001
53058948.000	-9.059093e-001	-4.225891e-001
53064942.000	-9.059394e-001	-4.225510e-001
53070936.000	-9.060330e-001	-4.224960e-001
53076930.000	-9.060108e-001	-4.224972e-001
53082924.000	-9.060459e-001	-4.224612e-001
53088918.000	-9.060682e-001	-4.224003e-001
53094912.000	-9.060265e-001	-4.223176e-001
53100906.000	-9.060560e-001	-4.223267e-001
53106900.000	-9.060744e-001	-4.223041e-001
53112894.000	-9.061158e-001	-4.222669e-001
53118888.000	-9.061411e-001	-4.221777e-001
53124882.000	-9.061496e-001	-4.221119e-001
53130876.000	-9.061307e-001	-4.220600e-001
53136870.000	-9.062214e-001	-4.220861e-001
53142864.000	-9.061745e-001	-4.219678e-001
53148858.000	-9.062385e-001	-4.219563e-001
53154852.000	-9.062267e-001	-4.218990e-001
53160846.000	-9.063049e-001	-4.219086e-001
53166840.000	-9.062690e-001	-4.218401e-001
53172834.000	-9.063182e-001	-4.217443e-001
53178828.000	-9.063437e-001	-4.217272e-001
53184822.000	-9.062995e-001	-4.216962e-001
53190816.000	-9.063569e-001	-4.216293e-001
53196810.000	-9.063871e-001	-4.215997e-001
53202804.000	-9.063838e-001	-4.215262e-001
53208798.000	-9.064181e-001	-4.215284e-001
53214792.000	-9.064610e-001	-4.214801e-001
53220786.000	-9.064560e-001	-4.214017e-001
53226780.000	-9.065120e-001	-4.213539e-001
53232774.000	-9.064879e-001	-4.213719e-001
53238768.000	-9.065077e-001	-4.213509e-001
53244762.000	-9.065878e-001	-4.213008e-001
53250756.000	-9.066034e-001	-4.212596e-001
53256750.000	-9.066169e-001	-4.212273e-001
53262744.000	-9.065621e-001	-4.211488e-001
53268738.000	-9.066361e-001	-4.211123e-001
53274732.000	-9.066325e-001	-4.210388e-001
53280726.000	-9.066580e-001	-4.209655e-001
53286720.000	-9.066717e-001	-4.209730e-001
53292714.000	-9.067391e-001	-4.209290e-001
53298708.000	-9.067286e-001	-4.208549e-001
53304702.000	-9.067588e-001	-4.208764e-001
53310696.000	-9.068097e-001	-4.208071e-001
53316690.000	-9.068272e-001	-4.207916e-001
53322684.000	-9.067917e-001	-4.206962e-001
53328678.000	-9.068042e-001	-4.207075e-001
53334672.000	-9.068856e-001	-4.206556e-001
53340666.000	-9.068182e-001	-4.205632e-001
53346660.000	-9.068424e-001	-4.205473e-001
53352654.000	-9.068437e-001	-4.204659e-001
53358648.000	-9.069083e-001	-4.204336e-001
53364642.000	-9.069089e-001	-4.203563e-001
53370636.000	-9.069659e-001	-4.203093e-001
53376630.000	-9.069782e-001	-4.203325e-001
53382624.000	-9.070346e-001	-4.203289e-001
53388618.000	-9.069936e-001	-4.202376e-001
53394612.000	-9.070874e-001	-4.201892e-001
53400606.000	-9.071194e-001	-4.201721e-001
53406600.000	-9.070976e-001	-4.201298e-001
53412594.000	-9.070743e-001	-4.200587e-001
53418588.000	-9.071019e-001	-4.199937e-001
53424582.000	-9.071233e-001	-4.199922e-001
53430576.000	-9.071824e-001	-4.199878e-001
53436570.000	-9.071522e-001	-4.198652e-001
53442564.000	-9.071917e-001	-4.198792e-001
53448558.000	-9.072367e-001	-4.198034e-001
53454552.000	-9.072739e-001	-4.197984e-001
53460546.000	-9.072581e-001	-4.197131e-001
53466540.000	-9.072589e-001	-4.196634e-001
53472534.000	-9.072916e-001	-4.196598e-001
53478528.000	-9.073476e-001	-4.196192e-001
53484522.000	-9.073363e-001	-4.195919e-001
53490516.000	-9.073627e-001	-4.195115e-001
53496510.000	-9.073704e-001	-4.194482e-001
53502504.000	-9.073896e-001	-4.194419e-001
53508498.000	-9.074070e-001	-4.193758e-001
53514492.000	-9.073880e-001	-4.193312e-001
53520486.000	-9.074845e-001	-4.192872e-001
53526480.000	-9.074421e-001	-4.192476e-001
53532474.000	-9.074562e-001	-4.191667e-001
53538468.000	-9.075052e-001	-4.191240e-001
53544462.000	-9.075381e-001	-4.191365e-001
53550456.000	-9.075700e-001	-4.190486e-001
53556450.000	-9.075279e-001	-4.189913e-001
53562444.000	-9.075043e-001	-4.189898e-001
53568438.000	-9.076342e-001	-4.189719e-001
53574432.000	-9.076238e-001	-4.189000e-001
53580426.000	-9.077018e-001	-4.188791e-001
53586420.000	-9.076642e-001	-4.188438e-001
53592414.000	-9.076705e-001	-4.188053e-001
53598408.000	-9.077108e-001	-4.187289e-001
53604402.000	-9.077041e-001	-4.186817e-001
53610396.000	-9.077286e-001	-4.186524e-001
53616390.000	-9.077675e-001	-4.186457e-001
53622384.000	-9.077856e-001	-4.185473e-001
53628378.000	-9.078212e-001	-4.185582e-001
53634372.000	-9.078285e-001	-4.185086e-001
53640366.000	-9.078181e-001	-4.184389e-001
53646360.000	-9.078428e-001	-4.184441e-001
53652354.000	-9.078803e-001	-4.183769e-001
53658348.000	-9.078760e-001	-4.182693e-001
53664342.000	-9.078945e-001	-4.182200e-001
53670336.000	-9.079204e-001	-4.181895e-001
53676330.000	-9.078891e-001	-4.181662e-001
53682324.000	-9.079370e-001	-4.181501e-001
53688318.000	-9.079914e-001	-4.181075e-001
53694312.000	-9.079761e-001	-4.180432e-001
53700306.000	-9.079826e-001	-4.180297e-001
53706300.000	-9.080203e-001	-4.179380e-001
53712294.000	-9.079901e-001	-4.178889e-001
53718288.000	-9.080554e-001	-4.178668e-001
53724282.000	-9.080865e-001	-4.177738e-001
53730276.000	-9.081228e-001	-4.178234e-001
53736270.000	-9.081330e-001	-4.177639e-001
53742264.000	-9.081391e-001	-4.177377e-001
53748258.000	-9.081559e-001	-4.176649e-001
53754252.000	-9.082059e-001	-4.176374e-001
53760246.000	-9.082076e-001	-4.175615e-001
53766240.000	-9.082066e-001	-4.175505e-001
53772234.000	-9.081844e-001	-4.174665e-001
53778228.000	-9.082485e-001	-4.174466e-001
53784222.000	-9.082717e-001	-4.173729e-001
53790216.000	-9.082968e-001	-4.173442e-001
53796210.000	-9.083560e-001	-4.173117e-001
53802204.000	-9.083508e-001	-4.172792e-001
53808198.000	-9.083601e-001	-4.172232e-001
53814192.000	-9.083680e-001	-4.171967e-001
53820186.000	-9.084487e-001	-4.171485e-001
53826180.000	-9.084001e-001	-4.170921e-001
53832174.000	-9.084837e-001	-4.171085e-001
53838168.000	-9.084282e-001	-4.170278e-001
53844162.000	-9.084260e-001	-4.169519e-001
53850156.000	-9.085021e-001	-4.169587e-001
53856150.000	-9.085006e-001	-4.168523e-001
53862144.000	-9.085368e-001	-4.168526e-001
53868138.000	-9.085861e-001	-4.168385e-001
53874132.000	-9.085914e-001	-4.168192e-001
53880126.000	-9.085965e-001	-4.167510e-001
53886120.000	-9.086153e-001	-4.167255e-001
53892114.000	-9.086210e-001	-4.166243e-001
53898108.000	-9.086541e-001	-4.165656e-001
53904102.000	-9.086295e-001	-4.165288e-001
53910096.000	-9.086891e-001	-4.165045e-001
53916090.000	-9.087128e-001	-4.164533e-001
53922084.000	-9.086879e-001	-4.164109e-001
53928078.000	-9.087713e-001	-4.163766e-001
53934072.000	-9.087900e-001	-4.163353e-001
53940066.000	-9.087329e-001	-4.163127e-001
53946060.000	-9.087536e-001	-4.162581e-001
53952054.000	-9.088185e-001	-4.162403e-001
53958048.000	-9.088509e-001	-4.161770e-001
53964042.000	-9.088627e-001	-4.161372e-001
53970036.000	-9.088749e-001	-4.160273e-001
53976030.000	-9.088982e-001	-4.160674e-001
53982024.000	-9.089448e-001	-4.160318e-001
53988018.000	-9.089359e-001	-4.159685e-001
53994012.000	-9.088917e-001	-4.159374e-001
54000006.000	-9.089839e-001	-4.158685e-001
54006000.000	-9.089761e-001	-4.158659e-001
54011994.000	-9.089780e-001	-4.158278e-001
54017988.000	-9.090659e-001	-4.158065e-001
54023982.000	-9.090726e-001	-4.157313e-001
54029976.000	-9.090982e-001	-4.156770e-001
54035970.000	-9.090961e-001	-4.156687e-001
54041964.000	-9.091282e-001	-4.155968e-001
54047958.000	-9.091093e-001	-4.155556e-001
54053952.000	-9.091182e-001	-4.154853e-001
54059946.000	-9.091599e-001	-4.154753e-001
54065940.000	-9.092069e-001	-4.154488e-001
54071934.000	-9.092082e-001	-4.154267e-001
54077928.000	-9.092631e-001	-4.153731e-001
54083922.000	-9.092375e-001	-4.153333e-001
54089916.000	-9.092807e-001	-4.152675e-001
54095910.000	-9.092950e-001	-4.152524e-001
54101904.000	-9.093319e-001	-4.152018e-001
54107898.000	-9.093825e-001	-4.151648e-001
54113892.000	-9.093248e-001	-4.151006e-001
54119886.000	-9.093658e-001	-4.150143e-001
54125880.000	-9.093684e-001	-4.150401e-001
54131874.000	-9.094124e-001	-4.149692e-001
54137868.000	-9.094419e-001	-4.149503e-001
54143862.000	-9.094520e-001	-4.149107e-001
54149856.000	-9.094758e-001	-4.148396e-001
54155850.000	-9.094775e-001	-4.147826e-001
54161844.000	-9.095094e-001	-4.148060e-001
54167838.000	-9.095192e-001	-4.147685e-001
54173832.000	-9.095718e-001	-4.147654e-001
54179826.000	-9.095574e-001	-4.146585e-001
54185820.000	-9.095657e-001	-4.145496e-001
54191814.000	-9.095313e-001	-4.145188e-001
54197808.000	-9.096110e-001	-4.145143e-001
54203802.000	-9.096322e-001	-4.144472e-001
54209796.000	-9.096375e-001	-4.143962e-001
54215790.000	-9.096524e-001	-4.143943e-001
54221784.000	-9.096746e-001	-4.142905e-001
54227778.000	-9.097286e-001	-4.143090e-001
54233772.000	-9.096645e-001	-4.142501e-001
54239766.000	-9.097664e-001	-4.141956e-001
54245760.000	-9.097929e-001	-4.141530e-001
54251754.000	-9.097603e-001	-4.141537e-001
54257748.000	-9.097999e-001	-4.140891e-001
54263742.000	-9.098013e-001	-4.140479e-001
54269736.000	-9.097918e-001	-4.139874e-001
54275730.000	-9.097734e-001	-4.139500e-001
54281724.000	-9.098408e-001	-4.139359e-001
54287718.000	-9.098717e-001	-4.138575e-001
54293712.000	-9.099054e-001	-4.138570e-001
54299706.000	-9.098918e-001	-4.137520e-001
54305700.000	-9.098980e-001	-4.137525e-001
54311694.000	-9.099814e-001	-4.137340e-001
54317688.000	-9.099830e-001	-4.136815e-001
54323682.000	-9.099707e-001	-4.136548e-001
54329676.000	-9.100158e-001	-4.135497e-001
54335670.000	-9.100244e-001	-4.135803e-001
54341664.000	-9.100196e-001	-4.134893e-001
54347658.000	-9.100737e-001	-4.134513e-001
54353652.000	-9.100818e-001	-4.134370e-001
54359646.000	-9.100940e-001	-4.133349e-001
54365640.000	-9.100823e-001	-4.133199e-001
54371634.000	-9.100976e-001	-4.132580e-001
54377628.000	-9.101264e-001	-4.132047e-001
54383622.000	-9.101976e-001	-4.131861e-001
54389616.000	-9.101690e-001	-4.131542e-001
54395610.000	-9.102229e-001	-4.131189e-001
54401604.000	-9.102889e-001	-4.130983e-001
54407598.000	-9.102598e-001	-4.130608e-001
54413592.000	-9.102181e-001	-4.129840e-001
54419586.000	-9.102779e-001	-4.129968e-001
54425580.000	-9.102794e-001	-4.128752e-001
54431574.000	-9.103136e-001	-4.128512e-001
54437568.000	-9.103049e-001	-4.128343e-001
54443562.000	-9.103311e-001	-4.128026e-001
54449556.000	-9.103687e-001	-4.127920e-001
54455550.000	-9.104284e-001	-4.127675e-001
54461544.000	-9.103847e-001	-4.126658e-001
54467538.000	-9.104320e-001	-4.125947e-001
54473532.000	-9.104182e-001	-4.125436e-001
54479526.000	-9.104632e-001	-4.125375e-001
54485520.000	-9.104873e-001	-4.125422e-001
54491514.000	-9.105428e-001	-4.124364e-001
54497508.000	-9.105233e-001	-4.124053e-001
54503502.000	-9.105405e-001	-4.124119e-001
54509496.000	-9.105497e-001	-4.123218e-001
54515490.000	-9.105622e-001	-4.123161e-001
54521484.000	-9.105893e-001	-4.123021e-001
54527478.000	-9.106228e-001	-4.122467e-001
54533472.000	-9.107155e-001	-4.121973e-001
54539466.000	-9.106605e-001	-4.121370e-001
54545460.000	-9.106559e-001	-4.120899e-001
54551454.000	-9.107014e-001	-4.120467e-001
54557448.000	-9.106730e-001	-4.120094e-001
54563442.000	-9.107361e-001	-4.119719e-001
54569436.000	-9.107541e-001	-4.118883e-001
54575430.000	-9.107745e-001	-4.119026e-001
54581424.000	-9.107816e-001	-4.118188e-001
54587418.000	-9.107492e-001	-4.118014e-001
54593412.000	-9.107955e-001	-4.117833e-001
54599406.000	-9.108034e-001	-4.116484e-001
54605400.000	-9.108480e-001	-4.116572e-001
54611394.000	-9.108627e-001	-4.115874e-001
54617388.000	-9.109286e-001	-4.115593e-001
54623382.000	-9.108925e-001	-4.115260e-001
54629376.000	-9.108843e-001	-4.115321e-001
54635370.000	-9.109214e-001	-4.114962e-001
54641364.000	-9.109284e-001	-4.114037e-001
54647358.000	-9.109288e-001	-4.113359e-001
54653352.000	-9.109920e-001	-4.113361e-001
54659346.000	-9.110016e-001	-4.112783e-001
54665340.000	-9.109759e-001	-4.112085e-001
54671334.000	-9.110946e-001	-4.111764e-001
54677328.000	-9.110611e-001	-4.111937e-001
54683322.000	-9.110642e-001	-4.111205e-001
54689316.000	-9.110998e-001	-4.111051e-001
54695310.000	-9.110870e-001	-4.110344e-001
54701304.000	-9.111083e-001	-4.109925e-001
54707298.000	-9.111796e-001	-4.109488e-001
54713292.000	-9.112207e-001	-4.109051e-001
54719286.000	-9.112185e-001	-4.109007e-001
54725280.000	-9.111922e-001	-4.108538e-001
54731274.000	-9.112410e-001	-4.107860e-001
54737268.000	-9.112089e-001	-4.107885e-001
54743262.000	-9.112706e-001	-4.107176e-001
54749256.000	-9.112835e-001	-4.107081e-001
54755250.000	-9.113050e-001	-4.106212e-001
54761244.000	-9.112717e-001	-4.105856e-001
54767238.000	-9.113027e-001	-4.105101e-001
54773232.000	-9.113376e-001	-4.104673e-001
54779226.000	-9.113530e-001	-4.104529e-001
54785220.000	-9.113296e-001	-4.104507e-001
54791214.000	-9.113959e-001	-4.103758e-001
54797208.000	-9.113943e-001	-4.103361e-001
54803202.000	-9.114816e-001	-4.102903e-001
54809196.000	-9.114265e-001	-4.102057e-001
54815190.000	-9.114387e-001	-4.102357e-001
54821184.000	-9.115056e-001	-4.101598e-001
54827178.000	-9.115355e-001	-4.101613e-001
54833172.000	-9.115516e-001	-4.101267e-001
54839166.000	-9.115239e-001	-4.100533e-001
54845160.000	-9.115262e-001	-4.099949e-001
54851154.000	-9.115649e-001	-4.099790e-001
54857148.000	-9.115062e-001	-4.099046e-001
54863142.000	-9.115905e-001	-4.098625e-001
54869136.000	-9.115902e-001	-4.098469e-001
54875130.000	-9.116033e-001	-4.098288e-001
54881124.000	-9.116285e-001	-4.097436e-001
54887118.000	-9.116299e-001	-4.096815e-001
54893112.000	-9.116258e-001	-4.096023e-001
54899106.000	-9.117348e-001	-4.096829e-001
54905100.000	-9.116714e-001	-4.095323e-001
54911094.000	-9.117094e-001	-4.094916e-001
54917088.000	-9.117328e-001	-4.094583e-001
54923082.000	-9.117616e-001	-4.094534e-001
54929076.000	-9.117613e-001	-4.094216e-001
54935070.000	-9.117904e-001	-4.093357e-001
54941064.000	-9.118174e-001	-4.092846e-001
54947058.000	-9.118216e-001	-4.092602e-001
54953052.000	-9.118260e-001	-4.092491e-001
54959046.000	-9.118302e-001	-4.092181e-001
54965040.000	-9.118595e-001	-4.091408e-001
54971034.000	-9.118985e-001	-4.091170e-001
54977028.000	-9.119597e-001	-4.091086e-001
54983022.000	-9.120063e-001	-4.090958e-001
54989016.000	-9.119378e-001	-4.090267e-001
54995010.000	-9.119891e-001	-4.090000e-001
55001004.000	-9.119926e-001	-4.088971e-001
55006998.000	-9.120269e-001	-4.088693e-001
55012992.000	-9.120224e-001	-4.088421e-001
55018986.000	-9.120185e-001	-4.087964e-001
55024980.000	-9.120595e-001	-4.087930e-001
55030974.000	-9.120401e-001	-4.087388e-001
55036968.000	-9.120430e-001	-4.086561e-001
55042962.000	-9.121165e-001	-4.086287e-001
55048956.000	-9.121420e-001	-4.086283e-001
55054950.000	-9.121880e-001	-4.085290e-001
55060944.000	-9.122126e-001	-4.084939e-001
55066938.000	-9.122186e-001	-4.084646e-001
55072932.000	-9.122065e-001	-4.084472e-001
55078926.000	-9.122244e-001	-4.083766e-001
55084920.000	-9.122421e-001	-4.083658e-001
55090914.000	-9.122738e-001	-4.083447e-001
55096908.000	-9.122569e-001	-4.082474e-001
55102902.000	-9.122776e-001	-4.082327e-001
55108896.000	-9.123621e-001	-4.081794e-001
55114890.000	-9.123422e-001	-4.081986e-001
55120884.000	-9.123621e-001	-4.081405e-001
55126878.000	-9.124136e-001	-4.080802e-001
55132872.000	-9.124290e-001	-4.080148e-001
55138866.000	-9.124078e-001	-4.080053e-001
55144860.000	-9.124388e-001	-4.079726e-001
55150854.000	-9.124968e-001	-4.079549e-001
55156848.000	-9.124906e-001	-4.078725e-001
55162842.000	-9.124706e-001	-4.078718e-001
55168836.000	-9.124906e-001	-4.078095e-001
55174830.000	-9.125363e-001	-4.077454e-001
55180824.000	-9.125781e-001	-4.077296e-001
55186818.000	-9.125753e-001	-4.076882e-001
55192812.000	-9.125990e-001	-4.076393e-001
55198806.000	-9.125773e-001	-4.075902e-001
55204800.000	-9.125628e-001	-4.075324e-001
55210794.000	-9.126498e-001	-4.075510e-001
55216788.000	-9.126456e-001	-4.074612e-001
55222782.000	-9.126835e-001	-4.074620e-001
55228776.000	-9.126542e-001	-4.073815e-001
55234770.000	-9.126947e-001	-4.073871e-001
55240764.000	-9.127282e-001	-4.073050e-001
55246758.000	-9.127508e-001	-4.072110e-001
55252752.000	-9.127177e-001	-4.072593e-001
55258746.000	-9.127409e-001	-4.072153e-001
55264740.000	-9.127937e-001	-4.071248e-001
55270734.000	-9.128381e-001	-4.071712e-001
55276728.000	-9.128554e-001	-4.070871e-001
55282722.000	-9.128531e-001	-4.070623e-001
55288716.000	-9.128696e-001	-4.069925e-001
55294710.000	-9.128636e-001	-4.069631e-001
55300704.000	-9.128885e-001	-4.069134e-001
55306698.000	-9.129009e-001	-4.068103e-001
55312692.000	-9.129190e-001	-4.068316e-001
55318686.000	-9.129162e-001	-4.067850e-001
55324680.000	-9.129257e-001	-4.067421e-001
55330674.000	-9.129768e-001	-4.067087e-001
55336668.000	-9.129871e-001	-4.067063e-001
55342662.000	-9.130030e-001	-4.066048e-001
55348656.000	-9.130329e-001	-4.065706e-001
55354650.000	-9.130595e-001	-4.065514e-001
55360644.000	-9.130805e-001	-4.064746e-001
55366638.000	-9.131161e-001	-4.064640e-001
55372632.000	-9.130963e-001	-4.064283e-001
55378626.000	-9.131273e-001	-4.064000e-001
55384620.000	-9.131353e-001	-4.063647e-001
55390614.000	-9.131572e-001	-4.062487e-001
55396608.000	-9.131491e-001	-4.062290e-001
55402602.000	-9.131842e-001	-4.062163e-001
55408596.000	-9.132577e-001	-4.061437e-001
55414590.000	-9.131928e-001	-4.061543e-001
55420584.000	-9.132507e-001	-4.060982e-001
55426578.000	-9.132454e-001	-4.060492e-001
55432572.000	-9.132825e-001	-4.060336e-001
55438566.000	-9.133040e-001	-4.060002e-001
55444560.000	-9.133301e-001	-4.059405e-001
55450554.000	-9.133436e-001	-4.058710e-001
55456548.000	-9.133631e-001	-4.058680e-001
55462542.000	-9.133860e-001	-4.058224e-001
55468536.000	-9.133950e-001	-4.057565e-001
55474530.000	-9.134151e-001	-4.057021e-001
55480524.000	-9.134423e-001	-4.057275e-001
55486518.000	-9.134381e-001	-4.056935e-001
55492512.000	-9.134855e-001	-4.055712e-001
55498506.000	-9.134415e-001	-4.055555e-001
55504500.000	-9.134798e-001	-4.055590e-001
55510494.000	-9.135349e-001	-4.054967e-001
55516488.000	-9.135423e-001	-4.054788e-001
55522482.000	-9.135781e-001	-4.054414e-001
55528476.000	-9.135506e-001	-4.053717e-001
55534470.000	-9.135979e-001	-4.053505e-001
55540464.000	-9.135700e-001	-4.052455e-001
55546458.000	-9.136127e-001	-4.052557e-001
55552452.000	-9.136110e-001	-4.052149e-001
55558446.000	-9.136041e-001	-4.051524e-001
55564440.000	-9.136832e-001	-4.051397e-001
55570434.000	-9.136849e-001	-4.050818e-001
55576428.000	-9.136960e-001	-4.050539e-001
55582422.000	-9.137539e-001	-4.050211e-001
55588416.000	-9.137408e-001	-4.049561e-001
55594410.000	-9.137495e-001	-4.049493e-001
55600404.000	-9.138003e-001	-4.048843e-001
55606398.000	-9.137439e-001	-4.048677e-001
55612392.000	-9.138072e-001	-4.048203e-001
55618386.000	-9.137942e-001	-4.047696e-001
55624380.000	-9.138267e-001	-4.047225e-001
55630374.000	-9.138712e-001	-4.046722e-001
55636368.000	-9.138752e-001	-4.046655e-001
55642362.000	-9.139144e-001	-4.046188e-001
55648356.000	-9.139250e-001	-4.046450e-001
55654350.000	-9.139049e-001	-4.044882e-001
55660344.000	-9.139302e-001	-4.044284e-001
55666338.000	-9.139465e-001	-4.044583e-001
55672332.000	-9.139649e-001	-4.044109e-001
55678326.000	-9.139642e-001	-4.043879e-001
55684320.000	-9.139783e-001	-4.043018e-001
55690314.000	-9.140782e-001	-4.043252e-001
55696308.000	-9.140682e-001	-4.042772e-001
55702302.000	-9.140228e-001	-4.042195e-001
55708296.000	-9.141130e-001	-4.042039e-001
55714290.000	-9.140924e-001	-4.041556e-001
55720284.000	-9.141485e-001	-4.041400e-001
55726278.000	-9.141714e-001	-4.040588e-001
55732272.000	-9.142088e-001	-4.040374e-001
55738266.000	-9.141717e-001	-4.040207e-001
55744260.000	-9.141911e-001	-4.039588e-001
55750254.000	-9.141621e-001	-4.038849e-001
55756248.000	-9.142182e-001	-4.038725e-001
55762242.000	-9.142090e-001	-4.037868e-001
55768236.000	-9.142404e-001	-4.037465e-001
55774230.000	-9.142683e-001	-4.037319e-001
55780224.000	-9.143135e-001	-4.036596e-001
55786218.000	-9.142892e-001	-4.036671e-001
55792212.000	-9.142810e-001	-4.035778e-001
55798206.000	-9.143617e-001	-4.035877e-001
55804200.000	-9.143478e-001	-4.035240e-001
55810194.000	-9.143787e-001	-4.034748e-001
55816188.000	-9.144359e-001	-4.035005e-001
55822182.000	-9.144029e-001	-4.033943e-001
55828176.000	-9.144075e-001	-4.033258e-001
55834170.000	-9.144679e-001	-4.033429e-001
55840164.000	-9.144926e-001	-4.033187e-001
55846158.000	-9.144810e-001	-4.032835e-001
55852152.000	-9.145029e-001	-4.032430e-001
55858146.000	-9.144575e-001	-4.031608e-001
55864140.000	-9.144895e-001	-4.030918e-001
55870134.000	-9.145411e-001	-4.030827e-001
55876128.000	-9.145062e-001	-4.030072e-001
55882122.000	-9.145247e-001	-4.029586e-001
55888116.000	-9.146110e-001	-4.030210e-001
55894110.000	-9.145827e-001	-4.029185e-001
55900104.000	-9.146231e-001	-4.029139e-001
55906098.000	-9.146496e-001	-4.028201e-001
55912092.000	-9.146189e-001	-4.028322e-001
55918086.000	-9.146403e-001	-4.027207e-001
55924080.000	-9.146676e-001	-4.027061e-001
55930074.000	-9.146270e-001	-4.026375e-001
55936068.000	-9.146996e-001	-4.026797e-001
55942062.000	-9.146666e-001	-4.026196e-001
55948056.000	-9.147044e-001	-4.025803e-001
55954050.000	-9.147794e-001	-4.025384e-001
55960044.000	-9.148177e-001	-4.024943e-001
55966038.000	-9.147713e-001	-4.025034e-001
55972032.000	-9.148178e-001	-4.024419e-001
55978026.000	-9.148125e-001	-4.023632e-001
55984020.000	-9.148393e-001	-4.022974e-001
55990014.000	-9.148197e-001	-4.022532e-001
55996008.000	-9.148712e-001	-4.022587e-001
56002002.000	-9.148940e-001	-4.021953e-001
56007996.000	-9.149057e-001	-4.021715e-001
56013990.000	-9.149039e-001	-4.021140e-001
56019984.000	-9.149798e-001	-4.020997e-001
56025978.000	-9.149767e-001	-4.020416e-001
56031972.000	-9.149697e-001	-4.019641e-001
56037966.000	-9.149533e-001	-4.019586e-001
56043960.000	-9.150565e-001	-4.019718e-001
56049954.000	-9.150166e-001	-4.018604e-001
56055948.000	-9.150329e-001	-4.018463e-001
56061942.000	-9.150536e-001	-4.018199e-001
56067936.000	-9.150754e-001	-4.017277e-001
56073930.000	-9.151190e-001	-4.017413e-001
56079924.000	-9.151066e-001	-4.016664e-001
56085918.000	-9.151405e-001	-4.016780e-001
56091912.000	-9.151249e-001	-4.016014e-001
56097906.000	-9.151376e-001	-4.016329e-001
56103900.000	-9.151693e-001	-4.015321e-001
56109894.000	-9.151788e-001	-4.014628e-001
56115888.000	-9.152139e-001	-4.014372e-001
56121882.000	-9.152377e-001	-4.014150e-001
56127876.000	-9.152849e-001	-4.013774e-001
56133870.000	-9.152751e-001	-4.013278e-001
56139864.000	-9.152677e-001	-4.012895e-001
56145858.000	-9.153033e-001	-4.012882e-001
56151852.000	-9.153125e-001	-4.012455e-001
56157846.000	-9.153876e-001	-4.012110e-001
56163840.000	-9.153279e-001	-4.011802e-001
56169834.000	-9.153506e-001	-4.010510e-001
56175828.000	-9.154152e-001	-4.010661e-001
56181822.000	-9.153898e-001	-4.010274e-001
56187816.000	-9.154008e-001	-4.009939e-001
56193810.000	-9.154133e-001	-4.009307e-001
56199804.000	-9.154925e-001	-4.009529e-001
56205798.000	-9.154825e-001	-4.008945e-001
56211792.000	-9.154949e-001	-4.008513e-001
56217786.000	-9.155372e-001	-4.007968e-001
56223780.000	-9.155194e-001	-4.007602e-001
56229774.000	-9.156139e-001	-4.007217e-001
56235768.000	-9.155436e-001	-4.006872e-001
56241762.000	-9.155948e-001	-4.006488e-001
56247756.000	-9.155751e-001	-4.006422e-001
56253750.000	-9.156309e-001	-4.005893e-001
56259744.000	-9.156949e-001	-4.005346e-001
56265738.000	-9.156952e-001	-4.005038e-001
56271732.000	-9.156795e-001	-4.004250e-001
56277726.000	-9.156594e-001	-4.003924e-001
56283720.000	-9.156435e-001	-4.003466e-001
56289714.000	-9.157143e-001	-4.003646e-001
56295708.000	-9.157719e-001	-4.003155e-001
56301702.000	-9.157648e-001	-4.002548e-001
56307696.000	-9.157905e-001	-4.002213e-001
56313690.000	-9.157567e-001	-4.002162e-001
56319684.000	-9.157972e-001	-4.001841e-001
56325678.000	-9.158182e-001	-4.000857e-001
56331672.000	-9.158905e-001	-4.000731e-001
56337666.000	-9.158876e-001	-4.000151e-001
56343660.000	-9.158869e-001	-3.999862e-001
56349654.000	-9.158547e-001	-3.999195e-001
56355648.000	-9.159171e-001	-3.998830e-001
56361642.000	-9.158898e-001	-3.998146e-001
56367636.000	-9.159237e-001	-3.998230e-001
56373630.000	-9.159487e-001	-3.997598e-001
56379624.000	-9.160026e-001	-3.998094e-001
56385618.000	-9.160434e-001	-3.997170e-001
56391612.000	-9.160039e-001	-3.996524e-001
56397606.000	-9.159768e-001	-3.995996e-001
56403600.000	-9.159934e-001	-3.995638e-001
56409594.000	-9.160159e-001	-3.994803e-001
56415588.000	-9.160209e-001	-3.994495e-001
56421582.000	-9.161104e-001	-3.994419e-001
56427576.000	-9.160793e-001	-3.994335e-001
56433570.000	-9.160916e-001	-3.993672e-001
56439564.000	-9.160975e-001	-3.993231e-001
56445558.000	-9.161456e-001	-3.993208e-001
56451552.000	-9.161633e-001	-3.993217e-001
56457546.000	-9.161638e-001	-3.992085e-001
56463540.000	-9.161942e-001	-3.991231e-001
56469534.000	-9.162286e-001	-3.991645e-001
56475528.000	-9.161859e-001	-3.990886e-001
56481522.000	-9.162068e-001	-3.990520e-001
56487516.000	-9.162355e-001	-3.990304e-001
56493510.000	-9.162550e-001	-3.989129e-001
56499504.000	-9.162759e-001	-3.989674e-001
56505498.000	-9.162359e-001	-3.988776e-001
56511492.000	-9.162957e-001	-3.988326e-001
56517486.000	-9.163076e-001	-3.987788e-001
56523480.000	-9.163261e-001	-3.987777e-001
56529474.000	-9.163563e-001	-3.987123e-001
56535468.000	-9.163748e-001	-3.987232e-001
56541462.000	-9.163597e-001	-3.987202e-001
56547456.000	-9.164278e-001	-3.986387e-001
56553450.000	-9.163944e-001	-3.985892e-001
56559444.000	-9.163929e-001	-3.985070e-001
56565438.000	-9.164040e-001	-3.984936e-001
56571432.000	-9.164627e-001	-3.984147e-001
56577426.000	-9.164719e-001	-3.984100e-001
56583420.000	-9.165015e-001	-3.983853e-001
56589414.000	-9.164763e-001	-3.983576e-001
56595408.000	-9.164896e-001	-3.983309e-001
56601402.000	-9.165293e-001	-3.982479e-001
56607396.000	-9.166123e-001	-3.982362e-001
56613390.000	-9.165831e-001	-3.982376e-001
56619384.000	-9.165746e-001	-3.981201e-001
56625378.000	-9.165822e-001	-3.980845e-001
56631372.000	-9.166144e-001	-3.980794e-001
56637366.000	-9.166482e-001	-3.980550e-001
56643360.000	-9.166680e-001	-3.980295e-001
56649354.000	-9.167633e-001	-3.980423e-001
56655348.000	-9.166835e-001	-3.979592e-001
56661342.000	-9.167268e-001	-3.979252e-001
56667336.000	-9.167040e-001	-3.978662e-001
56673330.000	-9.167453e-001	-3.978443e-001
56679324.000	-9.167842e-001	-3.978085e-001
56685318.000	-9.167456e-001	-3.977026e-001
56691312.000	-9.167625e-001	-3.977078e-001
56697306.000	-9.168060e-001	-3.976691e-001
56703300.000	-9.168701e-001	-3.976414e-001
56709294.000	-9.168827e-001	-3.975902e-001
56715288.000	-9.169106e-001	-3.975379e-001
56721282.000	-9.168849e-001	-3.975430e-001
56727276.000	-9.168768e-001	-3.974671e-001
56733270.000	-9.169254e-001	-3.974421e-001
56739264.000	-9.169306e-001	-3.973466e-001
56745258.000	-9.169672e-001	-3.973668e-001
56751252.000	-9.169751e-001	-3.973081e-001
56757246.000	-9.169702e-001	-3.972728e-001
56763240.000	-9.169689e-001	-3.972325e-001
56769234.000	-9.170247e-001	-3.972050e-001
56775228.000	-9.170083e-001	-3.971445e-001
56781222.000	-9.169921e-001	-3.970803e-001
56787216.000	-9.170982e-001	-3.970774e-001
56793210.000	-9.170838e-001	-3.970655e-001
56799204.000	-9.171123e-001	-3.970061e-001
56805198.000	-9.171276e-001	-3.969682e-001
56811192.000	-9.171662e-001	-3.969495e-001
56817186.000	-9.171488e-001	-3.969030e-001
56823180.000	-9.171520e-001	-3.968299e-001
56829174.000	-9.172284e-001	-3.967972e-001
56835168.000	-9.171588e-001	-3.967451e-001
56841162.000	-9.171611e-001	-3.966747e-001
56847156.000	-9.172221e-001	-3.967026e-001
56853150.000	-9.172285e-001	-3.966678e-001
56859144.000	-9.172121e-001	-3.965950e-001
56865138.000	-9.172200e-001	-3.965047e-001
56871132.000	-9.172911e-001	-3.965255e-001
56877126.000	-9.172704e-001	-3.964914e-001
56883120.000	-9.173007e-001	-3.964017e-001
56889114.000	-9.173161e-001	-3.963965e-001
56895108.000	-9.173282e-001	-3.963408e-001
56901102.000	-9.172984e-001	-3.962939e-001
56907096.000	-9.173808e-001	-3.963062e-001
56913090.000	-9.173758e-001	-3.962117e-001
56919084.000	-9.173821e-001	-3.962353e-001
56925078.000	-9.174151e-001	-3.962117e-001
56931072.000	-9.174303e-001	-3.961413e-001
56937066.000	-9.173506e-001	-3.960797e-001
56943060.000	-9.174553e-001	-3.960675e-001
56949054.000	-9.174605e-001	-3.959701e-001
56955048.000	-9.174984e-001	-3.959431e-001
56961042.000	-9.175164e-001	-3.959368e-001
56967036.000	-9.175539e-001	-3.958614e-001
56973030.000	-9.175037e-001	-3.958474e-001
56979024.000	-9.175570e-001	-3.957927e-001
56985018.000	-9.175609e-001	-3.957691e-001
56991012.000	-9.176039e-001	-3.957330e-001
56997006.000	-9.175955e-001	-3.956974e-001
57003000.000	-9.176068e-001	-3.956641e-001
57008994.000	-9.176682e-001	-3.956033e-001
57014988.000	-9.176762e-001	-3.955732e-001
57020982.000	-9.176229e-001	-3.955405e-001
57026976.000	-9.176869e-001	-3.955137e-001
57032970.000	-9.177223e-001	-3.954933e-001
57038964.000	-9.177242e-001	-3.954146e-001
57044958.000	-9.176952e-001	-3.953652e-001
57050952.000	-9.177032e-001	-3.953106e-001
57056946.000	-9.177312e-001	-3.953159e-001
57062940.000	-9.177750e-001	-3.952981e-001
57068934.000	-9.177925e-001	-3.952438e-001
57074928.000	-9.177940e-001	-3.951679e-001
57080922.000	-9.178947e-001	-3.951503e-001
57086916.000	-9.178807e-001	-3.951179e-001
57092910.000	-9.178577e-001	-3.950581e-001
57098904.000	-9.178866e-001	-3.950081e-001
57104898.000	-9.178831e-001	-3.950243e-001
57110892.000	-9.179021e-001	-3.949504e-001
57116886.000	-9.179625e-001	-3.949664e-001
57122880.000	-9.179687e-001	-3.948959e-001
57128874.000	-9.179034e-001	-3.948691e-001
57134868.000	-9.180083e-001	-3.947893e-001
57140862.000	-9.179818e-001	-3.947986e-001
57146856.000	-9.179992e-001	-3.947466e-001
57152850.000	-9.180360e-001	-3.947000e-001
57158844.000	-9.180580e-001	-3.946552e-001
57164838.000	-9.180184e-001	-3.945785e-001
57170832.000	-9.180868e-001	-3.945402e-001
57176826.000	-9.180720e-001	-3.945503e-001
57182820.000	-9.180830e-001	-3.944881e-001
57188814.000	-9.181322e-001	-3.945119e-001
57194808.000	-9.181262e-001	-3.944625e-001
57200802.000	-9.181729e-001	-3.944188e-001
57206796.000	-9.181848e-001	-3.943427e-001
57212790.000	-9.181898e-001	-3.943288e-001
57218784.000	-9.182186e-001	-3.943051e-001
57224778.000	-9.182121e-001	-3.942236e-001
57230772.000	-9.181740e-001	-3.941869e-001
57236766.000	-9.182236e-001	-3.941645e-001
57242760.000	-9.182524e-001	-3.941285e-001
57248754.000	-9.182793e-001	-3.940461e-001
57254748.000	-9.182662e-001	-3.940332e-001
57260742.000	-9.183161e-001	-3.940758e-001
57266736.000	-9.183498e-001	-3.939846e-001
57272730.000	-9.183757e-001	-3.939413e-001
57278724.000	-9.183362e-001	-3.939686e-001
57284718.000	-9.184037e-001	-3.938751e-001
57290712.000	-9.183838e-001	-3.938241e-001
57296706.000	-9.183905e-001	-3.937880e-001
57302700.000	-9.184286e-001	-3.937395e-001
57308694.000	-9.183996e-001	-3.936955e-001
57314688.000	-9.184216e-001	-3.936453e-001
57320682.000	-9.184155e-001	-3.936321e-001
57326676.000	-9.184526e-001	-3.935991e-001
57332670.000	-9.184848e-001	-3.935395e-001
57338664.000	-9.185244e-001	-3.935427e-001
57344658.000	-9.185552e-001	-3.935084e-001
57350652.000	-9.185553e-001	-3.934347e-001
57356646.000	-9.185899e-001	-3.933991e-001
57362640.000	-9.185529e-001	-3.933426e-001
57368634.000	-9.185266e-001	-3.933105e-001
57374628.000	-9.186169e-001	-3.932798e-001
57380622.000	-9.185585e-001	-3.932222e-001
57386616.000	-9.186235e-001	-3.932106e-001
57392610.000	-9.186282e-001	-3.931836e-001
57398604.000	-9.186713e-001	-3.931568e-001
57404598.000	-9.187052e-001	-3.931461e-001
57410592.000	-9.187030e-001	-3.930723e-001
57416586.000	-9.187454e-001	-3.930402e-001
57422580.000	-9.187536e-001	-3.930094e-001
57428574.000	-9.187020e-001	-3.929082e-001
57434568.000	-9.188157e-001	-3.929187e-001
57440562.000	-9.187497e-001	-3.928731e-001
57446556.000	-9.187574e-001	-3.928698e-001
57452550.000	-9.187851e-001	-3.927957e-001
57458544.000	-9.188058e-001	-3.927824e-001
57464538.000	-9.188247e-001	-3.926919e-001
57470532.000	-9.188393e-001	-3.927002e-001
57476526.000	-9.188290e-001	-3.926465e-001
57482520.000	-9.189000e-001	-3.926193e-001
57488514.000	-9.189059e-001	-3.925803e-001
57494508.000	-9.188990e-001	-3.925436e-001
57500502.000	-9.189770e-001	-3.924911e-001
57506496.000	-9.189494e-001	-3.924646e-001
57512490.000	-9.189894e-001	-3.924753e-001
57518484.000	-9.189832e-001	-3.923774e-001
57524478.000	-9.190394e-001	-3.923477e-001
57530472.000	-9.190179e-001	-3.922795e-001
57536466.000	-9.190297e-001	-3.922962e-001
57542460.000	-9.190364e-001	-3.922186e-001
57548454.000	-9.190466e-001	-3.921981e-001
57554448.000	-9.191215e-001	-3.921759e-001
57560442.000	-9.191207e-001	-3.920967e-001
57566436.000	-9.191754e-001	-3.920913e-001
57572430.000	-9.191651e-001	-3.920816e-001
57578424.000	-9.191631e-001	-3.920328e-001
57584418.000	-9.192160e-001	-3.920101e-001
57590412.000	-9.191873e-001	-3.919664e-001
57596406.000	-9.191846e-001	-3.919035e-001
57602400.000	-9.191994e-001	-3.919008e-001
57608394.000	-9.192272e-001	-3.918395e-001
57614388.000	-9.191929e-001	-3.918504e-001
57620382.000	-9.192560e-001	-3.917836e-001
57626376.000	-9.193166e-001	-3.917147e-001
57632370.000	-9.192876e-001	-3.916760e-001
57638364.000	-9.192943e-001	-3.916324e-001
57644358.000	-9.193283e-001	-3.915934e-001
57650352.000	-9.193995e-001	-3.916138e-001
57656346.000	-9.193648e-001	-3.915054e-001
57662340.000	-9.193619e-001	-3.914984e-001
57668334.000	-9.193749e-001	-3.914809e-001
57674328.000	-9.194426e-001	-3.914308e-001
57680322.000	-9.194760e-001	-3.914217e-001
57686316.000	-9.194408e-001	-3.913347e-001
57692310.000	-9.194401e-001	-3.912851e-001
57698304.000	-9.194717e-001	-3.913065e-001
57704298.000	-9.194975e-001	-3.912290e-001
57710292.000	-9.194978e-001	-3.912061e-001
57716286.000	-9.195215e-001	-3.911560e-001
57722280.000	-9.195240e-001	-3.910965e-001
57728274.000	-9.195549e-001	-3.910940e-001
57734268.000	-9.195437e-001	-3.910299e-001
57740262.000	-9.195680e-001	-3.909873e-001
57746256.000	-9.195926e-001	-3.909705e-001
57752250.000	-9.195817e-001	-3.909385e-001
57758244.000	-9.196296e-001	-3.909347e-001
57764238.000	-9.196570e-001	-3.908635e-001
57770232.000	-9.196506e-001	-3.908123e-001
57776226.000	-9.196352e-001	-3.907995e-001
57782220.000	-9.196172e-001	-3.907362e-001
57788214.000	-9.196332e-001	-3.907225e-001
57794208.000	-9.197114e-001	-3.906878e-001
57800202.000	-9.197454e-001	-3.906431e-001
57806196.000	-9.196765e-001	-3.905467e-001
57812190.000	-9.197392e-001	-3.905435e-001
57818184.000	-9.198164e-001	-3.904972e-001
57824178.000	-9.197350e-001	-3.904532e-001
57830172.000	-9.198085e-001	-3.903894e-001
57836166.000	-9.197841e-001	-3.903785e-001
57842160.000	-9.198698e-001	-3.903102e-001
57848154.000	-9.198734e-001	-3.903858e-001
57854148.000	-9.198545e-001	-3.902990e-001
57860142.000	-9.198573e-001	-3.902674e-001
57866136.000	-9.198377e-001	-3.902389e-001
57872130.000	-9.199286e-001	-3.901791e-001
57878124.000	-9.199575e-001	-3.901783e-001
57884118.000	-9.199186e-001	-3.900928e-001
57890112.000	-9.199506e-001	-3.901260e-001
57896106.000	-9.199937e-001	-3.900118e-001
57902100.000	-9.199808e-001	-3.899930e-001
57908094.000	-9.200193e-001	-3.899615e-001
57914088.000	-9.199928e-001	-3.898989e-001
57920082.000	-9.200072e-001	-3.898965e-001
57926076.000	-9.200480e-001	-3.898564e-001
57932070.000	-9.200663e-001	-3.897785e-001
57938064.000	-9.200733e-001	-3.897925e-001
57944058.000	-9.200996e-001	-3.897178e-001
57950052.000	-9.200762e-001	-3.896744e-001
57956046.000	-9.201329e-001	-3.896260e-001
57962040.000	-9.201083e-001	-3.895801e-001
57968034.000	-9.201357e-001	-3.895931e-001
57974028.000	-9.201692e-001	-3.895363e-001
57980022.000	-9.201479e-001	-3.894853e-001
57986016.000	-9.201777e-001	-3.894628e-001
57992010.000	-9.202184e-001	-3.894511e-001
57998004.000	-9.201932e-001	-3.894285e-001
58003998.000	-9.202446e-001	-3.893633e-001
58009992.000	-9.202546e-001	-3.893641e-001
58015986.000	-9.202939e-001	-3.892687e-001
58021980.000	-9.203053e-001	-3.892128e-001
58027974.000	-9.203092e-001	-3.891934e-001
58033968.000	-9.203337e-001	-3.891394e-001
58039962.000	-9.202884e-001	-3.891128e-001
58045956.000	-9.203671e-001	-3.890789e-001
58051950.000	-9.204034e-001	-3.890261e-001
58057944.000	-9.204108e-001	-3.890434e-001
58063938.000	-9.203851e-001	-3.889621e-001
58069932.000	-9.203767e-001	-3.889508e-001
58075926.000	-9.204100e-001	-3.888953e-001
58081920.000	-9.204014e-001	-3.889040e-001
58087914.000	-9.204916e-001	-3.888385e-001
58093908.000	-9.204432e-001	-3.887797e-001
58099902.000	-9.204886e-001	-3.887339e-001
58105896.000	-9.204360e-001	-3.887572e-001
58111890.000	-9.205086e-001	-3.886753e-001
58117884.000	-9.205389e-001	-3.886987e-001
58123878.000	-9.205791e-001	-3.886618e-001
58129872.000	-9.206051e-001	-3.886365e-001
58135866.000	-9.205602e-001	-3.885247e-001
58141860.000	-9.205809e-001	-3.884953e-001
58147854.000	-9.205842e-001	-3.884779e-001
58153848.000	-9.206338e-001	-3.884046e-001
58159842.000	-9.206012e-001	-3.883651e-001
58165836.000	-9.206733e-001	-3.883289e-001
58171830.000	-9.207067e-001	-3.883402e-001
58177824.000	-9.206965e-001	-3.883245e-001
58183818.000	-9.206950e-001	-3.882365e-001
58189812.000	-9.207366e-001	-3.882009e-001
58195806.000	-9.207288e-001	-3.881592e-001
58201800.000	-9.207136e-001	-3.881360e-001
58207794.000	-9.207662e-001	-3.881001e-001
58213788.000	-9.207760e-001	-3.880635e-001
58219782.000	-9.208133e-001	-3.880519e-001
58225776.000	-9.207942e-001	-3.880370e-001
58231770.000	-9.207795e-001	-3.879200e-001
58237764.000	-9.208755e-001	-3.878908e-001
58243758.000	-9.208752e-001	-3.878474e-001
58249752.000	-9.208670e-001	-3.878899e-001
58255746.000	-9.208922e-001	-3.878478e-001
58261740.000	-9.209412e-001	-3.878087e-001
58267734.000	-9.208923e-001	-3.877457e-001
58273728.000	-9.208884e-001	-3.876592e-001
58279722.000	-9.209632e-001	-3.876615e-001
58285716.000	-9.209386e-001	-3.876215e-001
58291710.000	-9.209840e-001	-3.875666e-001
58297704.000	-9.209828e-001	-3.875371e-001
58303698.000	-9.210527e-001	-3.875118e-001
58309692.000	-9.210258e-001	-3.874564e-001
58315686.000	-9.210227e-001	-3.874589e-001
58321680.000	-9.210487e-001	-3.874219e-001
58327674.000	-9.210582e-001	-3.873868e-001
58333668.000	-9.210425e-001	-3.873324e-001
58339662.000	-9.211199e-001	-3.873059e-001
58345656.000	-9.210893e-001	-3.872579e-001
58351650.000	-9.210692e-001	-3.871919e-001
58357644.000	-9.210955e-001	-3.871393e-001
58363638.000	-9.211468e-001	-3.871725e-001
58369632.000	-9.212000e-001	-3.870892e-001
58375626.000	-9.211687e-001	-3.870542e-001
58381620.000	-9.211649e-001	-3.870080e-001
58387614.000	-9.212220e-001	-3.870073e-001
58393608.000	-9.211648e-001	-3.869647e-001
58399602.000	-9.212777e-001	-3.869462e-001
58405596.000	-9.212279e-001	-3.868839e-001
58411590.000	-9.212457e-001	-3.868214e-001
58417584.000	-9.212692e-001	-3.868285e-001
58423578.000	-9.212795e-001	-3.867803e-001
58429572.000	-9.213056e-001	-3.867468e-001
58435566.000	-9.213142e-001	-3.866585e-001
58441560.000	-9.213466e-001	-3.867037e-001
58447554.000	-9.213749e-001	-3.866431e-001
58453548.000	-9.214111e-001	-3.866257e-001
58459542.000	-9.214143e-001	-3.865568e-001
58465536.000	-9.214396e-001	-3.865177e-001
58471530.000	-9.214453e-001	-3.865188e-001
58477524.000	-9.213905e-001	-3.864395e-001
58483518.000	-9.214772e-001	-3.864522e-001
58489512.000	-9.214471e-001	-3.863485e-001
58495506.000	-9.214831e-001	-3.863284e-001
58501500.000	-9.215036e-001	-3.862552e-001
58507494.000	-9.214878e-001	-3.862271e-001
58513488.000	-9.214709e-001	-3.862101e-001
58519482.000	-9.215487e-001	-3.862012e-001
58525476.000	-9.215763e-001	-3.861001e-001
58531470.000	-9.215597e-001	-3.861001e-001
58537464.000	-9.215959e-001	-3.860881e-001
58543458.000	-9.215875e-001	-3.860281e-001
58549452.000	-9.216076e-001	-3.860443e-001
58555446.000	-9.216175e-001	-3.859612e-001
58561440.000	-9.216213e-001	-3.858986e-001
58567434.000	-9.216474e-001	-3.859028e-001
58573428.000	-9.216656e-001	-3.858348e-001
58579422.000	-9.216886e-001	-3.858363e-001
58585416.000	-9.216892e-001	-3.858098e-001
58591410.000	-9.217147e-001	-3.857237e-001
58597404.000	-9.217077e-001	-3.856683e-001
58603398.000	-9.217560e-001	-3.856250e-001
58609392.000	-9.216928e-001	-3.856301e-001
58615386.000	-9.217564e-001	-3.856094e-001
58621380.000	-9.217583e-001	-3.854917e-001
58627374.000	-9.217588e-001	-3.854937e-001
58633368.000	-9.217995e-001	-3.855292e-001
58639362.000	-9.218234e-001	-3.854390e-001
58645356.000	-9.218588e-001	-3.853929e-001
58651350.000	-9.218272e-001	-3.853450e-001
58657344.000	-9.218955e-001	-3.853531e-001
58663338.000	-9.219350e-001	-3.853115e-001
58669332.000	-9.218661e-001	-3.852855e-001
58675326.000	-9.219390e-001	-3.852045e-001
58681320.000	-9.219021e-001	-3.852043e-001
58687314.000	-9.218737e-001	-3.850821e-001
58693308.000	-9.219553e-001	-3.851056e-001
58699302.000	-9.219340e-001	-3.850858e-001
58705296.000	-9.220320e-001	-3.850405e-001
58711290.000	-9.220224e-001	-3.850310e-001
58717284.000	-9.220684e-001	-3.849849e-001
58723278.000	-9.220328e-001	-3.849203e-001
58729272.000	-9.220504e-001	-3.848928e-001
58735266.000	-9.220281e-001	-3.848795e-001
58741260.000	-9.221089e-001	-3.848904e-001
58747254.000	-9.221713e-001	-3.848110e-001
58753248.000	-9.221198e-001	-3.847962e-001
58759242.000	-9.221004e-001	-3.846837e-001
58765236.000	-9.221361e-001	-3.847009e-001
58771230.000	-9.221160e-001	-3.846483e-001
58777224.000	-9.221853e-001	-3.846232e-001
58783218.000	-9.221759e-001	-3.845989e-001
58789212.000	-9.221673e-001	-3.845173e-001
58795206.000	-9.221834e-001	-3.844779e-001
58801200.000	-9.221961e-001	-3.844639e-001
58807194.000	-9.222439e-001	-3.844114e-001
58813188.000	-9.222719e-001	-3.843788e-001
58819182.000	-9.222288e-001	-3.843422e-001
58825176.000	-9.221988e-001	-3.843019e-001
58831170.000	-9.222982e-001	-3.842206e-001
58837164.000	-9.222661e-001	-3.842226e-001
58843158.000	-9.223042e-001	-3.842028e-001
58849152.000	-9.223557e-001	-3.841499e-001
58855146.000	-9.223942e-001	-3.841348e-001
58861140.000	-9.223446e-001	-3.840634e-001
58867134.000	-9.224074e-001	-3.840612e-001
58873128.000	-9.224005e-001	-3.839815e-001
58879122.000	-9.224069e-001	-3.839639e-001
58885116.000	-9.223951e-001	-3.839261e-001
58891110.000	-9.223733e-001	-3.838688e-001
58897104.000	-9.224044e-001	-3.838342e-001
58903098.000	-9.224544e-001	-3.838378e-001
58909092.000	-9.224352e-001	-3.837543e-001
58915086.000	-9.224736e-001	-3.837904e-001
58921080.000	-9.224628e-001	-3.836826e-001
58927074.000	-9.224944e-001	-3.837203e-001
58933068.000	-9.225214e-001	-3.836650e-001
58939062.000	-9.225726e-001	-3.836036e-001
58945056.000	-9.225300e-001	-3.835486e-001
58951050.000	-9.225880e-001	-3.835208e-001
58957044.000	-9.225692e-001	-3.834766e-001
58963038.000	-9.225923e-001	-3.834162e-001
58969032.000	-9.226132e-001	-3.834621e-001
58975026.000	-9.225923e-001	-3.833976e-001
58981020.000	-9.226283e-001	-3.833334e-001
58987014.000	-9.226699e-001	-3.832673e-001
58993008.000	-9.226544e-001	-3.832739e-001
58999002.000	-9.226665e-001	-3.832125e-001
59004996.000	-9.227309e-001	-3.831898e-001
59010990.000	-9.227165e-001	-3.832087e-001
59016984.000	-9.227507e-001	-3.831257e-001
59022978.000	-9.227439e-001	-3.831092e-001
59028972.000	-9.227652e-001	-3.830592e-001
59034966.000	-9.228134e-001	-3.830611e-001
59040960.000	-9.228203e-001	-3.830561e-001
59046954.000	-9.228123e-001	-3.829890e-001
59052948.000	-9.228233e-001	-3.828870e-001
59058942.000	-9.228179e-001	-3.828603e-001
59064936.000	-9.228557e-001	-3.828646e-001
59070930.000	-9.228662e-001	-3.828635e-001
59076924.000	-9.228616e-001	-3.827697e-001
59082918.000	-9.228744e-001	-3.827843e-001
59088912.000	-9.229270e-001	-3.826790e-001
59094906.000	-9.229606e-001	-3.826973e-001
59100900.000	-9.229454e-001	-3.826471e-001
59106894.000	-9.229842e-001	-3.826286e-001
59112888.000	-9.229362e-001	-3.825346e-001
59118882.000	-9.229775e-001	-3.825213e-001
59124876.000	-9.229607e-001	-3.824666e-001
59130870.000	-9.229871e-001	-3.824422e-001
59136864.000	-9.229808e-001	-3.824504e-001
59142858.000	-9.230299e-001	-3.823913e-001
59148852.000	-9.230648e-001	-3.823251e-001
59154846.000	-9.230772e-001	-3.822608e-001
59160840.000	-9.231008e-001	-3.822769e-001
59166834.000	-9.231208e-001	-3.822364e-001
59172828.000	-9.231460e-001	-3.822046e-001
59178822.000	-9.231321e-001	-3.821869e-001
59184816.000	-9.231581e-001	-3.821600e-001
59190810.000	-9.231738e-001	-3.820869e-001
59196804.000	-9.231833e-001	-3.820559e-001
59202798.000	-9.231601e-001	-3.820572e-001
59208792.000	-9.232310e-001	-3.819989e-001
59214786.000	-9.231605e-001	-3.819348e-001
59220780.000	-9.232245e-001	-3.819300e-001
59226774.000	-9.232787e-001	-3.819052e-001
59232768.000	-9.232828e-001	-3.818705e-001
59238762.000	-9.232592e-001	-3.818236e-001
59244756.000	-9.232986e-001	-3.817505e-001
59250750.000	-9.233196e-001	-3.817359e-001
59256744.000	-9.233121e-001	-3.817681e-001
59262738.000	-9.232894e-001	-3.816718e-001
59268732.000	-9.233438e-001	-3.816275e-001
59274726.000	-9.233304e-001	-3.815750e-001
59280720.000	-9.233719e-001	-3.815466e-001
59286714.000	-9.233854e-001	-3.815017e-001
59292708.000	-9.234347e-001	-3.814974e-001
59298702.000	-9.234187e-001	-3.814508e-001
59304696.000	-9.234469e-001	-3.814676e-001
59310690.000	-9.235436e-001	-3.814600e-001
59316684.000	-9.234982e-001	-3.813307e-001
59322678.000	-9.235092e-001	-3.813575e-001
59328672.000	-9.234340e-001	-3.812813e-001
59334666.000	-9.234612e-001	-3.812122e-001
59340660.000	-9.235034e-001	-3.811321e-001
59346654.000	-9.235315e-001	-3.811318e-001
59352648.000	-9.235369e-001	-3.811517e-001
59358642.000	-9.235837e-001	-3.810898e-001
59364636.000	-9.235679e-001	-3.810596e-001
59370630.000	-9.235425e-001	-3.810216e-001
59376624.000	-9.235705e-001	-3.809795e-001
59382618.000	-9.236263e-001	-3.809726e-001
59388612.000	-9.236585e-001	-3.809185e-001
59394606.000	-9.237048e-001	-3.808800e-001
59400600.000	-9.236779e-001	-3.808442e-001
59406594.000	-9.236193e-001	-3.807842e-001
59412588.000	-9.236747e-001	-3.807577e-001
59418582.000	-9.236662e-001	-3.806909e-001
59424576.000	-9.236873e-001	-3.807195e-001
59430570.000	-9.237220e-001	-3.806830e-001
59436564.000	-9.237741e-001	-3.806182e-001
59442558.000	-9.237616e-001	-3.806524e-001
59448552.000	-9.238123e-001	-3.805698e-001
59454546.000	-9.238142e-001	-3.805107e-001
59460540.000	-9.237997e-001	-3.804730e-001
59466534.000	-9.238260e-001	-3.804499e-001
59472528.000	-9.238345e-001	-3.804805e-001
59478522.000	-9.238975e-001	-3.803808e-001
59484516.000	-9.238760e-001	-3.803338e-001
59490510.000	-9.239123e-001	-3.803396e-001
59496504.000	-9.239302e-001	-3.802696e-001
59502498.000	-9.238918e-001	-3.802637e-001
59508492.000	-9.239167e-001	-3.802111e-001
59514486.000	-9.239468e-001	-3.801816e-001
59520480.000	-9.239594e-001	-3.801296e-001
59526474.000	-9.239355e-001	-3.800761e-001
59532468.000	-9.240009e-001	-3.800434e-001
59538462.000	-9.239897e-001	-3.799892e-001
59544456.000	-9.240007e-001	-3.800286e-001
59550450.000	-9.240610e-001	-3.799810e-001
59556444.000	-9.240410e-001	-3.799473e-001
59562438.000	-9.240401e-001	-3.798985e-001
59568432.000	-9.240479e-001	-3.798391e-001
59574426.000	-9.240896e-001	-3.798185e-001
59580420.000	-9.240218e-001	-3.797686e-001
59586414.000	-9.241041e-001	-3.797254e-001
59592408.000	-9.240753e-001	-3.797125e-001
59598402.000	-9.241087e-001	-3.796307e-001
59604396.000	-9.241193e-001	-3.796260e-001
59610390.000	-9.241530e-001	-3.795823e-001
59616384.000	-9.241967e-001	-3.795659e-001
59622378.000	-9.241727e-001	-3.795213e-001
59628372.000	-9.241982e-001	-3.795268e-001
59634366.000	-9.242058e-001	-3.794055e-001
59640360.000	-9.242552e-001	-3.794007e-001
59646354.000	-9.242035e-001	-3.793624e-001
59652348.000	-9.242821e-001	-3.793630e-001
59658342.000	-9.242759e-001	-3.792908e-001
59664336.000	-9.242688e-001	-3.792804e-001
59670330.000	-9.243461e-001	-3.793241e-001
59676324.000	-9.242930e-001	-3.791923e-001
59682318.000	-9.243261e-001	-3.791898e-001
59688312.000	-9.243412e-001	-3.791719e-001
59694306.000	-9.243120e-001	-3.791378e-001
59700300.000	-9.243642e-001	-3.791084e-001
59706294.000	-9.243813e-001	-3.790724e-001
59712288.000	-9.243921e-001	-3.789845e-001
59718282.000	-9.244355e-001	-3.789952e-001
59724276.000	-9.244533e-001	-3.789462e-001
59730270.000	-9.244940e-001	-3.789136e-001
59736264.000	-9.244591e-001	-3.788745e-001
59742258.000	-9.244948e-001	-3.787896e-001
59748252.000	-9.244683e-001	-3.788083e-001
59754246.000	-9.244802e-001	-3.787731e-001
59760240.000	-9.244832e-001	-3.787186e-001
59766234.000	-9.245057e-001	-3.787091e-001
59772228.000	-9.245291e-001	-3.786444e-001
59778222.000	-9.245772e-001	-3.786687e-001
59784216.000	-9.245560e-001	-3.785511e-001
59790210.000	-9.245362e-001	-3.785520e-001
59796204.000	-9.246088e-001	-3.784683e-001
59802198.000	-9.246605e-001	-3.785176e-001
59808192.000	-9.245716e-001	-3.784241e-001
59814186.000	-9.245875e-001	-3.783902e-001
59820180.000	-9.246738e-001	-3.783398e-001
59826174.000	-9.246385e-001	-3.783480e-001
59832168.000	-9.246270e-001	-3.782575e-001
59838162.000	-9.246563e-001	-3.782655e-001
59844156.000	-9.246506e-001	-3.781678e-001
59850150.000	-9.246780e-001	-3.781201e-001
59856144.000	-9.247320e-001	-3.781426e-001
59862138.000	-9.246959e-001	-3.781014e-001
59868132.000	-9.247278e-001	-3.780017e-001
59874126.000	-9.247278e-001	-3.780384e-001
59880120.000	-9.247440e-001	-3.779653e-001
59886114.000	-9.247708e-001	-3.779590e-001
59892108.000	-9.248037e-001	-3.779032e-001
59898102.000	-9.247780e-001	-3.778802e-001
59904096.000	-9.248012e-001	-3.778386e-001
59910090.000	-9.248755e-001	-3.778472e-001
59916084.000	-9.248354e-001	-3.777387e-001
59922078.000	-9.248736e-001	-3.777097e-001
59928072.000	-9.248803e-001	-3.777081e-001
59934066.000	-9.248635e-001	-3.776467e-001
59940060.000	-9.249281e-001	-3.776687e-001
59946054.000	-9.249826e-001	-3.776403e-001
59952048.000	-9.249256e-001	-3.775745e-001
59958042.000	-9.249430e-001	-3.775345e-001
59964036.000	-9.249664e-001	-3.774914e-001
59970030.000	-9.249709e-001	-3.774554e-001
59976024.000	-9.249610e-001	-3.773793e-001
59982018.000	-9.249444e-001	-3.774304e-001
59988012.000	-9.249977e-001	-3.773292e-001
59994006.000	-9.250022e-001	-3.773552e-001
60000000.000	-9.250398e-001	-3.772673e-001
