!Keysight Technologies,E5063A,MY54100949,A.07.30
!Date: Wed Dec 31 03:09:54 2025
!Data & Calibration Information:
!Freq	S11:RESPO(ON)
# Hz S RI R 50
60000.000	1.001992e+000	-1.105289e-002
65994.000	1.001694e+000	-1.253225e-002
71988.000	1.001483e+000	-1.382536e-002
77982.000	1.001256e+000	-1.496718e-002
83976.000	1.001164e+000	-1.615549e-002
89970.000	1.000768e+000	-1.703577e-002
95964.000	1.000752e+000	-1.797406e-002
101958.000	1.000562e+000	-1.919703e-002
107952.000	1.000495e+000	-1.999088e-002
113946.000	1.000481e+000	-2.085568e-002
119940.000	1.000255e+000	-2.154904e-002
125934.000	1.000228e+000	-2.274926e-002
131928.000	1.000047e+000	-2.356054e-002
137922.000	9.998271e-001	-2.475411e-002
143916.000	9.997931e-001	-2.566329e-002
149910.000	9.999333e-001	-2.684192e-002
155904.000	9.997798e-001	-2.761202e-002
161898.000	9.998832e-001	-2.866932e-002
167892.000	9.998193e-001	-2.949586e-002
173886.000	9.994947e-001	-3.041837e-002
179880.000	9.997270e-001	-3.150497e-002
185874.000	9.995402e-001	-3.233067e-002
191868.000	9.995236e-001	-3.322868e-002
197862.000	9.993839e-001	-3.433178e-002
203856.000	9.993640e-001	-3.526861e-002
209850.000	9.990774e-001	-3.620296e-002
215844.000	9.992127e-001	-3.713764e-002
221838.000	9.992028e-001	-3.811393e-002
227832.000	9.991590e-001	-3.906145e-002
233826.000	9.989691e-001	-4.016754e-002
239820.000	9.989776e-001	-4.115787e-002
245814.000	9.989964e-001	-4.211896e-002
251808.000	9.988042e-001	-4.318176e-002
257802.000	9.988763e-001	-4.424625e-002
263796.000	9.988845e-001	-4.524559e-002
269790.000	9.988042e-001	-4.618194e-002
275784.000	9.987606e-001	-4.709162e-002
281778.000	9.987254e-001	-4.811068e-002
287772.000	9.985831e-001	-4.926539e-002
293766.000	9.986512e-001	-5.004687e-002
299760.000	9.983451e-001	-5.109026e-002
305754.000	9.984100e-001	-5.217344e-002
311748.000	9.984322e-001	-5.318934e-002
317742.000	9.983162e-001	-5.396183e-002
323736.000	9.981938e-001	-5.504418e-002
329730.000	9.982219e-001	-5.606534e-002
335724.000	9.981415e-001	-5.703676e-002
341718.000	9.981761e-001	-5.808123e-002
347712.000	9.980010e-001	-5.908750e-002
353706.000	9.978611e-001	-6.008998e-002
359700.000	9.978060e-001	-6.111178e-002
365694.000	9.979418e-001	-6.208278e-002
371688.000	9.977349e-001	-6.303897e-002
377682.000	9.977151e-001	-6.408880e-002
383676.000	9.977066e-001	-6.501029e-002
389670.000	9.978265e-001	-6.605287e-002
395664.000	9.976519e-001	-6.711629e-002
401658.000	9.975572e-001	-6.808464e-002
407652.000	9.974503e-001	-6.910213e-002
413646.000	9.972107e-001	-7.008737e-002
419640.000	9.972263e-001	-7.106801e-002
425634.000	9.971957e-001	-7.200776e-002
431628.000	9.971906e-001	-7.302576e-002
437622.000	9.970884e-001	-7.403967e-002
443616.000	9.968964e-001	-7.500371e-002
449610.000	9.969219e-001	-7.597316e-002
455604.000	9.968578e-001	-7.709311e-002
461598.000	9.967884e-001	-7.807390e-002
467592.000	9.966099e-001	-7.903502e-002
473586.000	9.966267e-001	-7.998545e-002
479580.000	9.964377e-001	-8.111185e-002
485574.000	9.965414e-001	-8.214545e-002
491568.000	9.963936e-001	-8.290220e-002
497562.000	9.962766e-001	-8.399274e-002
503556.000	9.961714e-001	-8.501955e-002
509550.000	9.958287e-001	-8.598256e-002
515544.000	9.959203e-001	-8.696552e-002
521538.000	9.958756e-001	-8.810604e-002
527532.000	9.958623e-001	-8.909089e-002
533526.000	9.956158e-001	-8.999641e-002
539520.000	9.955614e-001	-9.105779e-002
545514.000	9.956645e-001	-9.197426e-002
551508.000	9.954836e-001	-9.311781e-002
557502.000	9.952969e-001	-9.403510e-002
563496.000	9.952013e-001	-9.513435e-002
569490.000	9.949323e-001	-9.613575e-002
575484.000	9.950737e-001	-9.699820e-002
581478.000	9.949715e-001	-9.800668e-002
587472.000	9.948282e-001	-9.913011e-002
593466.000	9.947778e-001	-1.000521e-001
599460.000	9.947742e-001	-1.010433e-001
605454.000	9.945895e-001	-1.020507e-001
611448.000	9.944574e-001	-1.031253e-001
617442.000	9.943425e-001	-1.041077e-001
623436.000	9.943211e-001	-1.050899e-001
629430.000	9.940638e-001	-1.061822e-001
635424.000	9.940256e-001	-1.070514e-001
641418.000	9.938866e-001	-1.080304e-001
647412.000	9.937017e-001	-1.089862e-001
653406.000	9.937393e-001	-1.100116e-001
659400.000	9.936245e-001	-1.109293e-001
665394.000	9.933776e-001	-1.121763e-001
671388.000	9.933729e-001	-1.128824e-001
677382.000	9.932260e-001	-1.139800e-001
683376.000	9.931372e-001	-1.149893e-001
689370.000	9.929817e-001	-1.160731e-001
695364.000	9.929771e-001	-1.170026e-001
701358.000	9.928109e-001	-1.179689e-001
707352.000	9.927308e-001	-1.189245e-001
713346.000	9.925593e-001	-1.200445e-001
719340.000	9.924920e-001	-1.209845e-001
725334.000	9.923366e-001	-1.219500e-001
731328.000	9.920943e-001	-1.230611e-001
737322.000	9.921230e-001	-1.239452e-001
743316.000	9.919233e-001	-1.250566e-001
749310.000	9.918785e-001	-1.259233e-001
755304.000	9.917045e-001	-1.269598e-001
761298.000	9.914754e-001	-1.280840e-001
767292.000	9.915418e-001	-1.289049e-001
773286.000	9.913159e-001	-1.300837e-001
779280.000	9.911982e-001	-1.310255e-001
785274.000	9.910939e-001	-1.319072e-001
791268.000	9.909786e-001	-1.330386e-001
797262.000	9.908899e-001	-1.339862e-001
803256.000	9.907656e-001	-1.349726e-001
809250.000	9.904141e-001	-1.359737e-001
815244.000	9.903808e-001	-1.369387e-001
821238.000	9.902372e-001	-1.379054e-001
827232.000	9.900465e-001	-1.389633e-001
833226.000	9.898814e-001	-1.399829e-001
839220.000	9.896857e-001	-1.409594e-001
845214.000	9.896881e-001	-1.419578e-001
851208.000	9.897143e-001	-1.429736e-001
857202.000	9.894195e-001	-1.439819e-001
863196.000	9.892354e-001	-1.449929e-001
869190.000	9.892005e-001	-1.458357e-001
875184.000	9.889101e-001	-1.469952e-001
881178.000	9.887428e-001	-1.478981e-001
887172.000	9.887017e-001	-1.489181e-001
893166.000	9.883760e-001	-1.498223e-001
899160.000	9.882507e-001	-1.509342e-001
905154.000	9.881883e-001	-1.519363e-001
911148.000	9.879837e-001	-1.527285e-001
917142.000	9.879010e-001	-1.538530e-001
923136.000	9.877427e-001	-1.548523e-001
929130.000	9.874620e-001	-1.558693e-001
935124.000	9.874306e-001	-1.569214e-001
941118.000	9.871349e-001	-1.579131e-001
947112.000	9.870229e-001	-1.588598e-001
953106.000	9.868504e-001	-1.596422e-001
959100.000	9.867156e-001	-1.608223e-001
965094.000	9.865704e-001	-1.617917e-001
971088.000	9.863978e-001	-1.629177e-001
977082.000	9.863459e-001	-1.637782e-001
983076.000	9.861145e-001	-1.647480e-001
989070.000	9.859354e-001	-1.657074e-001
995064.000	9.856961e-001	-1.666741e-001
1001058.000	9.855417e-001	-1.677637e-001
1007052.000	9.853117e-001	-1.687347e-001
1013046.000	9.853861e-001	-1.696174e-001
1019040.000	9.850126e-001	-1.706752e-001
1025034.000	9.848745e-001	-1.717056e-001
1031028.000	9.848387e-001	-1.725830e-001
1037022.000	9.845814e-001	-1.735371e-001
1043016.000	9.843724e-001	-1.745013e-001
1049010.000	9.842193e-001	-1.755745e-001
1055004.000	9.840505e-001	-1.764826e-001
1060998.000	9.837943e-001	-1.775540e-001
1066992.000	9.836496e-001	-1.785152e-001
1072986.000	9.834978e-001	-1.795575e-001
1078980.000	9.834699e-001	-1.804739e-001
1084974.000	9.832626e-001	-1.815321e-001
1090968.000	9.829751e-001	-1.825552e-001
1096962.000	9.827724e-001	-1.835402e-001
1102956.000	9.825789e-001	-1.844814e-001
1108950.000	9.824015e-001	-1.854186e-001
1114944.000	9.823153e-001	-1.864836e-001
1120938.000	9.821828e-001	-1.873835e-001
1126932.000	9.818313e-001	-1.883470e-001
1132926.000	9.815731e-001	-1.894170e-001
1138920.000	9.814809e-001	-1.903644e-001
1144914.000	9.811466e-001	-1.913597e-001
1150908.000	9.810720e-001	-1.922079e-001
1156902.000	9.808861e-001	-1.932617e-001
1162896.000	9.808323e-001	-1.942683e-001
1168890.000	9.806064e-001	-1.950882e-001
1174884.000	9.803621e-001	-1.961433e-001
1180878.000	9.802038e-001	-1.971804e-001
1186872.000	9.799821e-001	-1.981862e-001
1192866.000	9.796296e-001	-1.991393e-001
1198860.000	9.795604e-001	-2.001098e-001
1204854.000	9.794105e-001	-2.011900e-001
1210848.000	9.791589e-001	-2.020155e-001
1216842.000	9.790096e-001	-2.029462e-001
1222836.000	9.787422e-001	-2.040056e-001
1228830.000	9.784619e-001	-2.050460e-001
1234824.000	9.784130e-001	-2.060721e-001
1240818.000	9.781099e-001	-2.068733e-001
1246812.000	9.779296e-001	-2.079106e-001
1252806.000	9.777314e-001	-2.089356e-001
1258800.000	9.775051e-001	-2.098837e-001
1264794.000	9.774092e-001	-2.108144e-001
1270788.000	9.770791e-001	-2.117465e-001
1276782.000	9.769075e-001	-2.127037e-001
1282776.000	9.766862e-001	-2.137635e-001
1288770.000	9.764293e-001	-2.147502e-001
1294764.000	9.763051e-001	-2.157840e-001
1300758.000	9.758704e-001	-2.166369e-001
1306752.000	9.758216e-001	-2.176385e-001
1312746.000	9.755143e-001	-2.186074e-001
1318740.000	9.754172e-001	-2.195606e-001
1324734.000	9.750635e-001	-2.205192e-001
1330728.000	9.750076e-001	-2.214853e-001
1336722.000	9.747100e-001	-2.225517e-001
1342716.000	9.744680e-001	-2.234900e-001
1348710.000	9.742560e-001	-2.244109e-001
1354704.000	9.740778e-001	-2.253463e-001
1360698.000	9.737497e-001	-2.263915e-001
1366692.000	9.736045e-001	-2.274166e-001
1372686.000	9.732538e-001	-2.282920e-001
1378680.000	9.731158e-001	-2.292969e-001
1384674.000	9.728544e-001	-2.302694e-001
1390668.000	9.726377e-001	-2.312188e-001
1396662.000	9.723849e-001	-2.321372e-001
1402656.000	9.722455e-001	-2.331110e-001
1408650.000	9.719080e-001	-2.341465e-001
1414644.000	9.717482e-001	-2.350799e-001
1420638.000	9.713044e-001	-2.361389e-001
1426632.000	9.711655e-001	-2.369308e-001
1432626.000	9.710132e-001	-2.379486e-001
1438620.000	9.707163e-001	-2.389614e-001
1444614.000	9.705384e-001	-2.399677e-001
1450608.000	9.703149e-001	-2.408676e-001
1456602.000	9.701233e-001	-2.418957e-001
1462596.000	9.698774e-001	-2.427813e-001
1468590.000	9.695577e-001	-2.437557e-001
1474584.000	9.693899e-001	-2.446459e-001
1480578.000	9.691122e-001	-2.457307e-001
1486572.000	9.688144e-001	-2.465729e-001
1492566.000	9.687227e-001	-2.476633e-001
1498560.000	9.683412e-001	-2.485856e-001
1504554.000	9.681875e-001	-2.495994e-001
1510548.000	9.678757e-001	-2.505527e-001
1516542.000	9.675421e-001	-2.514669e-001
1522536.000	9.673212e-001	-2.524380e-001
1528530.000	9.671813e-001	-2.534055e-001
1534524.000	9.668976e-001	-2.542742e-001
1540518.000	9.666053e-001	-2.553360e-001
1546512.000	9.663398e-001	-2.563377e-001
1552506.000	9.661115e-001	-2.572939e-001
1558500.000	9.658169e-001	-2.582797e-001
1564494.000	9.656037e-001	-2.591975e-001
1570488.000	9.652321e-001	-2.600904e-001
1576482.000	9.650252e-001	-2.610711e-001
1582476.000	9.647630e-001	-2.620819e-001
1588470.000	9.645450e-001	-2.629854e-001
1594464.000	9.641378e-001	-2.638718e-001
1600458.000	9.640311e-001	-2.649423e-001
1606452.000	9.638059e-001	-2.658359e-001
1612446.000	9.634489e-001	-2.667718e-001
1618440.000	9.632199e-001	-2.678369e-001
1624434.000	9.629267e-001	-2.687788e-001
1630428.000	9.626216e-001	-2.696391e-001
1636422.000	9.624323e-001	-2.706530e-001
1642416.000	9.622466e-001	-2.715643e-001
1648410.000	9.619661e-001	-2.725347e-001
1654404.000	9.616208e-001	-2.734112e-001
1660398.000	9.614130e-001	-2.744205e-001
1666392.000	9.611575e-001	-2.754148e-001
1672386.000	9.607930e-001	-2.763878e-001
1678380.000	9.605368e-001	-2.772805e-001
1684374.000	9.603471e-001	-2.782448e-001
1690368.000	9.599980e-001	-2.791184e-001
1696362.000	9.597590e-001	-2.801305e-001
1702356.000	9.594584e-001	-2.812016e-001
1708350.000	9.592023e-001	-2.819933e-001
1714344.000	9.589888e-001	-2.830230e-001
1720338.000	9.586973e-001	-2.838949e-001
1726332.000	9.584832e-001	-2.848561e-001
1732326.000	9.580642e-001	-2.858065e-001
1738320.000	9.578092e-001	-2.868699e-001
1744314.000	9.574512e-001	-2.877156e-001
1750308.000	9.571317e-001	-2.887848e-001
1756302.000	9.568859e-001	-2.897180e-001
1762296.000	9.566380e-001	-2.905790e-001
1768290.000	9.563233e-001	-2.914958e-001
1774284.000	9.560201e-001	-2.925416e-001
1780278.000	9.557357e-001	-2.934698e-001
1786272.000	9.555574e-001	-2.944549e-001
1792266.000	9.552512e-001	-2.953282e-001
1798260.000	9.550231e-001	-2.962971e-001
1804254.000	9.546342e-001	-2.971156e-001
1810248.000	9.543959e-001	-2.980343e-001
1816242.000	9.540526e-001	-2.991256e-001
1822236.000	9.537702e-001	-3.000304e-001
1828230.000	9.534557e-001	-3.009453e-001
1834224.000	9.532038e-001	-3.018849e-001
1840218.000	9.528718e-001	-3.029379e-001
1846212.000	9.526427e-001	-3.036431e-001
1852206.000	9.523407e-001	-3.047164e-001
1858200.000	9.519355e-001	-3.056328e-001
1864194.000	9.516491e-001	-3.065492e-001
1870188.000	9.513969e-001	-3.075369e-001
1876182.000	9.510462e-001	-3.085091e-001
1882176.000	9.508293e-001	-3.094681e-001
1888170.000	9.504919e-001	-3.103198e-001
1894164.000	9.502082e-001	-3.111983e-001
1900158.000	9.499298e-001	-3.121804e-001
1906152.000	9.494966e-001	-3.131735e-001
1912146.000	9.492869e-001	-3.140286e-001
1918140.000	9.489563e-001	-3.150565e-001
1924134.000	9.485973e-001	-3.158772e-001
1930128.000	9.483977e-001	-3.169161e-001
1936122.000	9.479735e-001	-3.178954e-001
1942116.000	9.477453e-001	-3.186950e-001
1948110.000	9.473491e-001	-3.197443e-001
1954104.000	9.471160e-001	-3.206172e-001
1960098.000	9.467496e-001	-3.215873e-001
1966092.000	9.464478e-001	-3.224665e-001
1972086.000	9.461650e-001	-3.234975e-001
1978080.000	9.458552e-001	-3.242116e-001
1984074.000	9.454211e-001	-3.252118e-001
1990068.000	9.451631e-001	-3.261440e-001
1996062.000	9.448768e-001	-3.270266e-001
2002056.000	9.445234e-001	-3.279790e-001
2008050.000	9.442234e-001	-3.289377e-001
2014044.000	9.439912e-001	-3.299001e-001
2020038.000	9.435826e-001	-3.307696e-001
2026032.000	9.433058e-001	-3.317767e-001
2032026.000	9.429139e-001	-3.326442e-001
2038020.000	9.426403e-001	-3.336049e-001
2044014.000	9.421891e-001	-3.345741e-001
2050008.000	9.419390e-001	-3.354356e-001
2056002.000	9.416179e-001	-3.362959e-001
2061996.000	9.412265e-001	-3.372783e-001
2067990.000	9.409050e-001	-3.381687e-001
2073984.000	9.405836e-001	-3.391055e-001
2079978.000	9.403069e-001	-3.400831e-001
2085972.000	9.399191e-001	-3.409805e-001
2091966.000	9.397336e-001	-3.418506e-001
2097960.000	9.392351e-001	-3.427592e-001
2103954.000	9.389216e-001	-3.437297e-001
2109948.000	9.386602e-001	-3.446721e-001
2115942.000	9.382326e-001	-3.455736e-001
2121936.000	9.379529e-001	-3.464876e-001
2127930.000	9.376539e-001	-3.474570e-001
2133924.000	9.373403e-001	-3.483351e-001
2139918.000	9.369665e-001	-3.492792e-001
2145912.000	9.364292e-001	-3.501738e-001
2151906.000	9.362184e-001	-3.512475e-001
2157900.000	9.359785e-001	-3.519620e-001
2163894.000	9.356244e-001	-3.529742e-001
2169888.000	9.352658e-001	-3.539296e-001
2175882.000	9.349446e-001	-3.547288e-001
2181876.000	9.345497e-001	-3.557457e-001
2187870.000	9.342615e-001	-3.566314e-001
2193864.000	9.337565e-001	-3.576063e-001
2199858.000	9.335123e-001	-3.584650e-001
2205852.000	9.331130e-001	-3.595468e-001
2211846.000	9.326819e-001	-3.603717e-001
2217840.000	9.322711e-001	-3.611809e-001
2223834.000	9.319429e-001	-3.621213e-001
2229828.000	9.316365e-001	-3.631410e-001
2235822.000	9.312936e-001	-3.638707e-001
2241816.000	9.310250e-001	-3.648447e-001
2247810.000	9.305640e-001	-3.657144e-001
2253804.000	9.301657e-001	-3.665248e-001
2259798.000	9.298870e-001	-3.674191e-001
2265792.000	9.294774e-001	-3.684000e-001
2271786.000	9.292210e-001	-3.693642e-001
2277780.000	9.287548e-001	-3.702155e-001
2283774.000	9.284844e-001	-3.710897e-001
2289768.000	9.282160e-001	-3.720850e-001
2295762.000	9.278637e-001	-3.729687e-001
2301756.000	9.274760e-001	-3.737959e-001
2307750.000	9.270554e-001	-3.747437e-001
2313744.000	9.267037e-001	-3.756172e-001
2319738.000	9.263314e-001	-3.765872e-001
2325732.000	9.259712e-001	-3.774731e-001
2331726.000	9.255529e-001	-3.782944e-001
2337720.000	9.252592e-001	-3.791548e-001
2343714.000	9.247623e-001	-3.800392e-001
2349708.000	9.244907e-001	-3.810064e-001
2355702.000	9.240688e-001	-3.818592e-001
2361696.000	9.236687e-001	-3.828344e-001
2367690.000	9.234332e-001	-3.838056e-001
2373684.000	9.230133e-001	-3.846359e-001
2379678.000	9.226166e-001	-3.854503e-001
2385672.000	9.222937e-001	-3.863727e-001
2391666.000	9.218776e-001	-3.873792e-001
2397660.000	9.214960e-001	-3.881352e-001
2403654.000	9.210647e-001	-3.890510e-001
2409648.000	9.207356e-001	-3.899987e-001
2415642.000	9.203990e-001	-3.907655e-001
2421636.000	9.199780e-001	-3.916577e-001
2427630.000	9.195371e-001	-3.925177e-001
2433624.000	9.193066e-001	-3.935303e-001
2439618.000	9.189031e-001	-3.944004e-001
2445612.000	9.184238e-001	-3.952816e-001
2451606.000	9.179867e-001	-3.961619e-001
2457600.000	9.177685e-001	-3.970258e-001
2463594.000	9.173713e-001	-3.979494e-001
2469588.000	9.169745e-001	-3.988723e-001
2475582.000	9.165688e-001	-3.997598e-001
2481576.000	9.162108e-001	-4.006555e-001
2487570.000	9.158906e-001	-4.016105e-001
2493564.000	9.153320e-001	-4.023490e-001
2499558.000	9.150737e-001	-4.033929e-001
2505552.000	9.145112e-001	-4.041638e-001
2511546.000	9.142826e-001	-4.051170e-001
2517540.000	9.138162e-001	-4.060679e-001
2523534.000	9.133837e-001	-4.068944e-001
2529528.000	9.129921e-001	-4.077308e-001
2535522.000	9.126558e-001	-4.086241e-001
2541516.000	9.122984e-001	-4.094969e-001
2547510.000	9.118869e-001	-4.102446e-001
2553504.000	9.115584e-001	-4.113261e-001
2559498.000	9.111840e-001	-4.121416e-001
2565492.000	9.107097e-001	-4.129225e-001
2571486.000	9.102288e-001	-4.137892e-001
2577480.000	9.098395e-001	-4.147444e-001
2583474.000	9.095925e-001	-4.156499e-001
2589468.000	9.090643e-001	-4.164604e-001
2595462.000	9.087538e-001	-4.173198e-001
2601456.000	9.081897e-001	-4.183209e-001
2607450.000	9.078226e-001	-4.191630e-001
2613444.000	9.075608e-001	-4.199349e-001
2619438.000	9.071058e-001	-4.209173e-001
2625432.000	9.067152e-001	-4.217782e-001
2631426.000	9.063198e-001	-4.226325e-001
2637420.000	9.058056e-001	-4.234417e-001
2643414.000	9.054845e-001	-4.244320e-001
2649408.000	9.050513e-001	-4.251620e-001
2655402.000	9.046435e-001	-4.261218e-001
2661396.000	9.042241e-001	-4.270429e-001
2667390.000	9.038791e-001	-4.278912e-001
2673384.000	9.033927e-001	-4.288118e-001
2679378.000	9.029528e-001	-4.295582e-001
2685372.000	9.025125e-001	-4.304008e-001
2691366.000	9.022226e-001	-4.312610e-001
2697360.000	9.017285e-001	-4.321024e-001
2703354.000	9.013425e-001	-4.329932e-001
2709348.000	9.010084e-001	-4.339001e-001
2715342.000	9.005572e-001	-4.347437e-001
2721336.000	9.001942e-001	-4.357645e-001
2727330.000	8.995944e-001	-4.365641e-001
2733324.000	8.992383e-001	-4.373641e-001
2739318.000	8.988959e-001	-4.381514e-001
2745312.000	8.984185e-001	-4.391814e-001
2751306.000	8.979751e-001	-4.399463e-001
2757300.000	8.975568e-001	-4.408638e-001
2763294.000	8.973091e-001	-4.416743e-001
2769288.000	8.966718e-001	-4.425683e-001
2775282.000	8.964271e-001	-4.434846e-001
2781276.000	8.958284e-001	-4.443577e-001
2787270.000	8.954465e-001	-4.451260e-001
2793264.000	8.950131e-001	-4.460574e-001
2799258.000	8.946083e-001	-4.468313e-001
2805252.000	8.941839e-001	-4.477081e-001
2811246.000	8.938171e-001	-4.485140e-001
2817240.000	8.933757e-001	-4.495038e-001
2823234.000	8.929469e-001	-4.502418e-001
2829228.000	8.925415e-001	-4.510970e-001
2835222.000	8.919951e-001	-4.518848e-001
2841216.000	8.916893e-001	-4.529422e-001
2847210.000	8.912424e-001	-4.536434e-001
2853204.000	8.908039e-001	-4.544960e-001
2859198.000	8.903274e-001	-4.553855e-001
2865192.000	8.898611e-001	-4.561357e-001
2871186.000	8.894004e-001	-4.571282e-001
2877180.000	8.889910e-001	-4.578820e-001
2883174.000	8.886001e-001	-4.587954e-001
2889168.000	8.882584e-001	-4.596426e-001
2895162.000	8.877057e-001	-4.605372e-001
2901156.000	8.873202e-001	-4.613725e-001
2907150.000	8.867917e-001	-4.621467e-001
2913144.000	8.863675e-001	-4.630016e-001
2919138.000	8.858466e-001	-4.638237e-001
2925132.000	8.854750e-001	-4.647470e-001
2931126.000	8.851127e-001	-4.655403e-001
2937120.000	8.846781e-001	-4.663491e-001
2943114.000	8.841024e-001	-4.671338e-001
2949108.000	8.838162e-001	-4.680703e-001
2955102.000	8.833112e-001	-4.689597e-001
2961096.000	8.829515e-001	-4.696729e-001
2967090.000	8.823776e-001	-4.705207e-001
2973084.000	8.819528e-001	-4.714246e-001
2979078.000	8.816092e-001	-4.723026e-001
2985072.000	8.810167e-001	-4.730404e-001
2991066.000	8.806447e-001	-4.739484e-001
2997060.000	8.801549e-001	-4.747013e-001
3003054.000	8.797365e-001	-4.755338e-001
3009048.000	8.791810e-001	-4.764303e-001
3015042.000	8.787271e-001	-4.773509e-001
3021036.000	8.782105e-001	-4.781582e-001
3027030.000	8.777545e-001	-4.789561e-001
3033024.000	8.773709e-001	-4.797275e-001
3039018.000	8.769240e-001	-4.807030e-001
3045012.000	8.764667e-001	-4.814698e-001
3051006.000	8.760405e-001	-4.823126e-001
3057000.000	8.756310e-001	-4.831069e-001
3062994.000	8.750570e-001	-4.839906e-001
3068988.000	8.746861e-001	-4.847996e-001
3074982.000	8.741108e-001	-4.856655e-001
3080976.000	8.737013e-001	-4.864092e-001
3086970.000	8.732814e-001	-4.872730e-001
3092964.000	8.728501e-001	-4.881229e-001
3098958.000	8.723515e-001	-4.890153e-001
3104952.000	8.719183e-001	-4.897920e-001
3110946.000	8.714318e-001	-4.904999e-001
3116940.000	8.710096e-001	-4.914037e-001
3122934.000	8.703636e-001	-4.922428e-001
3128928.000	8.699995e-001	-4.930298e-001
3134922.000	8.695473e-001	-4.938115e-001
3140916.000	8.691917e-001	-4.946564e-001
3146910.000	8.685995e-001	-4.955482e-001
3152904.000	8.681917e-001	-4.962903e-001
3158898.000	8.677312e-001	-4.970804e-001
3164892.000	8.672387e-001	-4.979260e-001
3170886.000	8.666881e-001	-4.988414e-001
3176880.000	8.663705e-001	-4.995731e-001
3182874.000	8.658721e-001	-5.003081e-001
3188868.000	8.652953e-001	-5.012696e-001
3194862.000	8.648470e-001	-5.020779e-001
3200856.000	8.643770e-001	-5.027894e-001
3206850.000	8.640019e-001	-5.036570e-001
3212844.000	8.633269e-001	-5.043271e-001
3218838.000	8.629839e-001	-5.053246e-001
3224832.000	8.624548e-001	-5.060522e-001
3230826.000	8.621094e-001	-5.068994e-001
3236820.000	8.615340e-001	-5.077487e-001
3242814.000	8.610755e-001	-5.084863e-001
3248808.000	8.605938e-001	-5.093243e-001
3254802.000	8.601753e-001	-5.101668e-001
3260796.000	8.596183e-001	-5.110714e-001
3266790.000	8.592878e-001	-5.118160e-001
3272784.000	8.587383e-001	-5.125708e-001
3278778.000	8.581523e-001	-5.134089e-001
3284772.000	8.576435e-001	-5.140738e-001
3290766.000	8.573472e-001	-5.149609e-001
3296760.000	8.568214e-001	-5.157365e-001
3302754.000	8.563583e-001	-5.165874e-001
3308748.000	8.559123e-001	-5.174516e-001
3314742.000	8.553666e-001	-5.181772e-001
3320736.000	8.548835e-001	-5.190657e-001
3326730.000	8.544259e-001	-5.198519e-001
3332724.000	8.539285e-001	-5.206584e-001
3338718.000	8.534711e-001	-5.213997e-001
3344712.000	8.529011e-001	-5.222208e-001
3350706.000	8.523793e-001	-5.229807e-001
3356700.000	8.518666e-001	-5.237994e-001
3362694.000	8.513782e-001	-5.246060e-001
3368688.000	8.509293e-001	-5.253896e-001
3374682.000	8.503987e-001	-5.261443e-001
3380676.000	8.500344e-001	-5.270318e-001
3386670.000	8.494362e-001	-5.278059e-001
3392664.000	8.490136e-001	-5.287071e-001
3398658.000	8.485100e-001	-5.294460e-001
3404652.000	8.479484e-001	-5.302086e-001
3410646.000	8.476304e-001	-5.309542e-001
3416640.000	8.469808e-001	-5.317171e-001
3422634.000	8.466199e-001	-5.325098e-001
3428628.000	8.460425e-001	-5.333683e-001
3434622.000	8.455051e-001	-5.341009e-001
3440616.000	8.451177e-001	-5.348454e-001
3446610.000	8.445374e-001	-5.357329e-001
3452604.000	8.440844e-001	-5.364714e-001
3458598.000	8.435397e-001	-5.372984e-001
3464592.000	8.431498e-001	-5.379412e-001
3470586.000	8.425993e-001	-5.387776e-001
3476580.000	8.420254e-001	-5.396240e-001
3482574.000	8.415556e-001	-5.403847e-001
3488568.000	8.410850e-001	-5.412066e-001
3494562.000	8.405686e-001	-5.418931e-001
3500556.000	8.400745e-001	-5.427144e-001
3506550.000	8.395253e-001	-5.434869e-001
3512544.000	8.390736e-001	-5.441815e-001
3518538.000	8.385254e-001	-5.450063e-001
3524532.000	8.380624e-001	-5.458529e-001
3530526.000	8.375027e-001	-5.465881e-001
3536520.000	8.370335e-001	-5.474314e-001
3542514.000	8.365595e-001	-5.482858e-001
3548508.000	8.360318e-001	-5.489890e-001
3554502.000	8.354757e-001	-5.497976e-001
3560496.000	8.350391e-001	-5.506118e-001
3566490.000	8.344973e-001	-5.513297e-001
3572484.000	8.338983e-001	-5.520496e-001
3578478.000	8.334959e-001	-5.528802e-001
3584472.000	8.329900e-001	-5.536488e-001
3590466.000	8.324517e-001	-5.543907e-001
3596460.000	8.319377e-001	-5.551634e-001
3602454.000	8.313746e-001	-5.559820e-001
3608448.000	8.309384e-001	-5.567079e-001
3614442.000	8.303866e-001	-5.574669e-001
3620436.000	8.298224e-001	-5.582699e-001
3626430.000	8.292654e-001	-5.590493e-001
3632424.000	8.288815e-001	-5.597475e-001
3638418.000	8.282889e-001	-5.604596e-001
3644412.000	8.277588e-001	-5.613570e-001
3650406.000	8.272453e-001	-5.620363e-001
3656400.000	8.266960e-001	-5.629262e-001
3662394.000	8.261624e-001	-5.635685e-001
3668388.000	8.256926e-001	-5.643809e-001
3674382.000	8.252522e-001	-5.650982e-001
3680376.000	8.246449e-001	-5.657960e-001
3686370.000	8.241500e-001	-5.665610e-001
3692364.000	8.236513e-001	-5.673876e-001
3698358.000	8.230406e-001	-5.681266e-001
3704352.000	8.225327e-001	-5.688729e-001
3710346.000	8.218771e-001	-5.695844e-001
3716340.000	8.215172e-001	-5.704025e-001
3722334.000	8.209152e-001	-5.711351e-001
3728328.000	8.204162e-001	-5.719178e-001
3734322.000	8.199267e-001	-5.727665e-001
3740316.000	8.194184e-001	-5.733816e-001
3746310.000	8.189136e-001	-5.741458e-001
3752304.000	8.183523e-001	-5.749913e-001
3758298.000	8.178838e-001	-5.756993e-001
3764292.000	8.173664e-001	-5.763727e-001
3770286.000	8.167819e-001	-5.772173e-001
3776280.000	8.162811e-001	-5.778714e-001
3782274.000	8.157085e-001	-5.788141e-001
3788268.000	8.153266e-001	-5.794070e-001
3794262.000	8.146082e-001	-5.802781e-001
3800256.000	8.140879e-001	-5.809530e-001
3806250.000	8.136084e-001	-5.817693e-001
3812244.000	8.131592e-001	-5.825402e-001
3818238.000	8.126133e-001	-5.830956e-001
3824232.000	8.121040e-001	-5.839158e-001
3830226.000	8.115019e-001	-5.847536e-001
3836220.000	8.109682e-001	-5.853160e-001
3842214.000	8.104335e-001	-5.860929e-001
3848208.000	8.098843e-001	-5.868194e-001
3854202.000	8.094139e-001	-5.876974e-001
3860196.000	8.088660e-001	-5.883542e-001
3866190.000	8.083110e-001	-5.891028e-001
3872184.000	8.077931e-001	-5.899791e-001
3878178.000	8.073047e-001	-5.906483e-001
3884172.000	8.067345e-001	-5.913376e-001
3890166.000	8.061767e-001	-5.921699e-001
3896160.000	8.056667e-001	-5.928149e-001
3902154.000	8.050886e-001	-5.935696e-001
3908148.000	8.046035e-001	-5.942020e-001
3914142.000	8.039797e-001	-5.950164e-001
3920136.000	8.035098e-001	-5.956323e-001
3926130.000	8.029271e-001	-5.965324e-001
3932124.000	8.023873e-001	-5.971616e-001
3938118.000	8.018733e-001	-5.979736e-001
3944112.000	8.011869e-001	-5.986488e-001
3950106.000	8.007216e-001	-5.993946e-001
3956100.000	8.001905e-001	-6.000157e-001
3962094.000	7.995234e-001	-6.007668e-001
3968088.000	7.990319e-001	-6.015463e-001
3974082.000	7.984590e-001	-6.021842e-001
3980076.000	7.979066e-001	-6.029996e-001
3986070.000	7.973335e-001	-6.038901e-001
3992064.000	7.968610e-001	-6.043766e-001
3998058.000	7.964023e-001	-6.052898e-001
4004052.000	7.958795e-001	-6.059119e-001
4010046.000	7.952637e-001	-6.066768e-001
4016040.000	7.946596e-001	-6.073487e-001
4022034.000	7.941379e-001	-6.081123e-001
4028028.000	7.936034e-001	-6.087653e-001
4034022.000	7.931368e-001	-6.095541e-001
4040016.000	7.925303e-001	-6.102969e-001
4046010.000	7.919587e-001	-6.109662e-001
4052004.000	7.914858e-001	-6.116838e-001
4057998.000	7.907486e-001	-6.124616e-001
4063992.000	7.903173e-001	-6.131728e-001
4069986.000	7.897565e-001	-6.138173e-001
4075980.000	7.892137e-001	-6.144956e-001
4081974.000	7.886058e-001	-6.151919e-001
4087968.000	7.881341e-001	-6.158658e-001
4093962.000	7.875517e-001	-6.166196e-001
4099956.000	7.869925e-001	-6.173838e-001
4105950.000	7.864490e-001	-6.181023e-001
4111944.000	7.859056e-001	-6.188735e-001
4117938.000	7.853430e-001	-6.194391e-001
4123932.000	7.847585e-001	-6.201758e-001
4129926.000	7.841845e-001	-6.209607e-001
4135920.000	7.835345e-001	-6.216733e-001
4141914.000	7.830465e-001	-6.222965e-001
4147908.000	7.825790e-001	-6.230393e-001
4153902.000	7.819264e-001	-6.237064e-001
4159896.000	7.812543e-001	-6.244314e-001
4165890.000	7.808241e-001	-6.251204e-001
4171884.000	7.801964e-001	-6.259246e-001
4177878.000	7.795785e-001	-6.266196e-001
4183872.000	7.791915e-001	-6.272158e-001
4189866.000	7.785293e-001	-6.279814e-001
4195860.000	7.780005e-001	-6.286317e-001
4201854.000	7.773786e-001	-6.294068e-001
4207848.000	7.768454e-001	-6.299614e-001
4213842.000	7.763339e-001	-6.307140e-001
4219836.000	7.757011e-001	-6.314146e-001
4225830.000	7.752144e-001	-6.321078e-001
4231824.000	7.746641e-001	-6.327904e-001
4237818.000	7.741699e-001	-6.335228e-001
4243812.000	7.735232e-001	-6.343442e-001
4249806.000	7.729616e-001	-6.349474e-001
4255800.000	7.724682e-001	-6.355507e-001
4261794.000	7.719093e-001	-6.362498e-001
4267788.000	7.712900e-001	-6.370948e-001
4273782.000	7.707954e-001	-6.376671e-001
4279776.000	7.701296e-001	-6.384230e-001
4285770.000	7.695971e-001	-6.390702e-001
4291764.000	7.689285e-001	-6.398210e-001
4297758.000	7.683365e-001	-6.404841e-001
4303752.000	7.679478e-001	-6.411386e-001
4309746.000	7.673446e-001	-6.418382e-001
4315740.000	7.667536e-001	-6.425451e-001
4321734.000	7.661610e-001	-6.431576e-001
4327728.000	7.655586e-001	-6.438291e-001
4333722.000	7.649319e-001	-6.445969e-001
4339716.000	7.643525e-001	-6.452290e-001
4345710.000	7.639422e-001	-6.458391e-001
4351704.000	7.631647e-001	-6.466015e-001
4357698.000	7.626665e-001	-6.472654e-001
4363692.000	7.621837e-001	-6.478901e-001
4369686.000	7.616629e-001	-6.487323e-001
4375680.000	7.609877e-001	-6.492252e-001
4381674.000	7.602871e-001	-6.499923e-001
4387668.000	7.597801e-001	-6.507116e-001
4393662.000	7.592744e-001	-6.512408e-001
4399656.000	7.587196e-001	-6.520339e-001
4405650.000	7.580453e-001	-6.527259e-001
4411644.000	7.574772e-001	-6.533433e-001
4417638.000	7.569754e-001	-6.540918e-001
4423632.000	7.563766e-001	-6.546135e-001
4429626.000	7.557171e-001	-6.554110e-001
4435620.000	7.551528e-001	-6.560372e-001
4441614.000	7.546114e-001	-6.567919e-001
4447608.000	7.540671e-001	-6.573428e-001
4453602.000	7.534077e-001	-6.580334e-001
4459596.000	7.528637e-001	-6.587500e-001
4465590.000	7.522956e-001	-6.593107e-001
4471584.000	7.515906e-001	-6.600184e-001
4477578.000	7.511477e-001	-6.608106e-001
4483572.000	7.505951e-001	-6.613297e-001
4489566.000	7.498202e-001	-6.620254e-001
4495560.000	7.492769e-001	-6.626473e-001
4501554.000	7.488797e-001	-6.633198e-001
4507548.000	7.482066e-001	-6.639380e-001
4513542.000	7.476592e-001	-6.646627e-001
4519536.000	7.469894e-001	-6.654572e-001
4525530.000	7.463522e-001	-6.660475e-001
4531524.000	7.457869e-001	-6.666300e-001
4537518.000	7.452967e-001	-6.673061e-001
4543512.000	7.446556e-001	-6.680517e-001
4549506.000	7.440672e-001	-6.687360e-001
4555500.000	7.435326e-001	-6.692565e-001
4561494.000	7.428816e-001	-6.699038e-001
4567488.000	7.423917e-001	-6.705958e-001
4573482.000	7.417472e-001	-6.711679e-001
4579476.000	7.411159e-001	-6.719712e-001
4585470.000	7.406207e-001	-6.726310e-001
4591464.000	7.399898e-001	-6.732870e-001
4597458.000	7.393525e-001	-6.737883e-001
4603452.000	7.389046e-001	-6.745043e-001
4609446.000	7.381933e-001	-6.752345e-001
4615440.000	7.376090e-001	-6.757521e-001
4621434.000	7.369867e-001	-6.765403e-001
4627428.000	7.364886e-001	-6.770535e-001
4633422.000	7.359272e-001	-6.777339e-001
4639416.000	7.353251e-001	-6.784696e-001
4645410.000	7.346719e-001	-6.790696e-001
4651404.000	7.340661e-001	-6.796825e-001
4657398.000	7.335644e-001	-6.803895e-001
4663392.000	7.328514e-001	-6.808844e-001
4669386.000	7.322404e-001	-6.816012e-001
4675380.000	7.317216e-001	-6.823041e-001
4681374.000	7.311418e-001	-6.828937e-001
4687368.000	7.305625e-001	-6.835277e-001
4693362.000	7.299888e-001	-6.842499e-001
4699356.000	7.293187e-001	-6.847675e-001
4705350.000	7.287712e-001	-6.854528e-001
4711344.000	7.280167e-001	-6.860790e-001
4717338.000	7.275330e-001	-6.868233e-001
4723332.000	7.269667e-001	-6.873017e-001
4729326.000	7.264302e-001	-6.880598e-001
4735320.000	7.257105e-001	-6.886010e-001
4741314.000	7.251485e-001	-6.892033e-001
4747308.000	7.246048e-001	-6.899467e-001
4753302.000	7.239114e-001	-6.904407e-001
4759296.000	7.233290e-001	-6.912240e-001
4765290.000	7.227401e-001	-6.918790e-001
4771284.000	7.220447e-001	-6.923043e-001
4777278.000	7.215318e-001	-6.931066e-001
4783272.000	7.208315e-001	-6.934913e-001
4789266.000	7.203125e-001	-6.943807e-001
4795260.000	7.196531e-001	-6.948416e-001
4801254.000	7.190214e-001	-6.955687e-001
4807248.000	7.184867e-001	-6.962206e-001
4813242.000	7.179473e-001	-6.968551e-001
4819236.000	7.173278e-001	-6.975813e-001
4825230.000	7.166461e-001	-6.981072e-001
4831224.000	7.161122e-001	-6.986195e-001
4837218.000	7.154670e-001	-6.992876e-001
4843212.000	7.148558e-001	-6.999679e-001
4849206.000	7.142282e-001	-7.005401e-001
4855200.000	7.136062e-001	-7.011067e-001
4861194.000	7.130073e-001	-7.016585e-001
4867188.000	7.124394e-001	-7.023849e-001
4873182.000	7.117596e-001	-7.029618e-001
4879176.000	7.112150e-001	-7.036092e-001
4885170.000	7.106305e-001	-7.041674e-001
4891164.000	7.099809e-001	-7.048026e-001
4897158.000	7.094406e-001	-7.054495e-001
4903152.000	7.088568e-001	-7.061519e-001
4909146.000	7.082716e-001	-7.066233e-001
4915140.000	7.076375e-001	-7.073217e-001
4921134.000	7.069967e-001	-7.078551e-001
4927128.000	7.064477e-001	-7.084641e-001
4933122.000	7.057831e-001	-7.091356e-001
4939116.000	7.050950e-001	-7.097666e-001
4945110.000	7.046460e-001	-7.103126e-001
4951104.000	7.039832e-001	-7.109240e-001
4957098.000	7.032912e-001	-7.116297e-001
4963092.000	7.027494e-001	-7.121694e-001
4969086.000	7.021332e-001	-7.127256e-001
4975080.000	7.014606e-001	-7.133290e-001
4981074.000	7.008411e-001	-7.139982e-001
4987068.000	7.003892e-001	-7.145123e-001
4993062.000	6.996229e-001	-7.152059e-001
4999056.000	6.990697e-001	-7.157029e-001
5005050.000	6.984522e-001	-7.163697e-001
5011044.000	6.977334e-001	-7.169097e-001
5017038.000	6.971087e-001	-7.175210e-001
5023032.000	6.965861e-001	-7.181380e-001
5029026.000	6.959807e-001	-7.187463e-001
5035020.000	6.952783e-001	-7.192391e-001
5041014.000	6.947512e-001	-7.199474e-001
5047008.000	6.941474e-001	-7.204906e-001
5053002.000	6.935012e-001	-7.210748e-001
5058996.000	6.928729e-001	-7.216529e-001
5064990.000	6.922117e-001	-7.222201e-001
5070984.000	6.917107e-001	-7.228038e-001
5076978.000	6.911171e-001	-7.233439e-001
5082972.000	6.903327e-001	-7.240826e-001
5088966.000	6.897541e-001	-7.246146e-001
5094960.000	6.890572e-001	-7.251460e-001
5100954.000	6.885481e-001	-7.258296e-001
5106948.000	6.880162e-001	-7.263717e-001
5112942.000	6.873322e-001	-7.270004e-001
5118936.000	6.867185e-001	-7.275119e-001
5124930.000	6.861361e-001	-7.281274e-001
5130924.000	6.855021e-001	-7.287761e-001
5136918.000	6.848883e-001	-7.293749e-001
5142912.000	6.841692e-001	-7.298259e-001
5148906.000	6.835507e-001	-7.305311e-001
5154900.000	6.830129e-001	-7.310556e-001
5160894.000	6.823688e-001	-7.316279e-001
5166888.000	6.818057e-001	-7.323605e-001
5172882.000	6.811546e-001	-7.327990e-001
5178876.000	6.805288e-001	-7.334369e-001
5184870.000	6.799448e-001	-7.339425e-001
5190864.000	6.793291e-001	-7.345781e-001
5196858.000	6.787149e-001	-7.351082e-001
5202852.000	6.780159e-001	-7.356829e-001
5208846.000	6.775256e-001	-7.363615e-001
5214840.000	6.767691e-001	-7.368376e-001
5220834.000	6.762200e-001	-7.374443e-001
5226828.000	6.755979e-001	-7.380236e-001
5232822.000	6.749000e-001	-7.385596e-001
5238816.000	6.742471e-001	-7.392310e-001
5244810.000	6.737108e-001	-7.397228e-001
5250804.000	6.730897e-001	-7.402834e-001
5256798.000	6.724348e-001	-7.409265e-001
5262792.000	6.719547e-001	-7.415073e-001
5268786.000	6.713190e-001	-7.420631e-001
5274780.000	6.705761e-001	-7.425024e-001
5280774.000	6.699563e-001	-7.432086e-001
5286768.000	6.693656e-001	-7.436891e-001
5292762.000	6.688497e-001	-7.442904e-001
5298756.000	6.680865e-001	-7.448683e-001
5304750.000	6.675123e-001	-7.454139e-001
5310744.000	6.668304e-001	-7.459189e-001
5316738.000	6.660963e-001	-7.464557e-001
5322732.000	6.656472e-001	-7.470715e-001
5328726.000	6.649547e-001	-7.475777e-001
5334720.000	6.643471e-001	-7.481543e-001
5340714.000	6.636650e-001	-7.487600e-001
5346708.000	6.631471e-001	-7.493891e-001
5352702.000	6.624692e-001	-7.498919e-001
5358696.000	6.617186e-001	-7.503899e-001
5364690.000	6.611182e-001	-7.510147e-001
5370684.000	6.605177e-001	-7.515199e-001
5376678.000	6.599610e-001	-7.520501e-001
5382672.000	6.592954e-001	-7.526534e-001
5388666.000	6.585135e-001	-7.531462e-001
5394660.000	6.579878e-001	-7.536776e-001
5400654.000	6.573922e-001	-7.542818e-001
5406648.000	6.568335e-001	-7.548265e-001
5412642.000	6.561218e-001	-7.554138e-001
5418636.000	6.555120e-001	-7.559406e-001
5424630.000	6.548022e-001	-7.563713e-001
5430624.000	6.542182e-001	-7.570783e-001
5436618.000	6.535903e-001	-7.574641e-001
5442612.000	6.529093e-001	-7.580777e-001
5448606.000	6.524071e-001	-7.587543e-001
5454600.000	6.517542e-001	-7.592497e-001
5460594.000	6.510622e-001	-7.597471e-001
5466588.000	6.504500e-001	-7.604314e-001
5472582.000	6.498525e-001	-7.609434e-001
5478576.000	6.491154e-001	-7.613595e-001
5484570.000	6.485093e-001	-7.619103e-001
5490564.000	6.478472e-001	-7.624454e-001
5496558.000	6.472265e-001	-7.631726e-001
5502552.000	6.465893e-001	-7.636234e-001
5508546.000	6.460098e-001	-7.640316e-001
5514540.000	6.454030e-001	-7.646726e-001
5520534.000	6.446838e-001	-7.650372e-001
5526528.000	6.440657e-001	-7.656047e-001
5532522.000	6.433918e-001	-7.661845e-001
5538516.000	6.428121e-001	-7.666957e-001
5544510.000	6.422625e-001	-7.673193e-001
5550504.000	6.416736e-001	-7.678610e-001
5556498.000	6.409106e-001	-7.684240e-001
5562492.000	6.403383e-001	-7.688759e-001
5568486.000	6.396853e-001	-7.694796e-001
5574480.000	6.390699e-001	-7.699934e-001
5580474.000	6.384504e-001	-7.703802e-001
5586468.000	6.377653e-001	-7.709901e-001
5592462.000	6.371063e-001	-7.716174e-001
5598456.000	6.365886e-001	-7.721052e-001
5604450.000	6.358066e-001	-7.726279e-001
5610444.000	6.352705e-001	-7.730181e-001
5616438.000	6.345836e-001	-7.736962e-001
5622432.000	6.339589e-001	-7.742410e-001
5628426.000	6.332555e-001	-7.747013e-001
5634420.000	6.326411e-001	-7.752607e-001
5640414.000	6.320610e-001	-7.758604e-001
5646408.000	6.313632e-001	-7.762551e-001
5652402.000	6.307417e-001	-7.768772e-001
5658396.000	6.300534e-001	-7.772490e-001
5664390.000	6.295445e-001	-7.778375e-001
5670384.000	6.288106e-001	-7.783311e-001
5676378.000	6.282861e-001	-7.788688e-001
5682372.000	6.275579e-001	-7.794201e-001
5688366.000	6.268861e-001	-7.799704e-001
5694360.000	6.263326e-001	-7.803929e-001
5700354.000	6.256709e-001	-7.808911e-001
5706348.000	6.249423e-001	-7.815259e-001
5712342.000	6.243711e-001	-7.818744e-001
5718336.000	6.237676e-001	-7.825379e-001
5724330.000	6.230920e-001	-7.829413e-001
5730324.000	6.224033e-001	-7.834591e-001
5736318.000	6.218931e-001	-7.839164e-001
5742312.000	6.212386e-001	-7.845500e-001
5748306.000	6.205062e-001	-7.850299e-001
5754300.000	6.199675e-001	-7.855292e-001
5760294.000	6.192977e-001	-7.860669e-001
5766288.000	6.186745e-001	-7.866105e-001
5772282.000	6.180125e-001	-7.870439e-001
5778276.000	6.173841e-001	-7.876028e-001
5784270.000	6.167557e-001	-7.881271e-001
5790264.000	6.161190e-001	-7.885467e-001
5796258.000	6.153938e-001	-7.890119e-001
5802252.000	6.147935e-001	-7.895462e-001
5808246.000	6.141170e-001	-7.899950e-001
5814240.000	6.134236e-001	-7.906460e-001
5820234.000	6.129026e-001	-7.911251e-001
5826228.000	6.122701e-001	-7.915777e-001
5832222.000	6.115853e-001	-7.920506e-001
5838216.000	6.109813e-001	-7.926263e-001
5844210.000	6.102523e-001	-7.930873e-001
5850204.000	6.097167e-001	-7.936008e-001
5856198.000	6.089984e-001	-7.939732e-001
5862192.000	6.084032e-001	-7.945218e-001
5868186.000	6.076786e-001	-7.950739e-001
5874180.000	6.071168e-001	-7.954362e-001
5880174.000	6.063861e-001	-7.960638e-001
5886168.000	6.058072e-001	-7.965909e-001
5892162.000	6.051316e-001	-7.969613e-001
5898156.000	6.044929e-001	-7.975403e-001
5904150.000	6.037844e-001	-7.980076e-001
5910144.000	6.032135e-001	-7.983831e-001
5916138.000	6.025365e-001	-7.989708e-001
5922132.000	6.019070e-001	-7.994465e-001
5928126.000	6.013075e-001	-7.999084e-001
5934120.000	6.005618e-001	-8.004621e-001
5940114.000	5.999235e-001	-8.009320e-001
5946108.000	5.993047e-001	-8.014260e-001
5952102.000	5.987075e-001	-8.020353e-001
5958096.000	5.979743e-001	-8.023431e-001
5964090.000	5.973411e-001	-8.028169e-001
5970084.000	5.968149e-001	-8.032802e-001
5976078.000	5.960871e-001	-8.038841e-001
5982072.000	5.953851e-001	-8.043160e-001
5988066.000	5.948289e-001	-8.046674e-001
5994060.000	5.939963e-001	-8.052003e-001
6000054.000	5.936009e-001	-8.058137e-001
6006048.000	5.928204e-001	-8.063093e-001
6012042.000	5.922248e-001	-8.068106e-001
6018036.000	5.914961e-001	-8.072414e-001
6024030.000	5.908566e-001	-8.077152e-001
6030024.000	5.903641e-001	-8.082221e-001
6036018.000	5.896117e-001	-8.086430e-001
6042012.000	5.888998e-001	-8.091030e-001
6048006.000	5.883062e-001	-8.096605e-001
6054000.000	5.877126e-001	-8.100100e-001
6059994.000	5.870679e-001	-8.105632e-001
6065988.000	5.864118e-001	-8.110274e-001
6071982.000	5.857101e-001	-8.114590e-001
6077976.000	5.851012e-001	-8.119236e-001
6083970.000	5.844646e-001	-8.123849e-001
6089964.000	5.837377e-001	-8.128685e-001
6095958.000	5.831448e-001	-8.133467e-001
6101952.000	5.824303e-001	-8.137955e-001
6107946.000	5.818635e-001	-8.143610e-001
6113940.000	5.811372e-001	-8.147569e-001
6119934.000	5.805049e-001	-8.152670e-001
6125928.000	5.799643e-001	-8.156985e-001
6131922.000	5.792399e-001	-8.161354e-001
6137916.000	5.785844e-001	-8.167106e-001
6143910.000	5.778913e-001	-8.170590e-001
6149904.000	5.772300e-001	-8.174802e-001
6155898.000	5.766612e-001	-8.179342e-001
6161892.000	5.759620e-001	-8.183763e-001
6167886.000	5.753125e-001	-8.189191e-001
6173880.000	5.746973e-001	-8.193582e-001
6179874.000	5.740479e-001	-8.197929e-001
6185868.000	5.734411e-001	-8.201776e-001
6191862.000	5.727229e-001	-8.208626e-001
6197856.000	5.721486e-001	-8.212228e-001
6203850.000	5.714713e-001	-8.216727e-001
6209844.000	5.708047e-001	-8.221880e-001
6215838.000	5.700227e-001	-8.225498e-001
6221832.000	5.694303e-001	-8.230031e-001
6227826.000	5.687748e-001	-8.234765e-001
6233820.000	5.681130e-001	-8.239262e-001
6239814.000	5.675051e-001	-8.243649e-001
6245808.000	5.668133e-001	-8.247995e-001
6251802.000	5.662401e-001	-8.252760e-001
6257796.000	5.655509e-001	-8.257387e-001
6263790.000	5.648342e-001	-8.262267e-001
6269784.000	5.641935e-001	-8.266259e-001
6275778.000	5.635328e-001	-8.270313e-001
6281772.000	5.629502e-001	-8.274911e-001
6287766.000	5.622651e-001	-8.278365e-001
6293760.000	5.616319e-001	-8.283702e-001
6299754.000	5.610498e-001	-8.288127e-001
6305748.000	5.603739e-001	-8.292885e-001
6311742.000	5.598119e-001	-8.296752e-001
6317736.000	5.589919e-001	-8.301762e-001
6323730.000	5.583606e-001	-8.306612e-001
6329724.000	5.577325e-001	-8.310634e-001
6335718.000	5.570373e-001	-8.315123e-001
6341712.000	5.564849e-001	-8.319264e-001
6347706.000	5.558433e-001	-8.324199e-001
6353700.000	5.552496e-001	-8.327567e-001
6359694.000	5.544589e-001	-8.332205e-001
6365688.000	5.537961e-001	-8.336819e-001
6371682.000	5.532471e-001	-8.341338e-001
6377676.000	5.525037e-001	-8.346213e-001
6383670.000	5.518934e-001	-8.349470e-001
6389664.000	5.512288e-001	-8.353568e-001
6395658.000	5.505496e-001	-8.358854e-001
6401652.000	5.499204e-001	-8.363573e-001
6407646.000	5.492737e-001	-8.367077e-001
6413640.000	5.486076e-001	-8.371734e-001
6419634.000	5.479108e-001	-8.376037e-001
6425628.000	5.472972e-001	-8.379869e-001
6431622.000	5.466851e-001	-8.384197e-001
6437616.000	5.459635e-001	-8.389050e-001
6443610.000	5.452959e-001	-8.392820e-001
6449604.000	5.446777e-001	-8.396867e-001
6455598.000	5.440436e-001	-8.401709e-001
6461592.000	5.433300e-001	-8.405406e-001
6467586.000	5.427724e-001	-8.410202e-001
6473580.000	5.421097e-001	-8.414937e-001
6479574.000	5.414352e-001	-8.418044e-001
6485568.000	5.407989e-001	-8.423124e-001
6491562.000	5.401702e-001	-8.427188e-001
6497556.000	5.395371e-001	-8.431576e-001
6503550.000	5.388543e-001	-8.434814e-001
6509544.000	5.382414e-001	-8.438600e-001
6515538.000	5.375194e-001	-8.443584e-001
6521532.000	5.368427e-001	-8.447262e-001
6527526.000	5.361619e-001	-8.451305e-001
6533520.000	5.356045e-001	-8.456426e-001
6539514.000	5.349154e-001	-8.459651e-001
6545508.000	5.342576e-001	-8.463627e-001
6551502.000	5.336062e-001	-8.467875e-001
6557496.000	5.328922e-001	-8.472549e-001
6563490.000	5.323525e-001	-8.476759e-001
6569484.000	5.315930e-001	-8.481350e-001
6575478.000	5.310122e-001	-8.485120e-001
6581472.000	5.303612e-001	-8.489331e-001
6587466.000	5.296548e-001	-8.492872e-001
6593460.000	5.290625e-001	-8.496452e-001
6599454.000	5.284081e-001	-8.502037e-001
6605448.000	5.276518e-001	-8.504879e-001
6611442.000	5.270670e-001	-8.509504e-001
6617436.000	5.264542e-001	-8.514154e-001
6623430.000	5.257896e-001	-8.516704e-001
6629424.000	5.251262e-001	-8.522474e-001
6635418.000	5.244567e-001	-8.526329e-001
6641412.000	5.238517e-001	-8.530001e-001
6647406.000	5.232078e-001	-8.533794e-001
6653400.000	5.224331e-001	-8.537805e-001
6659394.000	5.218110e-001	-8.542591e-001
6665388.000	5.212086e-001	-8.546579e-001
6671382.000	5.205179e-001	-8.549503e-001
6677376.000	5.198473e-001	-8.552681e-001
6683370.000	5.191149e-001	-8.557797e-001
6689364.000	5.185126e-001	-8.561668e-001
6695358.000	5.178875e-001	-8.565873e-001
6701352.000	5.172135e-001	-8.570440e-001
6707346.000	5.165341e-001	-8.573910e-001
6713340.000	5.157870e-001	-8.578302e-001
6719334.000	5.153173e-001	-8.581610e-001
6725328.000	5.145882e-001	-8.586136e-001
6731322.000	5.139779e-001	-8.589738e-001
6737316.000	5.133973e-001	-8.593576e-001
6743310.000	5.125606e-001	-8.596858e-001
6749304.000	5.120159e-001	-8.601590e-001
6755298.000	5.113333e-001	-8.604457e-001
6761292.000	5.107201e-001	-8.608693e-001
6767286.000	5.099539e-001	-8.612795e-001
6773280.000	5.094459e-001	-8.616690e-001
6779274.000	5.087528e-001	-8.620836e-001
6785268.000	5.080123e-001	-8.624456e-001
6791262.000	5.074154e-001	-8.628157e-001
6797256.000	5.067108e-001	-8.632393e-001
6803250.000	5.060605e-001	-8.636192e-001
6809244.000	5.055110e-001	-8.640108e-001
6815238.000	5.048036e-001	-8.644443e-001
6821232.000	5.041254e-001	-8.648500e-001
6827226.000	5.035732e-001	-8.652126e-001
6833220.000	5.029309e-001	-8.656067e-001
6839214.000	5.022086e-001	-8.659864e-001
6845208.000	5.015741e-001	-8.663838e-001
6851202.000	5.008134e-001	-8.666631e-001
6857196.000	5.002286e-001	-8.669986e-001
6863190.000	4.995474e-001	-8.674593e-001
6869184.000	4.988248e-001	-8.678369e-001
6875178.000	4.982565e-001	-8.681953e-001
6881172.000	4.976882e-001	-8.685848e-001
6887166.000	4.969414e-001	-8.689139e-001
6893160.000	4.962637e-001	-8.693318e-001
6899154.000	4.956446e-001	-8.696784e-001
6905148.000	4.949289e-001	-8.701090e-001
6911142.000	4.943454e-001	-8.704702e-001
6917136.000	4.936358e-001	-8.708249e-001
6923130.000	4.930035e-001	-8.712344e-001
6929124.000	4.923611e-001	-8.715708e-001
6935118.000	4.917833e-001	-8.719433e-001
6941112.000	4.910768e-001	-8.723381e-001
6947106.000	4.903848e-001	-8.727018e-001
6953100.000	4.896978e-001	-8.730683e-001
6959094.000	4.890653e-001	-8.734518e-001
6965088.000	4.884346e-001	-8.738026e-001
6971082.000	4.876554e-001	-8.741901e-001
6977076.000	4.871595e-001	-8.746539e-001
6983070.000	4.864904e-001	-8.749347e-001
6989064.000	4.858286e-001	-8.752874e-001
6995058.000	4.850967e-001	-8.756604e-001
7001052.000	4.845217e-001	-8.759197e-001
7007046.000	4.838483e-001	-8.763338e-001
7013040.000	4.831680e-001	-8.766984e-001
7019034.000	4.825546e-001	-8.770660e-001
7025028.000	4.819613e-001	-8.774299e-001
7031022.000	4.812614e-001	-8.778022e-001
7037016.000	4.806076e-001	-8.782409e-001
7043010.000	4.799107e-001	-8.784767e-001
7049004.000	4.792172e-001	-8.788162e-001
7054998.000	4.785045e-001	-8.793301e-001
7060992.000	4.779892e-001	-8.797010e-001
7066986.000	4.773419e-001	-8.800337e-001
7072980.000	4.766759e-001	-8.803841e-001
7078974.000	4.760645e-001	-8.806155e-001
7084968.000	4.753394e-001	-8.809903e-001
7090962.000	4.747041e-001	-8.813799e-001
7096956.000	4.740603e-001	-8.817703e-001
7102950.000	4.733241e-001	-8.821293e-001
7108944.000	4.726883e-001	-8.825192e-001
7114938.000	4.721300e-001	-8.828108e-001
7120932.000	4.714353e-001	-8.831306e-001
7126926.000	4.707493e-001	-8.835590e-001
7132920.000	4.701462e-001	-8.838186e-001
7138914.000	4.695308e-001	-8.841852e-001
7144908.000	4.688319e-001	-8.846131e-001
7150902.000	4.682133e-001	-8.849390e-001
7156896.000	4.674495e-001	-8.851229e-001
7162890.000	4.668945e-001	-8.855966e-001
7168884.000	4.662136e-001	-8.860285e-001
7174878.000	4.654842e-001	-8.863064e-001
7180872.000	4.648518e-001	-8.865969e-001
7186866.000	4.642167e-001	-8.869149e-001
7192860.000	4.635220e-001	-8.873774e-001
7198854.000	4.629203e-001	-8.876684e-001
7204848.000	4.623471e-001	-8.878784e-001
7210842.000	4.616098e-001	-8.883500e-001
7216836.000	4.609707e-001	-8.885504e-001
7222830.000	4.603929e-001	-8.889855e-001
7228824.000	4.596428e-001	-8.893387e-001
7234818.000	4.590044e-001	-8.897824e-001
7240812.000	4.583980e-001	-8.900899e-001
7246806.000	4.577212e-001	-8.903550e-001
7252800.000	4.570353e-001	-8.907296e-001
7258794.000	4.564237e-001	-8.909757e-001
7264788.000	4.557865e-001	-8.914186e-001
7270782.000	4.550456e-001	-8.917032e-001
7276776.000	4.543858e-001	-8.921741e-001
7282770.000	4.537661e-001	-8.923309e-001
7288764.000	4.530855e-001	-8.927551e-001
7294758.000	4.524036e-001	-8.930662e-001
7300752.000	4.518677e-001	-8.934058e-001
7306746.000	4.512207e-001	-8.936388e-001
7312740.000	4.504924e-001	-8.939908e-001
7318734.000	4.498073e-001	-8.943245e-001
7324728.000	4.492163e-001	-8.948213e-001
7330722.000	4.485119e-001	-8.951034e-001
7336716.000	4.479375e-001	-8.954064e-001
7342710.000	4.472270e-001	-8.957362e-001
7348704.000	4.466177e-001	-8.960554e-001
7354698.000	4.458989e-001	-8.963663e-001
7360692.000	4.451672e-001	-8.966997e-001
7366686.000	4.446626e-001	-8.970194e-001
7372680.000	4.439024e-001	-8.972925e-001
7378674.000	4.432784e-001	-8.976595e-001
7384668.000	4.427407e-001	-8.980950e-001
7390662.000	4.421270e-001	-8.982687e-001
7396656.000	4.413495e-001	-8.986751e-001
7402650.000	4.407060e-001	-8.990014e-001
7408644.000	4.400662e-001	-8.993899e-001
7414638.000	4.394267e-001	-8.995708e-001
7420632.000	4.386613e-001	-8.997521e-001
7426626.000	4.379490e-001	-9.001592e-001
7432620.000	4.373809e-001	-9.004721e-001
7438614.000	4.366858e-001	-9.007764e-001
7444608.000	4.360157e-001	-9.010720e-001
7450602.000	4.353504e-001	-9.014533e-001
7456596.000	4.347337e-001	-9.017663e-001
7462590.000	4.341016e-001	-9.020588e-001
7468584.000	4.334057e-001	-9.023979e-001
7474578.000	4.327824e-001	-9.027029e-001
7480572.000	4.321522e-001	-9.029833e-001
7486566.000	4.314863e-001	-9.033260e-001
7492560.000	4.308701e-001	-9.036680e-001
7498554.000	4.302140e-001	-9.039593e-001
7504548.000	4.295398e-001	-9.043225e-001
7510542.000	4.289117e-001	-9.045834e-001
7516536.000	4.282292e-001	-9.049147e-001
7522530.000	4.276125e-001	-9.053030e-001
7528524.000	4.270366e-001	-9.054265e-001
7534518.000	4.262933e-001	-9.058383e-001
7540512.000	4.255873e-001	-9.061661e-001
7546506.000	4.249882e-001	-9.064603e-001
7552500.000	4.243254e-001	-9.068076e-001
7558494.000	4.235583e-001	-9.069547e-001
7564488.000	4.230972e-001	-9.072906e-001
7570482.000	4.223896e-001	-9.076386e-001
7576476.000	4.216783e-001	-9.080063e-001
7582470.000	4.210136e-001	-9.081826e-001
7588464.000	4.204586e-001	-9.085227e-001
7594458.000	4.198349e-001	-9.089041e-001
7600452.000	4.191450e-001	-9.091316e-001
7606446.000	4.183700e-001	-9.094259e-001
7612440.000	4.179157e-001	-9.097404e-001
7618434.000	4.170876e-001	-9.100473e-001
7624428.000	4.165231e-001	-9.103314e-001
7630422.000	4.158564e-001	-9.106726e-001
7636416.000	4.151789e-001	-9.109001e-001
7642410.000	4.145703e-001	-9.113360e-001
7648404.000	4.140105e-001	-9.116383e-001
7654398.000	4.133551e-001	-9.118688e-001
7660392.000	4.126123e-001	-9.121867e-001
7666386.000	4.119596e-001	-9.125579e-001
7672380.000	4.113691e-001	-9.127060e-001
7678374.000	4.106634e-001	-9.130554e-001
7684368.000	4.100385e-001	-9.133269e-001
7690362.000	4.095081e-001	-9.136531e-001
7696356.000	4.088328e-001	-9.139909e-001
7702350.000	4.081477e-001	-9.143583e-001
7708344.000	4.075308e-001	-9.145631e-001
7714338.000	4.069463e-001	-9.148895e-001
7720332.000	4.062230e-001	-9.150844e-001
7726326.000	4.055553e-001	-9.153671e-001
7732320.000	4.049233e-001	-9.157077e-001
7738314.000	4.042726e-001	-9.159876e-001
7744308.000	4.036504e-001	-9.163547e-001
7750302.000	4.029178e-001	-9.165681e-001
7756296.000	4.023425e-001	-9.168837e-001
7762290.000	4.016564e-001	-9.171056e-001
7768284.000	4.010268e-001	-9.174639e-001
7774278.000	4.004249e-001	-9.176680e-001
7780272.000	3.998379e-001	-9.180432e-001
7786266.000	3.991410e-001	-9.182596e-001
7792260.000	3.984465e-001	-9.185612e-001
7798254.000	3.979428e-001	-9.189580e-001
7804248.000	3.971341e-001	-9.191485e-001
7810242.000	3.965994e-001	-9.193914e-001
7816236.000	3.958660e-001	-9.196697e-001
7822230.000	3.952866e-001	-9.201120e-001
7828224.000	3.945457e-001	-9.202947e-001
7834218.000	3.938899e-001	-9.206069e-001
7840212.000	3.933085e-001	-9.207985e-001
7846206.000	3.926330e-001	-9.210619e-001
7852200.000	3.920082e-001	-9.214162e-001
7858194.000	3.913630e-001	-9.216882e-001
7864188.000	3.907340e-001	-9.219087e-001
7870182.000	3.899388e-001	-9.222339e-001
7876176.000	3.894749e-001	-9.224909e-001
7882170.000	3.886947e-001	-9.227191e-001
7888164.000	3.880996e-001	-9.229545e-001
7894158.000	3.875006e-001	-9.233684e-001
7900152.000	3.867769e-001	-9.235820e-001
7906146.000	3.861623e-001	-9.238156e-001
7912140.000	3.854518e-001	-9.241225e-001
7918134.000	3.849223e-001	-9.243961e-001
7924128.000	3.843034e-001	-9.246211e-001
7930122.000	3.836376e-001	-9.248865e-001
7936116.000	3.829163e-001	-9.251555e-001
7942110.000	3.823419e-001	-9.254111e-001
7948104.000	3.816986e-001	-9.257539e-001
7954098.000	3.809165e-001	-9.259760e-001
7960092.000	3.803541e-001	-9.262789e-001
7966086.000	3.797061e-001	-9.265925e-001
7972080.000	3.790598e-001	-9.267559e-001
7978074.000	3.784935e-001	-9.270767e-001
7984068.000	3.778133e-001	-9.272205e-001
7990062.000	3.770998e-001	-9.276552e-001
7996056.000	3.765159e-001	-9.279286e-001
8002050.000	3.759069e-001	-9.280656e-001
8008044.000	3.751772e-001	-9.283971e-001
8014038.000	3.745658e-001	-9.285637e-001
8020032.000	3.739361e-001	-9.288764e-001
8026026.000	3.732798e-001	-9.291354e-001
8032020.000	3.726732e-001	-9.293950e-001
8038014.000	3.721182e-001	-9.296054e-001
8044008.000	3.713783e-001	-9.300244e-001
8050002.000	3.707674e-001	-9.301457e-001
8055996.000	3.701085e-001	-9.304772e-001
8061990.000	3.694649e-001	-9.307065e-001
8067984.000	3.688810e-001	-9.308360e-001
8073978.000	3.681168e-001	-9.312599e-001
8079972.000	3.674675e-001	-9.315407e-001
8085966.000	3.668664e-001	-9.317358e-001
8091960.000	3.662723e-001	-9.319701e-001
8097954.000	3.655982e-001	-9.322496e-001
8103948.000	3.649886e-001	-9.326178e-001
8109942.000	3.642518e-001	-9.328069e-001
8115936.000	3.637333e-001	-9.330605e-001
8121930.000	3.630234e-001	-9.332984e-001
8127924.000	3.624475e-001	-9.334804e-001
8133918.000	3.617102e-001	-9.337422e-001
8139912.000	3.611344e-001	-9.340163e-001
8145906.000	3.604589e-001	-9.341709e-001
8151900.000	3.598276e-001	-9.343666e-001
8157894.000	3.591844e-001	-9.347611e-001
8163888.000	3.585305e-001	-9.349511e-001
8169882.000	3.579577e-001	-9.352238e-001
8175876.000	3.573144e-001	-9.355105e-001
8181870.000	3.566468e-001	-9.357456e-001
8187864.000	3.561147e-001	-9.359582e-001
8193858.000	3.554102e-001	-9.362196e-001
8199852.000	3.547725e-001	-9.364835e-001
8205846.000	3.541094e-001	-9.367096e-001
8211840.000	3.534485e-001	-9.369435e-001
8217834.000	3.527764e-001	-9.371317e-001
8223828.000	3.521394e-001	-9.374327e-001
8229822.000	3.515516e-001	-9.376291e-001
8235816.000	3.509109e-001	-9.379481e-001
8241810.000	3.501359e-001	-9.381377e-001
8247804.000	3.495636e-001	-9.382603e-001
8253798.000	3.490235e-001	-9.386217e-001
8259792.000	3.482926e-001	-9.388899e-001
8265786.000	3.476772e-001	-9.390282e-001
8271780.000	3.470596e-001	-9.393738e-001
8277774.000	3.463500e-001	-9.395154e-001
8283768.000	3.457092e-001	-9.398370e-001
8289762.000	3.450765e-001	-9.400524e-001
8295756.000	3.444920e-001	-9.402555e-001
8301750.000	3.438736e-001	-9.405672e-001
8307744.000	3.432348e-001	-9.407618e-001
8313738.000	3.426395e-001	-9.410478e-001
8319732.000	3.418556e-001	-9.412057e-001
8325726.000	3.413495e-001	-9.413495e-001
8331720.000	3.406140e-001	-9.416709e-001
8337714.000	3.400563e-001	-9.419612e-001
8343708.000	3.393616e-001	-9.420590e-001
8349702.000	3.388613e-001	-9.423602e-001
8355696.000	3.381526e-001	-9.426249e-001
8361690.000	3.375150e-001	-9.428688e-001
8367684.000	3.369526e-001	-9.431597e-001
8373678.000	3.362707e-001	-9.432431e-001
8379672.000	3.356277e-001	-9.435114e-001
8385666.000	3.350202e-001	-9.438522e-001
8391660.000	3.344029e-001	-9.439806e-001
8397654.000	3.337157e-001	-9.442770e-001
8403648.000	3.331243e-001	-9.444679e-001
8409642.000	3.324565e-001	-9.446292e-001
8415636.000	3.318371e-001	-9.448691e-001
8421630.000	3.311359e-001	-9.450908e-001
8427624.000	3.305305e-001	-9.453681e-001
8433618.000	3.299277e-001	-9.455370e-001
8439612.000	3.292264e-001	-9.458276e-001
8445606.000	3.287064e-001	-9.459882e-001
8451600.000	3.279997e-001	-9.461719e-001
8457594.000	3.274267e-001	-9.464725e-001
8463588.000	3.267363e-001	-9.466692e-001
8469582.000	3.260988e-001	-9.468518e-001
8475576.000	3.255175e-001	-9.470362e-001
8481570.000	3.247920e-001	-9.468358e-001
8487564.000	3.241419e-001	-9.470632e-001
8493558.000	3.234484e-001	-9.473109e-001
8499552.000	3.228673e-001	-9.475641e-001
8505546.000	3.222354e-001	-9.478248e-001
8511540.000	3.216077e-001	-9.480817e-001
8517534.000	3.209529e-001	-9.481772e-001
8523528.000	3.203547e-001	-9.484512e-001
8529522.000	3.196944e-001	-9.486412e-001
8535516.000	3.190670e-001	-9.488642e-001
8541510.000	3.183988e-001	-9.490692e-001
8547504.000	3.177933e-001	-9.492869e-001
8553498.000	3.172018e-001	-9.494705e-001
8559492.000	3.166098e-001	-9.497854e-001
8565486.000	3.159710e-001	-9.499172e-001
8571480.000	3.153134e-001	-9.501692e-001
8577474.000	3.146977e-001	-9.503468e-001
8583468.000	3.140209e-001	-9.505080e-001
8589462.000	3.134040e-001	-9.507385e-001
8595456.000	3.127911e-001	-9.509681e-001
8601450.000	3.121739e-001	-9.512072e-001
8607444.000	3.115204e-001	-9.513893e-001
8613438.000	3.108870e-001	-9.515620e-001
8619432.000	3.102787e-001	-9.518308e-001
8625426.000	3.096427e-001	-9.519687e-001
8631420.000	3.090159e-001	-9.521780e-001
8637414.000	3.084014e-001	-9.524017e-001
8643408.000	3.077270e-001	-9.526066e-001
8649402.000	3.071361e-001	-9.528609e-001
8655396.000	3.064936e-001	-9.530369e-001
8661390.000	3.058133e-001	-9.532341e-001
8667384.000	3.052010e-001	-9.534422e-001
8673378.000	3.045966e-001	-9.536534e-001
8679372.000	3.040567e-001	-9.538101e-001
8685366.000	3.033413e-001	-9.540320e-001
8691360.000	3.027590e-001	-9.542288e-001
8697354.000	3.021183e-001	-9.544391e-001
8703348.000	3.015129e-001	-9.546204e-001
8709342.000	3.008825e-001	-9.548375e-001
8715336.000	3.002068e-001	-9.550034e-001
8721330.000	2.996095e-001	-9.552318e-001
8727324.000	2.989738e-001	-9.554454e-001
8733318.000	2.983339e-001	-9.556798e-001
8739312.000	2.977299e-001	-9.557890e-001
8745306.000	2.970938e-001	-9.560295e-001
8751300.000	2.964806e-001	-9.562076e-001
8757294.000	2.958480e-001	-9.564201e-001
8763288.000	2.952181e-001	-9.566340e-001
8769282.000	2.946124e-001	-9.568069e-001
8775276.000	2.939931e-001	-9.570716e-001
8781270.000	2.933150e-001	-9.572064e-001
8787264.000	2.927065e-001	-9.573701e-001
8793258.000	2.921056e-001	-9.575840e-001
8799252.000	2.914709e-001	-9.577462e-001
8805246.000	2.908246e-001	-9.578882e-001
8811240.000	2.902088e-001	-9.581276e-001
8817234.000	2.896571e-001	-9.583817e-001
8823228.000	2.890213e-001	-9.584643e-001
8829222.000	2.883854e-001	-9.586453e-001
8835216.000	2.877412e-001	-9.588701e-001
8841210.000	2.870575e-001	-9.590668e-001
8847204.000	2.865045e-001	-9.592533e-001
8853198.000	2.859467e-001	-9.594462e-001
8859192.000	2.852679e-001	-9.596804e-001
8865186.000	2.846802e-001	-9.598354e-001
8871180.000	2.840704e-001	-9.599916e-001
8877174.000	2.834024e-001	-9.602095e-001
8883168.000	2.828135e-001	-9.604067e-001
8889162.000	2.821773e-001	-9.605356e-001
8895156.000	2.815454e-001	-9.607916e-001
8901150.000	2.809540e-001	-9.609478e-001
8907144.000	2.803546e-001	-9.611884e-001
8913138.000	2.796419e-001	-9.613352e-001
8919132.000	2.791069e-001	-9.615171e-001
8925126.000	2.784513e-001	-9.615946e-001
8931120.000	2.778803e-001	-9.618442e-001
8937114.000	2.772310e-001	-9.620485e-001
8943108.000	2.765912e-001	-9.622041e-001
8949102.000	2.759238e-001	-9.623753e-001
8955096.000	2.753871e-001	-9.625648e-001
8961090.000	2.747826e-001	-9.627250e-001
8967084.000	2.741260e-001	-9.629349e-001
8973078.000	2.734898e-001	-9.631540e-001
8979072.000	2.728723e-001	-9.632555e-001
8985066.000	2.723080e-001	-9.634595e-001
8991060.000	2.716443e-001	-9.637103e-001
8997054.000	2.710329e-001	-9.638230e-001
9003048.000	2.704602e-001	-9.640212e-001
9009042.000	2.697882e-001	-9.641740e-001
9015036.000	2.691716e-001	-9.643124e-001
9021030.000	2.685526e-001	-9.644477e-001
9027024.000	2.679148e-001	-9.646476e-001
9033018.000	2.672969e-001	-9.648489e-001
9039012.000	2.667214e-001	-9.650229e-001
9045006.000	2.660930e-001	-9.652222e-001
9051000.000	2.654943e-001	-9.653834e-001
9056994.000	2.648774e-001	-9.655045e-001
9062988.000	2.642675e-001	-9.657186e-001
9068982.000	2.636781e-001	-9.658499e-001
9074976.000	2.630533e-001	-9.660383e-001
9080970.000	2.623769e-001	-9.662217e-001
9086964.000	2.618446e-001	-9.663791e-001
9092958.000	2.611602e-001	-9.666006e-001
9098952.000	2.605679e-001	-9.667208e-001
9104946.000	2.599617e-001	-9.669131e-001
9110940.000	2.593586e-001	-9.670670e-001
9116934.000	2.587259e-001	-9.672215e-001
9122928.000	2.580597e-001	-9.674095e-001
9128922.000	2.574769e-001	-9.675822e-001
9134916.000	2.568501e-001	-9.677012e-001
9140910.000	2.563170e-001	-9.678377e-001
9146904.000	2.556498e-001	-9.680622e-001
9152898.000	2.550279e-001	-9.681654e-001
9158892.000	2.544571e-001	-9.683443e-001
9164886.000	2.538179e-001	-9.685090e-001
9170880.000	2.531729e-001	-9.686918e-001
9176874.000	2.525975e-001	-9.688735e-001
9182868.000	2.520245e-001	-9.690269e-001
9188862.000	2.513491e-001	-9.691731e-001
9194856.000	2.507729e-001	-9.693254e-001
9200850.000	2.501348e-001	-9.694685e-001
9206844.000	2.495353e-001	-9.696216e-001
9212838.000	2.488853e-001	-9.697669e-001
9218832.000	2.483281e-001	-9.699219e-001
9224826.000	2.476625e-001	-9.700856e-001
9230820.000	2.471291e-001	-9.702545e-001
9236814.000	2.465234e-001	-9.704452e-001
9242808.000	2.459140e-001	-9.705547e-001
9248802.000	2.452683e-001	-9.707606e-001
9254796.000	2.446316e-001	-9.709491e-001
9260790.000	2.440979e-001	-9.709969e-001
9266784.000	2.434699e-001	-9.711980e-001
9272778.000	2.428609e-001	-9.713867e-001
9278772.000	2.422327e-001	-9.714994e-001
9284766.000	2.416248e-001	-9.716316e-001
9290760.000	2.409789e-001	-9.718505e-001
9296754.000	2.403761e-001	-9.720178e-001
9302748.000	2.397622e-001	-9.721143e-001
9308742.000	2.391717e-001	-9.722391e-001
9314736.000	2.385644e-001	-9.724269e-001
9320730.000	2.379755e-001	-9.725810e-001
9326724.000	2.373785e-001	-9.727230e-001
9332718.000	2.367954e-001	-9.728963e-001
9338712.000	2.361246e-001	-9.729981e-001
9344706.000	2.355652e-001	-9.731115e-001
9350700.000	2.349028e-001	-9.732996e-001
9356694.000	2.343774e-001	-9.734212e-001
9362688.000	2.337194e-001	-9.735307e-001
9368682.000	2.331634e-001	-9.737090e-001
9374676.000	2.325053e-001	-9.738752e-001
9380670.000	2.318888e-001	-9.739778e-001
9386664.000	2.312904e-001	-9.741651e-001
9392658.000	2.307378e-001	-9.743461e-001
9398652.000	2.301384e-001	-9.744621e-001
9404646.000	2.294752e-001	-9.745984e-001
9410640.000	2.289098e-001	-9.747899e-001
9416634.000	2.282803e-001	-9.748979e-001
9422628.000	2.277110e-001	-9.750323e-001
9428622.000	2.270765e-001	-9.751920e-001
9434616.000	2.265032e-001	-9.753322e-001
9440610.000	2.258982e-001	-9.754839e-001
9446604.000	2.252496e-001	-9.756256e-001
9452598.000	2.246858e-001	-9.757711e-001
9458592.000	2.241072e-001	-9.759538e-001
9464586.000	2.234749e-001	-9.760408e-001
9470580.000	2.228889e-001	-9.762533e-001
9476574.000	2.222879e-001	-9.763030e-001
9482568.000	2.216656e-001	-9.764308e-001
9488562.000	2.210588e-001	-9.765476e-001
9494556.000	2.204751e-001	-9.766976e-001
9500550.000	2.198425e-001	-9.767658e-001
9506544.000	2.192830e-001	-9.769518e-001
9512538.000	2.186435e-001	-9.771075e-001
9518532.000	2.180563e-001	-9.772115e-001
9524526.000	2.174428e-001	-9.773431e-001
9530520.000	2.168077e-001	-9.774693e-001
9536514.000	2.162367e-001	-9.776419e-001
9542508.000	2.156583e-001	-9.777894e-001
9548502.000	2.150688e-001	-9.778875e-001
9554496.000	2.144814e-001	-9.780683e-001
9560490.000	2.138689e-001	-9.781691e-001
9566484.000	2.133152e-001	-9.782571e-001
9572478.000	2.126841e-001	-9.784684e-001
9578472.000	2.120430e-001	-9.785221e-001
9584466.000	2.114160e-001	-9.787177e-001
9590460.000	2.108591e-001	-9.787831e-001
9596454.000	2.102975e-001	-9.789205e-001
9602448.000	2.096842e-001	-9.791090e-001
9608442.000	2.091120e-001	-9.791559e-001
9614436.000	2.085035e-001	-9.793134e-001
9620430.000	2.079033e-001	-9.794731e-001
9626424.000	2.072799e-001	-9.796046e-001
9632418.000	2.067081e-001	-9.797014e-001
9638412.000	2.061008e-001	-9.798563e-001
9644406.000	2.055038e-001	-9.799772e-001
9650400.000	2.049116e-001	-9.800865e-001
9656394.000	2.043137e-001	-9.802275e-001
9662388.000	2.037318e-001	-9.803625e-001
9668382.000	2.031139e-001	-9.804406e-001
9674376.000	2.025494e-001	-9.805807e-001
9680370.000	2.019333e-001	-9.807599e-001
9686364.000	2.013530e-001	-9.808410e-001
9692358.000	2.007334e-001	-9.809636e-001
9698352.000	2.001119e-001	-9.810949e-001
9704346.000	1.996352e-001	-9.812618e-001
9710340.000	1.989966e-001	-9.813070e-001
9716334.000	1.983968e-001	-9.814815e-001
9722328.000	1.978029e-001	-9.815537e-001
9728322.000	1.971884e-001	-9.816980e-001
9734316.000	1.965927e-001	-9.818303e-001
9740310.000	1.960255e-001	-9.819383e-001
9746304.000	1.954446e-001	-9.820812e-001
9752298.000	1.947942e-001	-9.821521e-001
9758292.000	1.942368e-001	-9.822061e-001
9764286.000	1.936452e-001	-9.824155e-001
9770280.000	1.930807e-001	-9.825596e-001
9776274.000	1.925104e-001	-9.826626e-001
9782268.000	1.918886e-001	-9.827409e-001
9788262.000	1.913318e-001	-9.829131e-001
9794256.000	1.906560e-001	-9.829548e-001
9800250.000	1.901420e-001	-9.830735e-001
9806244.000	1.895436e-001	-9.831514e-001
9812238.000	1.889157e-001	-9.832949e-001
9818232.000	1.883194e-001	-9.834182e-001
9824226.000	1.877516e-001	-9.835220e-001
9830220.000	1.871772e-001	-9.836414e-001
9836214.000	1.865805e-001	-9.837625e-001
9842208.000	1.860086e-001	-9.838804e-001
9848202.000	1.854178e-001	-9.840113e-001
9854196.000	1.848447e-001	-9.840962e-001
9860190.000	1.842025e-001	-9.842184e-001
9866184.000	1.836634e-001	-9.843109e-001
9872178.000	1.830662e-001	-9.844311e-001
9878172.000	1.824745e-001	-9.845130e-001
9884166.000	1.818670e-001	-9.846667e-001
9890160.000	1.812921e-001	-9.847922e-001
9896154.000	1.806997e-001	-9.849498e-001
9902148.000	1.801389e-001	-9.850480e-001
9908142.000	1.795418e-001	-9.851390e-001
9914136.000	1.789741e-001	-9.852086e-001
9920130.000	1.783545e-001	-9.853416e-001
9926124.000	1.778039e-001	-9.854426e-001
9932118.000	1.772204e-001	-9.855492e-001
9938112.000	1.765895e-001	-9.856988e-001
9944106.000	1.759931e-001	-9.857816e-001
9950100.000	1.754368e-001	-9.859041e-001
9956094.000	1.748173e-001	-9.859794e-001
9962088.000	1.743081e-001	-9.860710e-001
9968082.000	1.736575e-001	-9.861995e-001
9974076.000	1.730917e-001	-9.862960e-001
9980070.000	1.725324e-001	-9.864180e-001
9986064.000	1.719300e-001	-9.865221e-001
9992058.000	1.713603e-001	-9.866146e-001
9998052.000	1.707604e-001	-9.867227e-001
10004046.000	1.701736e-001	-9.868379e-001
10010040.000	1.695852e-001	-9.868578e-001
10016034.000	1.690248e-001	-9.869590e-001
10022028.000	1.683983e-001	-9.870903e-001
10028022.000	1.679030e-001	-9.871797e-001
10034016.000	1.672816e-001	-9.872610e-001
10040010.000	1.667667e-001	-9.873351e-001
10046004.000	1.661021e-001	-9.874855e-001
10051998.000	1.655353e-001	-9.875646e-001
10057992.000	1.649653e-001	-9.876770e-001
10063986.000	1.643648e-001	-9.877976e-001
10069980.000	1.638204e-001	-9.879029e-001
10075974.000	1.632470e-001	-9.880112e-001
10081968.000	1.626539e-001	-9.880586e-001
10087962.000	1.620239e-001	-9.881575e-001
10093956.000	1.614938e-001	-9.882578e-001
10099950.000	1.608992e-001	-9.883269e-001
10105944.000	1.603541e-001	-9.884196e-001
10111938.000	1.597887e-001	-9.885051e-001
10117932.000	1.591848e-001	-9.886004e-001
10123926.000	1.586270e-001	-9.887456e-001
10129920.000	1.579970e-001	-9.888191e-001
10135914.000	1.574509e-001	-9.888834e-001
10141908.000	1.568320e-001	-9.890014e-001
10147902.000	1.563229e-001	-9.891103e-001
10153896.000	1.557140e-001	-9.891715e-001
10159890.000	1.551485e-001	-9.892526e-001
10165884.000	1.545393e-001	-9.893786e-001
10171878.000	1.540217e-001	-9.894971e-001
10177872.000	1.534109e-001	-9.895503e-001
10183866.000	1.528015e-001	-9.896280e-001
10189860.000	1.522956e-001	-9.897756e-001
10195854.000	1.516821e-001	-9.898376e-001
10201848.000	1.511059e-001	-9.899125e-001
10207842.000	1.505353e-001	-9.899740e-001
10213836.000	1.499413e-001	-9.900374e-001
10219830.000	1.494147e-001	-9.901721e-001
10225824.000	1.488265e-001	-9.902886e-001
10231818.000	1.482118e-001	-9.903261e-001
10237812.000	1.477085e-001	-9.904296e-001
10243806.000	1.471127e-001	-9.905229e-001
10249800.000	1.465486e-001	-9.906480e-001
10255794.000	1.460017e-001	-9.908024e-001
10261788.000	1.454437e-001	-9.908258e-001
10267782.000	1.448730e-001	-9.909565e-001
10273776.000	1.443259e-001	-9.910118e-001
10279770.000	1.437351e-001	-9.910908e-001
10285764.000	1.431739e-001	-9.911940e-001
10291758.000	1.425905e-001	-9.913103e-001
10297752.000	1.420187e-001	-9.913902e-001
10303746.000	1.414595e-001	-9.914579e-001
10309740.000	1.408660e-001	-9.915449e-001
10315734.000	1.402850e-001	-9.916273e-001
10321728.000	1.397390e-001	-9.916902e-001
10327722.000	1.391417e-001	-9.918017e-001
10333716.000	1.385600e-001	-9.919410e-001
10339710.000	1.380631e-001	-9.919391e-001
10345704.000	1.374999e-001	-9.920618e-001
10351698.000	1.368918e-001	-9.920953e-001
10357692.000	1.363197e-001	-9.921902e-001
10363686.000	1.357969e-001	-9.922227e-001
10369680.000	1.351740e-001	-9.922986e-001
10375674.000	1.346533e-001	-9.924027e-001
10381668.000	1.340595e-001	-9.924951e-001
10387662.000	1.334983e-001	-9.925499e-001
10393656.000	1.329403e-001	-9.926697e-001
10399650.000	1.323423e-001	-9.927094e-001
10405644.000	1.318088e-001	-9.927814e-001
10411638.000	1.312020e-001	-9.929036e-001
10417632.000	1.306227e-001	-9.929310e-001
10423626.000	1.301174e-001	-9.930173e-001
10429620.000	1.295367e-001	-9.931022e-001
10435614.000	1.289316e-001	-9.931298e-001
10441608.000	1.283603e-001	-9.932239e-001
10447602.000	1.277724e-001	-9.932515e-001
10453596.000	1.272198e-001	-9.933664e-001
10459590.000	1.266692e-001	-9.934426e-001
10465584.000	1.261891e-001	-9.934946e-001
10471578.000	1.255619e-001	-9.935875e-001
10477572.000	1.249874e-001	-9.936125e-001
10483566.000	1.244516e-001	-9.937145e-001
10489560.000	1.238871e-001	-9.937826e-001
10495554.000	1.233097e-001	-9.938703e-001
10501548.000	1.227183e-001	-9.939387e-001
10507542.000	1.221779e-001	-9.940492e-001
10513536.000	1.215860e-001	-9.941226e-001
10519530.000	1.210484e-001	-9.941833e-001
10525524.000	1.204802e-001	-9.942134e-001
10531518.000	1.199331e-001	-9.942842e-001
10537512.000	1.193864e-001	-9.943580e-001
10543506.000	1.187789e-001	-9.944264e-001
10549500.000	1.182645e-001	-9.945002e-001
10555494.000	1.176995e-001	-9.945166e-001
10561488.000	1.171477e-001	-9.946165e-001
10567482.000	1.166109e-001	-9.946355e-001
10573476.000	1.160324e-001	-9.947552e-001
10579470.000	1.154836e-001	-9.948011e-001
10585464.000	1.148675e-001	-9.948610e-001
10591458.000	1.143560e-001	-9.949942e-001
10597452.000	1.137716e-001	-9.950194e-001
10603446.000	1.132157e-001	-9.951052e-001
10609440.000	1.126649e-001	-9.951455e-001
10615434.000	1.121037e-001	-9.951968e-001
10621428.000	1.115011e-001	-9.952576e-001
10627422.000	1.109961e-001	-9.953336e-001
10633416.000	1.104265e-001	-9.953862e-001
10639410.000	1.098484e-001	-9.954264e-001
10645404.000	1.093428e-001	-9.955349e-001
10651398.000	1.087489e-001	-9.955909e-001
10657392.000	1.082256e-001	-9.956966e-001
10663386.000	1.075970e-001	-9.956521e-001
10669380.000	1.071423e-001	-9.957859e-001
10675374.000	1.064976e-001	-9.958137e-001
10681368.000	1.059767e-001	-9.958525e-001
10687362.000	1.054325e-001	-9.959657e-001
10693356.000	1.048891e-001	-9.960208e-001
10699350.000	1.042903e-001	-9.961221e-001
10705344.000	1.037426e-001	-9.962218e-001
10711338.000	1.032222e-001	-9.961959e-001
10717332.000	1.026784e-001	-9.963056e-001
10723326.000	1.021398e-001	-9.963093e-001
10729320.000	1.015434e-001	-9.963851e-001
10735314.000	1.009779e-001	-9.964643e-001
10741308.000	1.004577e-001	-9.964707e-001
10747302.000	9.989967e-002	-9.964999e-001
10753296.000	9.931351e-002	-9.965396e-001
10759290.000	9.874577e-002	-9.966382e-001
10765284.000	9.819809e-002	-9.966735e-001
10771278.000	9.773334e-002	-9.967874e-001
10777272.000	9.709737e-002	-9.967900e-001
10783266.000	9.658506e-002	-9.968733e-001
10789260.000	9.600574e-002	-9.968919e-001
10795254.000	9.548132e-002	-9.969613e-001
10801248.000	9.489869e-002	-9.970546e-001
10807242.000	9.437113e-002	-9.971010e-001
10813236.000	9.383835e-002	-9.971241e-001
10819230.000	9.328105e-002	-9.971805e-001
10825224.000	9.272843e-002	-9.972952e-001
10831218.000	9.216067e-002	-9.972664e-001
10837212.000	9.162630e-002	-9.973725e-001
10843206.000	9.110384e-002	-9.974118e-001
10849200.000	9.057512e-002	-9.974552e-001
10855194.000	9.001400e-002	-9.974698e-001
10861188.000	8.942522e-002	-9.974784e-001
10867182.000	8.887868e-002	-9.975586e-001
10873176.000	8.837387e-002	-9.976324e-001
10879170.000	8.775881e-002	-9.977130e-001
10885164.000	8.722779e-002	-9.977823e-001
10891158.000	8.668356e-002	-9.977693e-001
10897152.000	8.611731e-002	-9.978589e-001
10903146.000	8.560531e-002	-9.978757e-001
10909140.000	8.505496e-002	-9.979166e-001
10915134.000	8.449848e-002	-9.980168e-001
10921128.000	8.398674e-002	-9.979949e-001
10927122.000	8.340998e-002	-9.980794e-001
10933116.000	8.288983e-002	-9.981621e-001
10939110.000	8.235223e-002	-9.981462e-001
10945104.000	8.175816e-002	-9.981820e-001
10951098.000	8.121972e-002	-9.982654e-001
10957092.000	8.075591e-002	-9.983434e-001
10963086.000	8.012509e-002	-9.983395e-001
10969080.000	7.960710e-002	-9.983741e-001
10975074.000	7.906416e-002	-9.984218e-001
10981068.000	7.851112e-002	-9.984217e-001
10987062.000	7.798738e-002	-9.985452e-001
10993056.000	7.745550e-002	-9.985255e-001
10999050.000	7.690389e-002	-9.985805e-001
11005044.000	7.636180e-002	-9.987081e-001
11011038.000	7.580843e-002	-9.986787e-001
11017032.000	7.529904e-002	-9.987121e-001
11023026.000	7.473785e-002	-9.987839e-001
11029020.000	7.424301e-002	-9.988048e-001
11035014.000	7.368665e-002	-9.988392e-001
11041008.000	7.309513e-002	-9.989034e-001
11047002.000	7.254263e-002	-9.989469e-001
11052996.000	7.201163e-002	-9.989649e-001
11058990.000	7.147934e-002	-9.990083e-001
11064984.000	7.096729e-002	-9.990950e-001
11070978.000	7.037049e-002	-9.991430e-001
11076972.000	6.989259e-002	-9.991532e-001
11082966.000	6.933821e-002	-9.992272e-001
11088960.000	6.880836e-002	-9.992035e-001
11094954.000	6.824580e-002	-9.992514e-001
11100948.000	6.773655e-002	-9.992560e-001
11106942.000	6.719358e-002	-9.992465e-001
11112936.000	6.663082e-002	-9.993062e-001
11118930.000	6.614683e-002	-9.993903e-001
11124924.000	6.557575e-002	-9.994047e-001
11130918.000	6.500704e-002	-9.994546e-001
11136912.000	6.448139e-002	-9.994901e-001
11142906.000	6.397703e-002	-9.995431e-001
11148900.000	6.340804e-002	-9.995917e-001
11154894.000	6.288785e-002	-9.996301e-001
11160888.000	6.236853e-002	-9.996225e-001
11166882.000	6.182972e-002	-9.996685e-001
11172876.000	6.127476e-002	-9.996929e-001
11178870.000	6.074556e-002	-9.997419e-001
11184864.000	6.021102e-002	-9.997595e-001
11190858.000	5.968200e-002	-9.997855e-001
11196852.000	5.914246e-002	-9.998040e-001
11202846.000	5.861809e-002	-9.998516e-001
11208840.000	5.808971e-002	-9.998665e-001
11214834.000	5.754843e-002	-9.999059e-001
11220828.000	5.704298e-002	-9.999457e-001
11226822.000	5.647884e-002	-9.999368e-001
11232816.000	5.595367e-002	-1.000011e+000
11238810.000	5.546114e-002	-1.000060e+000
11244804.000	5.488987e-002	-1.000082e+000
11250798.000	5.435251e-002	-1.000100e+000
11256792.000	5.379795e-002	-1.000116e+000
11262786.000	5.327996e-002	-1.000097e+000
11268780.000	5.275832e-002	-1.000174e+000
11274774.000	5.220896e-002	-1.000221e+000
11280768.000	5.171093e-002	-1.000254e+000
11286762.000	5.120592e-002	-1.000263e+000
11292756.000	5.062063e-002	-1.000315e+000
11298750.000	5.012276e-002	-1.000280e+000
11304744.000	4.956462e-002	-1.000331e+000
11310738.000	4.907978e-002	-1.000404e+000
11316732.000	4.851003e-002	-1.000481e+000
11322726.000	4.798803e-002	-1.000444e+000
11328720.000	4.744656e-002	-1.000475e+000
11334714.000	4.695046e-002	-1.000477e+000
11340708.000	4.643008e-002	-1.000443e+000
11346702.000	4.585788e-002	-1.000504e+000
11352696.000	4.531099e-002	-1.000560e+000
11358690.000	4.480411e-002	-1.000537e+000
11364684.000	4.428030e-002	-1.000557e+000
11370678.000	4.378932e-002	-1.000595e+000
11376672.000	4.321359e-002	-1.000624e+000
11382666.000	4.271480e-002	-1.000680e+000
11388660.000	4.222823e-002	-1.000739e+000
11394654.000	4.161941e-002	-1.000751e+000
11400648.000	4.112001e-002	-1.000789e+000
11406642.000	4.060152e-002	-1.000832e+000
11412636.000	4.011825e-002	-1.000841e+000
11418630.000	3.961116e-002	-1.000828e+000
11424624.000	3.907021e-002	-1.000797e+000
11430618.000	3.852510e-002	-1.000915e+000
11436612.000	3.799775e-002	-1.000871e+000
11442606.000	3.746546e-002	-1.000933e+000
11448600.000	3.695244e-002	-1.000936e+000
11454594.000	3.640391e-002	-1.000931e+000
11460588.000	3.589748e-002	-1.001001e+000
11466582.000	3.540825e-002	-1.001041e+000
11472576.000	3.484169e-002	-1.001017e+000
11478570.000	3.435523e-002	-1.001030e+000
11484564.000	3.385620e-002	-1.001057e+000
11490558.000	3.330899e-002	-1.001109e+000
11496552.000	3.275887e-002	-1.001092e+000
11502546.000	3.228409e-002	-1.001096e+000
11508540.000	3.174806e-002	-1.001103e+000
11514534.000	3.120483e-002	-1.001112e+000
11520528.000	3.065772e-002	-1.001182e+000
11526522.000	3.017289e-002	-1.001159e+000
11532516.000	2.967228e-002	-1.001209e+000
11538510.000	2.910891e-002	-1.001205e+000
11544504.000	2.864251e-002	-1.001259e+000
11550498.000	2.803551e-002	-1.001183e+000
11556492.000	2.756268e-002	-1.001267e+000
11562486.000	2.702604e-002	-1.001225e+000
11568480.000	2.652349e-002	-1.001284e+000
11574474.000	2.599206e-002	-1.001303e+000
11580468.000	2.552228e-002	-1.001350e+000
11586462.000	2.499782e-002	-1.001332e+000
11592456.000	2.448706e-002	-1.001334e+000
11598450.000	2.396803e-002	-1.001335e+000
11604444.000	2.342793e-002	-1.001363e+000
11610438.000	2.292668e-002	-1.001431e+000
11616432.000	2.236293e-002	-1.001405e+000
11622426.000	2.189944e-002	-1.001417e+000
11628420.000	2.134371e-002	-1.001394e+000
11634414.000	2.086595e-002	-1.001355e+000
11640408.000	2.033446e-002	-1.001397e+000
11646402.000	1.986057e-002	-1.001421e+000
11652396.000	1.927611e-002	-1.001401e+000
11658390.000	1.879619e-002	-1.001478e+000
11664384.000	1.829660e-002	-1.001423e+000
11670378.000	1.776949e-002	-1.001485e+000
11676372.000	1.728290e-002	-1.001456e+000
11682366.000	1.674235e-002	-1.001503e+000
11688360.000	1.624950e-002	-1.001488e+000
11694354.000	1.578665e-002	-1.001510e+000
11700348.000	1.521154e-002	-1.001502e+000
11706342.000	1.470954e-002	-1.001520e+000
11712336.000	1.419572e-002	-1.001520e+000
11718330.000	1.369516e-002	-1.001490e+000
11724324.000	1.316981e-002	-1.001487e+000
11730318.000	1.265027e-002	-1.001563e+000
11736312.000	1.217407e-002	-1.001591e+000
11742306.000	1.162850e-002	-1.001589e+000
11748300.000	1.109769e-002	-1.001564e+000
11754294.000	1.063258e-002	-1.001600e+000
11760288.000	1.012674e-002	-1.001595e+000
11766282.000	9.585764e-003	-1.001573e+000
11772276.000	9.070209e-003	-1.001584e+000
11778270.000	8.528080e-003	-1.001608e+000
11784264.000	8.066857e-003	-1.001654e+000
11790258.000	7.530932e-003	-1.001607e+000
11796252.000	7.043128e-003	-1.001628e+000
11802246.000	6.495721e-003	-1.001599e+000
11808240.000	6.039644e-003	-1.001629e+000
11814234.000	5.524495e-003	-1.001648e+000
11820228.000	4.986330e-003	-1.001626e+000
11826222.000	4.517510e-003	-1.001580e+000
11832216.000	4.006769e-003	-1.001596e+000
11838210.000	3.505608e-003	-1.001683e+000
11844204.000	3.013969e-003	-1.001614e+000
11850198.000	2.467830e-003	-1.001613e+000
11856192.000	1.960104e-003	-1.001630e+000
11862186.000	1.435083e-003	-1.001619e+000
11868180.000	9.243745e-004	-1.001598e+000
11874174.000	4.301838e-004	-1.001625e+000
11880168.000	-2.104609e-005	-1.001646e+000
11886162.000	-5.378914e-004	-1.001584e+000
11892156.000	-1.068017e-003	-1.001611e+000
11898150.000	-1.543377e-003	-1.001631e+000
11904144.000	-2.105574e-003	-1.001578e+000
11910138.000	-2.602053e-003	-1.001580e+000
11916132.000	-3.112140e-003	-1.001578e+000
11922126.000	-3.563206e-003	-1.001546e+000
11928120.000	-4.087868e-003	-1.001605e+000
11934114.000	-4.611546e-003	-1.001626e+000
11940108.000	-5.132465e-003	-1.001647e+000
11946102.000	-5.578532e-003	-1.001656e+000
11952096.000	-6.064503e-003	-1.001620e+000
11958090.000	-6.587199e-003	-1.001665e+000
11964084.000	-7.077660e-003	-1.001631e+000
11970078.000	-7.613509e-003	-1.001617e+000
11976072.000	-8.112462e-003	-1.001624e+000
11982066.000	-8.606174e-003	-1.001585e+000
11988060.000	-9.085503e-003	-1.001633e+000
11994054.000	-9.594602e-003	-1.001601e+000
12000048.000	-1.006948e-002	-1.001642e+000
12006042.000	-1.055332e-002	-1.001549e+000
12012036.000	-1.107465e-002	-1.001586e+000
12018030.000	-1.161721e-002	-1.001563e+000
12024024.000	-1.212177e-002	-1.001626e+000
12030018.000	-1.258230e-002	-1.001598e+000
12036012.000	-1.308861e-002	-1.001563e+000
12042006.000	-1.355636e-002	-1.001522e+000
12048000.000	-1.406599e-002	-1.001604e+000
12053994.000	-1.459875e-002	-1.001546e+000
12059988.000	-1.508071e-002	-1.001520e+000
12065982.000	-1.554951e-002	-1.001552e+000
12071976.000	-1.605554e-002	-1.001538e+000
12077970.000	-1.655628e-002	-1.001500e+000
12083964.000	-1.709623e-002	-1.001507e+000
12089958.000	-1.755384e-002	-1.001542e+000
12095952.000	-1.802801e-002	-1.001514e+000
12101946.000	-1.856307e-002	-1.001492e+000
12107940.000	-1.903305e-002	-1.001493e+000
12113934.000	-1.954601e-002	-1.001540e+000
12119928.000	-2.002924e-002	-1.001475e+000
12125922.000	-2.052477e-002	-1.001450e+000
12131916.000	-2.101830e-002	-1.001488e+000
12137910.000	-2.152337e-002	-1.001458e+000
12143904.000	-2.201273e-002	-1.001447e+000
12149898.000	-2.253557e-002	-1.001441e+000
12155892.000	-2.302220e-002	-1.001502e+000
12161886.000	-2.345941e-002	-1.001378e+000
12167880.000	-2.401409e-002	-1.001361e+000
12173874.000	-2.443812e-002	-1.001385e+000
12179868.000	-2.496312e-002	-1.001402e+000
12185862.000	-2.548873e-002	-1.001367e+000
12191856.000	-2.594617e-002	-1.001341e+000
12197850.000	-2.642811e-002	-1.001392e+000
12203844.000	-2.697677e-002	-1.001345e+000
12209838.000	-2.742929e-002	-1.001326e+000
12215832.000	-2.792488e-002	-1.001284e+000
12221826.000	-2.841372e-002	-1.001319e+000
12227820.000	-2.888785e-002	-1.001260e+000
12233814.000	-2.939510e-002	-1.001239e+000
12239808.000	-2.986800e-002	-1.001247e+000
12245802.000	-3.036511e-002	-1.001231e+000
12251796.000	-3.089134e-002	-1.001231e+000
12257790.000	-3.133988e-002	-1.001207e+000
12263784.000	-3.178786e-002	-1.001200e+000
12269778.000	-3.234024e-002	-1.001155e+000
12275772.000	-3.280030e-002	-1.001163e+000
12281766.000	-3.327156e-002	-1.001204e+000
12287760.000	-3.378089e-002	-1.001119e+000
12293754.000	-3.430583e-002	-1.001161e+000
12299748.000	-3.474417e-002	-1.001083e+000
12305742.000	-3.522109e-002	-1.001107e+000
12311736.000	-3.572668e-002	-1.001051e+000
12317730.000	-3.624329e-002	-1.001091e+000
12323724.000	-3.672007e-002	-1.001044e+000
12329718.000	-3.718559e-002	-1.001036e+000
12335712.000	-3.766848e-002	-1.001025e+000
12341706.000	-3.817657e-002	-1.000964e+000
12347700.000	-3.866760e-002	-1.000990e+000
12353694.000	-3.918386e-002	-1.000941e+000
12359688.000	-3.964411e-002	-1.000920e+000
12365682.000	-4.011433e-002	-1.000894e+000
12371676.000	-4.059870e-002	-1.000834e+000
12377670.000	-4.106783e-002	-1.000842e+000
12383664.000	-4.156077e-002	-1.000814e+000
12389658.000	-4.205585e-002	-1.000820e+000
12395652.000	-4.258601e-002	-1.000858e+000
12401646.000	-4.297788e-002	-1.000777e+000
12407640.000	-4.349158e-002	-1.000748e+000
12413634.000	-4.396137e-002	-1.000760e+000
12419628.000	-4.441514e-002	-1.000751e+000
12425622.000	-4.490942e-002	-1.000713e+000
12431616.000	-4.539918e-002	-1.000703e+000
12437610.000	-4.588780e-002	-1.000652e+000
12443604.000	-4.634221e-002	-1.000658e+000
12449598.000	-4.682014e-002	-1.000597e+000
12455592.000	-4.734600e-002	-1.000549e+000
12461586.000	-4.775958e-002	-1.000569e+000
12467580.000	-4.829765e-002	-1.000526e+000
12473574.000	-4.874038e-002	-1.000503e+000
12479568.000	-4.924768e-002	-1.000494e+000
12485562.000	-4.970998e-002	-1.000446e+000
12491556.000	-5.020670e-002	-1.000421e+000
12497550.000	-5.070886e-002	-1.000439e+000
12503544.000	-5.117141e-002	-1.000411e+000
12509538.000	-5.163179e-002	-1.000412e+000
12515532.000	-5.206841e-002	-1.000322e+000
12521526.000	-5.260208e-002	-1.000342e+000
12527520.000	-5.308574e-002	-1.000283e+000
12533514.000	-5.356137e-002	-1.000242e+000
12539508.000	-5.403732e-002	-1.000243e+000
12545502.000	-5.450102e-002	-1.000192e+000
12551496.000	-5.495753e-002	-1.000159e+000
12557490.000	-5.542721e-002	-1.000151e+000
12563484.000	-5.597196e-002	-1.000121e+000
12569478.000	-5.639726e-002	-1.000117e+000
12575472.000	-5.688009e-002	-1.000077e+000
12581466.000	-5.735703e-002	-1.000072e+000
12587460.000	-5.782383e-002	-1.000032e+000
12593454.000	-5.832034e-002	-9.999254e-001
12599448.000	-5.878037e-002	-9.999416e-001
12605442.000	-5.924334e-002	-9.999531e-001
12611436.000	-5.973390e-002	-9.999207e-001
12617430.000	-6.016857e-002	-9.998818e-001
12623424.000	-6.066724e-002	-9.997980e-001
12629418.000	-6.114793e-002	-9.998223e-001
12635412.000	-6.165089e-002	-9.998281e-001
12641406.000	-6.210513e-002	-9.997892e-001
12647400.000	-6.255746e-002	-9.997602e-001
12653394.000	-6.302530e-002	-9.997057e-001
12659388.000	-6.350415e-002	-9.997042e-001
12665382.000	-6.399750e-002	-9.996569e-001
12671376.000	-6.448937e-002	-9.995772e-001
12677370.000	-6.494892e-002	-9.995308e-001
12683364.000	-6.542601e-002	-9.995083e-001
12689358.000	-6.584244e-002	-9.995302e-001
12695352.000	-6.633234e-002	-9.994748e-001
12701346.000	-6.673334e-002	-9.994720e-001
12707340.000	-6.727808e-002	-9.993736e-001
12713334.000	-6.773867e-002	-9.993525e-001
12719328.000	-6.824102e-002	-9.993287e-001
12725322.000	-6.867382e-002	-9.992941e-001
12731316.000	-6.913238e-002	-9.992909e-001
12737310.000	-6.962237e-002	-9.992347e-001
12743304.000	-7.008209e-002	-9.992053e-001
12749298.000	-7.063276e-002	-9.992165e-001
12755292.000	-7.104690e-002	-9.991593e-001
12761286.000	-7.148080e-002	-9.991813e-001
12767280.000	-7.194856e-002	-9.991219e-001
12773274.000	-7.240106e-002	-9.990608e-001
12779268.000	-7.290813e-002	-9.990132e-001
12785262.000	-7.336268e-002	-9.989459e-001
12791256.000	-7.384053e-002	-9.989510e-001
12797250.000	-7.430017e-002	-9.989357e-001
12803244.000	-7.472990e-002	-9.988861e-001
12809238.000	-7.518654e-002	-9.988269e-001
12815232.000	-7.563684e-002	-9.987865e-001
12821226.000	-7.607959e-002	-9.987791e-001
12827220.000	-7.656050e-002	-9.987355e-001
12833214.000	-7.706724e-002	-9.987430e-001
12839208.000	-7.747255e-002	-9.986962e-001
12845202.000	-7.796057e-002	-9.986029e-001
12851196.000	-7.844669e-002	-9.985883e-001
12857190.000	-7.888571e-002	-9.985497e-001
12863184.000	-7.934104e-002	-9.985154e-001
12869178.000	-7.983777e-002	-9.984605e-001
12875172.000	-8.028360e-002	-9.983996e-001
12881166.000	-8.071245e-002	-9.984362e-001
12887160.000	-8.125791e-002	-9.983989e-001
12893154.000	-8.167900e-002	-9.983447e-001
12899148.000	-8.211876e-002	-9.982926e-001
12905142.000	-8.263356e-002	-9.982827e-001
12911136.000	-8.308222e-002	-9.982683e-001
12917130.000	-8.352826e-002	-9.981672e-001
12923124.000	-8.396505e-002	-9.981473e-001
12929118.000	-8.447681e-002	-9.981241e-001
12935112.000	-8.489870e-002	-9.980314e-001
12941106.000	-8.535279e-002	-9.980103e-001
12947100.000	-8.583588e-002	-9.979647e-001
12953094.000	-8.626361e-002	-9.979328e-001
12959088.000	-8.676561e-002	-9.978806e-001
12965082.000	-8.722341e-002	-9.978746e-001
12971076.000	-8.764272e-002	-9.977934e-001
12977070.000	-8.809306e-002	-9.977658e-001
12983064.000	-8.855954e-002	-9.977577e-001
12989058.000	-8.896436e-002	-9.976733e-001
12995052.000	-8.949485e-002	-9.976336e-001
13001046.000	-8.991443e-002	-9.976294e-001
13007040.000	-9.040171e-002	-9.975669e-001
13013034.000	-9.086003e-002	-9.975099e-001
13019028.000	-9.128257e-002	-9.974902e-001
13025022.000	-9.176312e-002	-9.973931e-001
13031016.000	-9.224694e-002	-9.974026e-001
13037010.000	-9.268799e-002	-9.973357e-001
13043004.000	-9.318475e-002	-9.973368e-001
13048998.000	-9.362418e-002	-9.972702e-001
13054992.000	-9.407107e-002	-9.972891e-001
13060986.000	-9.454342e-002	-9.971877e-001
13066980.000	-9.494586e-002	-9.971785e-001
13072974.000	-9.543463e-002	-9.971543e-001
13078968.000	-9.589524e-002	-9.970463e-001
13084962.000	-9.636235e-002	-9.970492e-001
13090956.000	-9.682504e-002	-9.970075e-001
13096950.000	-9.720552e-002	-9.969569e-001
13102944.000	-9.769179e-002	-9.968664e-001
13108938.000	-9.815486e-002	-9.968779e-001
13114932.000	-9.859493e-002	-9.967566e-001
13120926.000	-9.904523e-002	-9.967544e-001
13126920.000	-9.947155e-002	-9.967043e-001
13132914.000	-9.990349e-002	-9.966518e-001
13138908.000	-1.004099e-001	-9.966544e-001
13144902.000	-1.008525e-001	-9.965485e-001
13150896.000	-1.013186e-001	-9.965219e-001
13156890.000	-1.017476e-001	-9.964434e-001
13162884.000	-1.021832e-001	-9.964523e-001
13168878.000	-1.026778e-001	-9.964301e-001
13174872.000	-1.031174e-001	-9.964097e-001
13180866.000	-1.035362e-001	-9.963048e-001
13186860.000	-1.040235e-001	-9.962342e-001
13192854.000	-1.044637e-001	-9.962211e-001
13198848.000	-1.049373e-001	-9.961865e-001
13204842.000	-1.053980e-001	-9.961057e-001
13210836.000	-1.058307e-001	-9.960574e-001
13216830.000	-1.062475e-001	-9.960608e-001
13222824.000	-1.067384e-001	-9.960181e-001
13228818.000	-1.072029e-001	-9.959438e-001
13234812.000	-1.076191e-001	-9.959122e-001
13240806.000	-1.080220e-001	-9.958487e-001
13246800.000	-1.085242e-001	-9.958042e-001
13252794.000	-1.089728e-001	-9.957360e-001
13258788.000	-1.093838e-001	-9.957166e-001
13264782.000	-1.098553e-001	-9.956300e-001
13270776.000	-1.102438e-001	-9.955777e-001
13276770.000	-1.107225e-001	-9.955155e-001
13282764.000	-1.112187e-001	-9.955138e-001
13288758.000	-1.116462e-001	-9.954058e-001
13294752.000	-1.120636e-001	-9.953954e-001
13300746.000	-1.124947e-001	-9.953424e-001
13306740.000	-1.129467e-001	-9.952836e-001
13312734.000	-1.134095e-001	-9.952756e-001
13318728.000	-1.138043e-001	-9.952439e-001
13324722.000	-1.143121e-001	-9.951600e-001
13330716.000	-1.147519e-001	-9.951149e-001
13336710.000	-1.151988e-001	-9.950497e-001
13342704.000	-1.156298e-001	-9.949804e-001
13348698.000	-1.160705e-001	-9.949608e-001
13354692.000	-1.165242e-001	-9.948421e-001
13360686.000	-1.169455e-001	-9.948378e-001
13366680.000	-1.173920e-001	-9.948521e-001
13372674.000	-1.178298e-001	-9.947742e-001
13378668.000	-1.182823e-001	-9.947068e-001
13384662.000	-1.186723e-001	-9.946185e-001
13390656.000	-1.191596e-001	-9.945547e-001
13396650.000	-1.195844e-001	-9.945399e-001
13402644.000	-1.200694e-001	-9.944645e-001
13408638.000	-1.204924e-001	-9.944030e-001
13414632.000	-1.209379e-001	-9.943855e-001
13420626.000	-1.213883e-001	-9.943164e-001
13426620.000	-1.218120e-001	-9.942746e-001
13432614.000	-1.222511e-001	-9.942235e-001
13438608.000	-1.226626e-001	-9.941585e-001
13444602.000	-1.231432e-001	-9.940946e-001
13450596.000	-1.235616e-001	-9.940827e-001
13456590.000	-1.240118e-001	-9.939954e-001
13462584.000	-1.244430e-001	-9.939067e-001
13468578.000	-1.248746e-001	-9.938947e-001
13474572.000	-1.253003e-001	-9.938368e-001
13480566.000	-1.257312e-001	-9.937708e-001
13486560.000	-1.261547e-001	-9.936991e-001
13492554.000	-1.266018e-001	-9.937018e-001
13498548.000	-1.270332e-001	-9.936040e-001
13504542.000	-1.275006e-001	-9.935806e-001
13510536.000	-1.279197e-001	-9.935199e-001
13516530.000	-1.283411e-001	-9.934316e-001
13522524.000	-1.287899e-001	-9.934105e-001
13528518.000	-1.292270e-001	-9.933083e-001
13534512.000	-1.296424e-001	-9.932692e-001
13540506.000	-1.301104e-001	-9.932127e-001
13546500.000	-1.305583e-001	-9.931203e-001
13552494.000	-1.309878e-001	-9.930777e-001
13558488.000	-1.314284e-001	-9.930427e-001
13564482.000	-1.318631e-001	-9.929947e-001
13570476.000	-1.322613e-001	-9.929522e-001
13576470.000	-1.327339e-001	-9.928829e-001
13582464.000	-1.331877e-001	-9.928536e-001
13588458.000	-1.336012e-001	-9.927583e-001
13594452.000	-1.340152e-001	-9.927197e-001
13600446.000	-1.343794e-001	-9.926380e-001
13606440.000	-1.348525e-001	-9.926156e-001
13612434.000	-1.352756e-001	-9.925212e-001
13618428.000	-1.357800e-001	-9.924635e-001
13624422.000	-1.361964e-001	-9.924217e-001
13630416.000	-1.366263e-001	-9.922951e-001
13636410.000	-1.370184e-001	-9.923199e-001
13642404.000	-1.374665e-001	-9.922315e-001
13648398.000	-1.378729e-001	-9.921949e-001
13654392.000	-1.383380e-001	-9.921529e-001
13660386.000	-1.387873e-001	-9.920385e-001
13666380.000	-1.392191e-001	-9.919774e-001
13672374.000	-1.396022e-001	-9.919617e-001
13678368.000	-1.400623e-001	-9.918574e-001
13684362.000	-1.404437e-001	-9.918552e-001
13690356.000	-1.409570e-001	-9.917801e-001
13696350.000	-1.412984e-001	-9.917128e-001
13702344.000	-1.418414e-001	-9.916719e-001
13708338.000	-1.421891e-001	-9.916154e-001
13714332.000	-1.426268e-001	-9.915114e-001
13720326.000	-1.430668e-001	-9.914452e-001
13726320.000	-1.434795e-001	-9.913641e-001
13732314.000	-1.439501e-001	-9.913286e-001
13738308.000	-1.443085e-001	-9.912185e-001
13744302.000	-1.447383e-001	-9.911536e-001
13750296.000	-1.452377e-001	-9.911722e-001
13756290.000	-1.456213e-001	-9.910996e-001
13762284.000	-1.460359e-001	-9.910474e-001
13768278.000	-1.464621e-001	-9.909888e-001
13774272.000	-1.469469e-001	-9.909279e-001
13780266.000	-1.473307e-001	-9.908651e-001
13786260.000	-1.477488e-001	-9.907774e-001
13792254.000	-1.481998e-001	-9.907103e-001
13798248.000	-1.486186e-001	-9.906497e-001
13804242.000	-1.490132e-001	-9.906186e-001
13810236.000	-1.494615e-001	-9.904736e-001
13816230.000	-1.498652e-001	-9.904568e-001
13822224.000	-1.503280e-001	-9.903845e-001
13828218.000	-1.507279e-001	-9.903741e-001
13834212.000	-1.510967e-001	-9.903243e-001
13840206.000	-1.515664e-001	-9.902303e-001
13846200.000	-1.520113e-001	-9.901233e-001
13852194.000	-1.524285e-001	-9.900329e-001
13858188.000	-1.527928e-001	-9.900084e-001
13864182.000	-1.532588e-001	-9.899349e-001
13870176.000	-1.536708e-001	-9.898600e-001
13876170.000	-1.540904e-001	-9.897619e-001
13882164.000	-1.544963e-001	-9.896760e-001
13888158.000	-1.549132e-001	-9.896342e-001
13894152.000	-1.553294e-001	-9.895811e-001
13900146.000	-1.557442e-001	-9.895686e-001
13906140.000	-1.561510e-001	-9.895451e-001
13912134.000	-1.566159e-001	-9.893582e-001
13918128.000	-1.570488e-001	-9.893452e-001
13924122.000	-1.574637e-001	-9.892075e-001
13930116.000	-1.578433e-001	-9.891517e-001
13936110.000	-1.582846e-001	-9.892077e-001
13942104.000	-1.586709e-001	-9.890896e-001
13948098.000	-1.591460e-001	-9.889515e-001
13954092.000	-1.595314e-001	-9.889583e-001
13960086.000	-1.599765e-001	-9.888978e-001
13966080.000	-1.603774e-001	-9.888316e-001
13972074.000	-1.608352e-001	-9.887584e-001
13978068.000	-1.612061e-001	-9.886683e-001
13984062.000	-1.616217e-001	-9.886135e-001
13990056.000	-1.620459e-001	-9.885063e-001
13996050.000	-1.624820e-001	-9.884508e-001
14002044.000	-1.628772e-001	-9.884108e-001
14008038.000	-1.632607e-001	-9.883970e-001
14014032.000	-1.637137e-001	-9.883039e-001
14020026.000	-1.641558e-001	-9.881950e-001
14026020.000	-1.645120e-001	-9.881269e-001
14032014.000	-1.650157e-001	-9.880550e-001
14038008.000	-1.653928e-001	-9.879825e-001
14044002.000	-1.657349e-001	-9.879129e-001
14049996.000	-1.662132e-001	-9.878518e-001
14055990.000	-1.666248e-001	-9.878132e-001
14061984.000	-1.670506e-001	-9.877276e-001
14067978.000	-1.674494e-001	-9.875929e-001
14073972.000	-1.678742e-001	-9.875803e-001
14079966.000	-1.682958e-001	-9.874870e-001
14085960.000	-1.686283e-001	-9.873948e-001
14091954.000	-1.690772e-001	-9.873498e-001
14097948.000	-1.694904e-001	-9.872733e-001
14103942.000	-1.699462e-001	-9.871389e-001
14109936.000	-1.703332e-001	-9.871431e-001
14115930.000	-1.707806e-001	-9.870488e-001
14121924.000	-1.711597e-001	-9.870350e-001
14127918.000	-1.715312e-001	-9.869438e-001
14133912.000	-1.719723e-001	-9.868394e-001
14139906.000	-1.723764e-001	-9.868210e-001
14145900.000	-1.728127e-001	-9.866973e-001
14151894.000	-1.732034e-001	-9.865686e-001
14157888.000	-1.735977e-001	-9.865537e-001
14163882.000	-1.740414e-001	-9.864829e-001
14169876.000	-1.744280e-001	-9.863915e-001
14175870.000	-1.749102e-001	-9.863553e-001
14181864.000	-1.752854e-001	-9.862740e-001
14187858.000	-1.757214e-001	-9.862211e-001
14193852.000	-1.761269e-001	-9.861065e-001
14199846.000	-1.764951e-001	-9.860562e-001
14205840.000	-1.769246e-001	-9.859290e-001
14211834.000	-1.773431e-001	-9.859180e-001
14217828.000	-1.777298e-001	-9.858470e-001
14223822.000	-1.781545e-001	-9.857707e-001
14229816.000	-1.785640e-001	-9.857117e-001
14235810.000	-1.789908e-001	-9.856379e-001
14241804.000	-1.793759e-001	-9.855758e-001
14247798.000	-1.797635e-001	-9.854802e-001
14253792.000	-1.801774e-001	-9.854298e-001
14259786.000	-1.805958e-001	-9.853320e-001
14265780.000	-1.810144e-001	-9.852438e-001
14271774.000	-1.813928e-001	-9.852107e-001
14277768.000	-1.818101e-001	-9.851522e-001
14283762.000	-1.822471e-001	-9.850681e-001
14289756.000	-1.825651e-001	-9.849719e-001
14295750.000	-1.830113e-001	-9.848730e-001
14301744.000	-1.835059e-001	-9.848663e-001
14307738.000	-1.839185e-001	-9.847317e-001
14313732.000	-1.843086e-001	-9.846635e-001
14319726.000	-1.847033e-001	-9.845964e-001
14325720.000	-1.851135e-001	-9.845284e-001
14331714.000	-1.855341e-001	-9.844465e-001
14337708.000	-1.858930e-001	-9.843578e-001
14343702.000	-1.863121e-001	-9.843332e-001
14349696.000	-1.867361e-001	-9.842101e-001
14355690.000	-1.871260e-001	-9.841236e-001
14361684.000	-1.875376e-001	-9.840798e-001
14367678.000	-1.879275e-001	-9.840407e-001
14373672.000	-1.883408e-001	-9.839546e-001
14379666.000	-1.887611e-001	-9.838938e-001
14385660.000	-1.891620e-001	-9.837891e-001
14391654.000	-1.895444e-001	-9.837076e-001
14397648.000	-1.899687e-001	-9.835956e-001
14403642.000	-1.903306e-001	-9.835685e-001
14409636.000	-1.907516e-001	-9.834430e-001
14415630.000	-1.911167e-001	-9.834100e-001
14421624.000	-1.915701e-001	-9.833149e-001
14427618.000	-1.919901e-001	-9.832596e-001
14433612.000	-1.923631e-001	-9.831430e-001
14439606.000	-1.927640e-001	-9.830810e-001
14445600.000	-1.931901e-001	-9.830231e-001
14451594.000	-1.935644e-001	-9.829111e-001
14457588.000	-1.939895e-001	-9.828601e-001
14463582.000	-1.944191e-001	-9.828380e-001
14469576.000	-1.947589e-001	-9.826609e-001
14475570.000	-1.951754e-001	-9.826385e-001
14481564.000	-1.955740e-001	-9.825020e-001
14487558.000	-1.959634e-001	-9.824287e-001
14493552.000	-1.963500e-001	-9.823677e-001
14499546.000	-1.967300e-001	-9.823651e-001
14505540.000	-1.971074e-001	-9.822167e-001
14511534.000	-1.975402e-001	-9.821592e-001
14517528.000	-1.979517e-001	-9.820055e-001
14523522.000	-1.983015e-001	-9.819891e-001
14529516.000	-1.988033e-001	-9.819619e-001
14535510.000	-1.991207e-001	-9.817721e-001
14541504.000	-1.995368e-001	-9.817554e-001
14547498.000	-1.999057e-001	-9.816770e-001
14553492.000	-2.003233e-001	-9.815749e-001
14559486.000	-2.007186e-001	-9.814807e-001
14565480.000	-2.010899e-001	-9.813940e-001
14571474.000	-2.014808e-001	-9.812789e-001
14577468.000	-2.018899e-001	-9.812446e-001
14583462.000	-2.023435e-001	-9.811539e-001
14589456.000	-2.026805e-001	-9.810664e-001
14595450.000	-2.030913e-001	-9.809452e-001
14601444.000	-2.034703e-001	-9.808812e-001
14607438.000	-2.038478e-001	-9.808069e-001
14613432.000	-2.042395e-001	-9.806966e-001
14619426.000	-2.046191e-001	-9.807048e-001
14625420.000	-2.050296e-001	-9.805732e-001
14631414.000	-2.054138e-001	-9.804924e-001
14637408.000	-2.058760e-001	-9.804090e-001
14643402.000	-2.062200e-001	-9.803809e-001
14649396.000	-2.066294e-001	-9.802226e-001
14655390.000	-2.070233e-001	-9.802197e-001
14661384.000	-2.074117e-001	-9.800870e-001
14667378.000	-2.077861e-001	-9.800270e-001
14673372.000	-2.081887e-001	-9.798638e-001
14679366.000	-2.085781e-001	-9.798499e-001
14685360.000	-2.089207e-001	-9.797526e-001
14691354.000	-2.092646e-001	-9.796495e-001
14697348.000	-2.097659e-001	-9.795831e-001
14703342.000	-2.101172e-001	-9.794818e-001
14709336.000	-2.104984e-001	-9.794289e-001
14715330.000	-2.108598e-001	-9.793202e-001
14721324.000	-2.112617e-001	-9.792238e-001
14727318.000	-2.116984e-001	-9.791690e-001
14733312.000	-2.120668e-001	-9.791322e-001
14739306.000	-2.124695e-001	-9.789667e-001
14745300.000	-2.128052e-001	-9.788871e-001
14751294.000	-2.132427e-001	-9.787959e-001
14757288.000	-2.136113e-001	-9.786937e-001
14763282.000	-2.139979e-001	-9.786633e-001
14769276.000	-2.144300e-001	-9.785270e-001
14775270.000	-2.147858e-001	-9.784985e-001
14781264.000	-2.151630e-001	-9.784075e-001
14787258.000	-2.155354e-001	-9.783127e-001
14793252.000	-2.159372e-001	-9.782366e-001
14799246.000	-2.163350e-001	-9.781203e-001
14805240.000	-2.166898e-001	-9.780781e-001
14811234.000	-2.170646e-001	-9.779683e-001
14817228.000	-2.174491e-001	-9.778709e-001
14823222.000	-2.178669e-001	-9.777703e-001
14829216.000	-2.182213e-001	-9.776724e-001
14835210.000	-2.186083e-001	-9.775451e-001
14841204.000	-2.190032e-001	-9.774572e-001
14847198.000	-2.193800e-001	-9.773873e-001
14853192.000	-2.197521e-001	-9.773404e-001
14859186.000	-2.201282e-001	-9.772064e-001
14865180.000	-2.205431e-001	-9.771564e-001
14871174.000	-2.208880e-001	-9.770677e-001
14877168.000	-2.212846e-001	-9.769502e-001
14883162.000	-2.216934e-001	-9.768779e-001
14889156.000	-2.220226e-001	-9.767756e-001
14895150.000	-2.224161e-001	-9.767365e-001
14901144.000	-2.228170e-001	-9.766216e-001
14907138.000	-2.231942e-001	-9.765019e-001
14913132.000	-2.235844e-001	-9.764935e-001
14919126.000	-2.240130e-001	-9.764065e-001
14925120.000	-2.243648e-001	-9.763164e-001
14931114.000	-2.247448e-001	-9.762837e-001
14937108.000	-2.250822e-001	-9.760990e-001
14943102.000	-2.254711e-001	-9.760504e-001
14949096.000	-2.258110e-001	-9.759099e-001
14955090.000	-2.262391e-001	-9.758594e-001
14961084.000	-2.266644e-001	-9.757839e-001
14967078.000	-2.270223e-001	-9.757638e-001
14973072.000	-2.274373e-001	-9.756194e-001
14979066.000	-2.277795e-001	-9.755417e-001
14985060.000	-2.282101e-001	-9.754617e-001
14991054.000	-2.285904e-001	-9.753838e-001
14997048.000	-2.289326e-001	-9.752641e-001
15003042.000	-2.293320e-001	-9.751142e-001
15009036.000	-2.296861e-001	-9.751107e-001
15015030.000	-2.300562e-001	-9.750354e-001
15021024.000	-2.304246e-001	-9.749610e-001
15027018.000	-2.308149e-001	-9.748221e-001
15033012.000	-2.312026e-001	-9.747094e-001
15039006.000	-2.315505e-001	-9.747113e-001
15045000.000	-2.319577e-001	-9.745511e-001
15050994.000	-2.323360e-001	-9.744731e-001
15056988.000	-2.327249e-001	-9.743451e-001
15062982.000	-2.330513e-001	-9.742829e-001
15068976.000	-2.334571e-001	-9.741295e-001
15074970.000	-2.338499e-001	-9.741584e-001
15080964.000	-2.341902e-001	-9.740644e-001
15086958.000	-2.345636e-001	-9.739838e-001
15092952.000	-2.349571e-001	-9.739071e-001
15098946.000	-2.353497e-001	-9.738402e-001
15104940.000	-2.357095e-001	-9.736530e-001
15110934.000	-2.360877e-001	-9.736321e-001
15116928.000	-2.364489e-001	-9.734896e-001
15122922.000	-2.368333e-001	-9.734000e-001
15128916.000	-2.372000e-001	-9.733043e-001
15134910.000	-2.375791e-001	-9.732464e-001
15140904.000	-2.379605e-001	-9.731532e-001
15146898.000	-2.382807e-001	-9.729972e-001
15152892.000	-2.386933e-001	-9.730082e-001
15158886.000	-2.390816e-001	-9.728833e-001
15164880.000	-2.394520e-001	-9.728185e-001
15170874.000	-2.398576e-001	-9.726654e-001
15176868.000	-2.402084e-001	-9.726268e-001
15182862.000	-2.405574e-001	-9.724785e-001
15188856.000	-2.409439e-001	-9.723383e-001
15194850.000	-2.413221e-001	-9.723129e-001
15200844.000	-2.416910e-001	-9.722030e-001
15206838.000	-2.420190e-001	-9.721211e-001
15212832.000	-2.424028e-001	-9.720134e-001
15218826.000	-2.427829e-001	-9.719123e-001
15224820.000	-2.431745e-001	-9.718448e-001
15230814.000	-2.435372e-001	-9.717784e-001
15236808.000	-2.439425e-001	-9.716597e-001
15242802.000	-2.442473e-001	-9.715283e-001
15248796.000	-2.446256e-001	-9.714900e-001
15254790.000	-2.449863e-001	-9.713961e-001
15260784.000	-2.453681e-001	-9.713262e-001
15266778.000	-2.457796e-001	-9.712358e-001
15272772.000	-2.461518e-001	-9.711646e-001
15278766.000	-2.464978e-001	-9.710465e-001
15284760.000	-2.468871e-001	-9.709479e-001
15290754.000	-2.472163e-001	-9.708422e-001
15296748.000	-2.476132e-001	-9.707381e-001
15302742.000	-2.479429e-001	-9.706720e-001
15308736.000	-2.483285e-001	-9.706002e-001
15314730.000	-2.486466e-001	-9.704493e-001
15320724.000	-2.490630e-001	-9.704144e-001
15326718.000	-2.493869e-001	-9.702615e-001
15332712.000	-2.498182e-001	-9.702109e-001
15338706.000	-2.501736e-001	-9.701375e-001
15344700.000	-2.505029e-001	-9.700029e-001
15350694.000	-2.508802e-001	-9.698817e-001
15356688.000	-2.512577e-001	-9.697616e-001
15362682.000	-2.515993e-001	-9.696692e-001
15368676.000	-2.520003e-001	-9.696592e-001
15374670.000	-2.523241e-001	-9.695091e-001
15380664.000	-2.526863e-001	-9.694369e-001
15386658.000	-2.530518e-001	-9.693252e-001
15392652.000	-2.534823e-001	-9.692549e-001
15398646.000	-2.538653e-001	-9.691550e-001
15404640.000	-2.542110e-001	-9.690976e-001
15410634.000	-2.545442e-001	-9.689575e-001
15416628.000	-2.549191e-001	-9.688671e-001
15422622.000	-2.552555e-001	-9.687891e-001
15428616.000	-2.556337e-001	-9.686343e-001
15434610.000	-2.560221e-001	-9.685765e-001
15440604.000	-2.564095e-001	-9.684778e-001
15446598.000	-2.567303e-001	-9.683459e-001
15452592.000	-2.571137e-001	-9.682537e-001
15458586.000	-2.574685e-001	-9.681976e-001
15464580.000	-2.578471e-001	-9.680723e-001
15470574.000	-2.581989e-001	-9.679980e-001
15476568.000	-2.585472e-001	-9.679319e-001
15482562.000	-2.589082e-001	-9.677953e-001
15488556.000	-2.592910e-001	-9.677002e-001
15494550.000	-2.596354e-001	-9.675554e-001
15500544.000	-2.599709e-001	-9.675539e-001
15506538.000	-2.603752e-001	-9.673593e-001
15512532.000	-2.607232e-001	-9.673270e-001
15518526.000	-2.610949e-001	-9.672052e-001
15524520.000	-2.614290e-001	-9.670956e-001
15530514.000	-2.617504e-001	-9.670288e-001
15536508.000	-2.621450e-001	-9.669228e-001
15542502.000	-2.625611e-001	-9.668768e-001
15548496.000	-2.628857e-001	-9.667883e-001
15554490.000	-2.632009e-001	-9.666280e-001
15560484.000	-2.636254e-001	-9.665506e-001
15566478.000	-2.639387e-001	-9.664045e-001
15572472.000	-2.642699e-001	-9.663464e-001
15578466.000	-2.646316e-001	-9.662390e-001
15584460.000	-2.650470e-001	-9.661458e-001
15590454.000	-2.653676e-001	-9.661303e-001
15596448.000	-2.657385e-001	-9.659142e-001
15602442.000	-2.661134e-001	-9.658609e-001
15608436.000	-2.664356e-001	-9.658042e-001
15614430.000	-2.667835e-001	-9.656395e-001
15620424.000	-2.671358e-001	-9.655350e-001
15626418.000	-2.675233e-001	-9.654020e-001
15632412.000	-2.678600e-001	-9.653496e-001
15638406.000	-2.682048e-001	-9.652476e-001
15644400.000	-2.685722e-001	-9.651540e-001
15650394.000	-2.689617e-001	-9.650466e-001
15656388.000	-2.693087e-001	-9.649912e-001
15662382.000	-2.696320e-001	-9.648194e-001
15668376.000	-2.699869e-001	-9.647588e-001
15674370.000	-2.703169e-001	-9.646645e-001
15680364.000	-2.707288e-001	-9.645386e-001
15686358.000	-2.710819e-001	-9.644661e-001
15692352.000	-2.713953e-001	-9.643685e-001
15698346.000	-2.717811e-001	-9.642342e-001
15704340.000	-2.720977e-001	-9.641395e-001
15710334.000	-2.724851e-001	-9.640627e-001
15716328.000	-2.728266e-001	-9.640066e-001
15722322.000	-2.731569e-001	-9.638895e-001
15728316.000	-2.735391e-001	-9.637944e-001
15734310.000	-2.739058e-001	-9.636607e-001
15740304.000	-2.742706e-001	-9.635798e-001
15746298.000	-2.745855e-001	-9.635056e-001
15752292.000	-2.749397e-001	-9.633850e-001
15758286.000	-2.752745e-001	-9.632944e-001
15764280.000	-2.756769e-001	-9.631888e-001
15770274.000	-2.759789e-001	-9.630858e-001
15776268.000	-2.763813e-001	-9.629680e-001
15782262.000	-2.767424e-001	-9.628557e-001
15788256.000	-2.770320e-001	-9.627994e-001
15794250.000	-2.773763e-001	-9.627030e-001
15800244.000	-2.777645e-001	-9.625738e-001
15806238.000	-2.781166e-001	-9.624896e-001
15812232.000	-2.784390e-001	-9.623799e-001
15818226.000	-2.788043e-001	-9.623673e-001
15824220.000	-2.791891e-001	-9.622112e-001
15830214.000	-2.795057e-001	-9.620937e-001
15836208.000	-2.798449e-001	-9.619802e-001
15842202.000	-2.802093e-001	-9.618870e-001
15848196.000	-2.805995e-001	-9.617824e-001
15854190.000	-2.809125e-001	-9.616884e-001
15860184.000	-2.812460e-001	-9.615847e-001
15866178.000	-2.815808e-001	-9.614360e-001
15872172.000	-2.819631e-001	-9.613490e-001
15878166.000	-2.822411e-001	-9.612487e-001
15884160.000	-2.825803e-001	-9.611129e-001
15890154.000	-2.829695e-001	-9.609878e-001
15896148.000	-2.833138e-001	-9.608813e-001
15902142.000	-2.836656e-001	-9.608035e-001
15908136.000	-2.840663e-001	-9.607684e-001
15914130.000	-2.843622e-001	-9.606559e-001
15920124.000	-2.846998e-001	-9.605484e-001
15926118.000	-2.850320e-001	-9.604468e-001
15932112.000	-2.853826e-001	-9.602961e-001
15938106.000	-2.857947e-001	-9.602839e-001
15944100.000	-2.861055e-001	-9.601273e-001
15950094.000	-2.864159e-001	-9.599416e-001
15956088.000	-2.867911e-001	-9.598718e-001
15962082.000	-2.870946e-001	-9.598129e-001
15968076.000	-2.874800e-001	-9.597846e-001
15974070.000	-2.878153e-001	-9.596193e-001
15980064.000	-2.881530e-001	-9.595611e-001
15986058.000	-2.884844e-001	-9.594577e-001
15992052.000	-2.888680e-001	-9.592742e-001
15998046.000	-2.892013e-001	-9.592252e-001
16004040.000	-2.895213e-001	-9.590718e-001
16010034.000	-2.898937e-001	-9.589818e-001
16016028.000	-2.902416e-001	-9.589157e-001
16022022.000	-2.905802e-001	-9.588367e-001
16028016.000	-2.908964e-001	-9.586804e-001
16034010.000	-2.912367e-001	-9.585368e-001
16040004.000	-2.916155e-001	-9.584583e-001
16045998.000	-2.919465e-001	-9.582846e-001
16051992.000	-2.922692e-001	-9.582826e-001
16057986.000	-2.926302e-001	-9.581668e-001
16063980.000	-2.930013e-001	-9.580803e-001
16069974.000	-2.933279e-001	-9.579660e-001
16075968.000	-2.936848e-001	-9.579108e-001
16081962.000	-2.940083e-001	-9.577498e-001
16087956.000	-2.943021e-001	-9.576101e-001
16093950.000	-2.946790e-001	-9.575199e-001
16099944.000	-2.949986e-001	-9.574304e-001
16105938.000	-2.953624e-001	-9.573492e-001
16111932.000	-2.956850e-001	-9.571870e-001
16117926.000	-2.960383e-001	-9.570626e-001
16123920.000	-2.964116e-001	-9.570213e-001
16129914.000	-2.966730e-001	-9.569092e-001
16135908.000	-2.970438e-001	-9.567963e-001
16141902.000	-2.973432e-001	-9.567236e-001
16147896.000	-2.977444e-001	-9.565715e-001
16153890.000	-2.980586e-001	-9.564577e-001
16159884.000	-2.983776e-001	-9.563594e-001
16165878.000	-2.987395e-001	-9.562498e-001
16171872.000	-2.990910e-001	-9.561214e-001
16177866.000	-2.994537e-001	-9.559955e-001
16183860.000	-2.997271e-001	-9.558968e-001
16189854.000	-3.000729e-001	-9.557785e-001
16195848.000	-3.003862e-001	-9.557359e-001
16201842.000	-3.007789e-001	-9.556307e-001
16207836.000	-3.011113e-001	-9.555201e-001
16213830.000	-3.014359e-001	-9.554212e-001
16219824.000	-3.017653e-001	-9.552826e-001
16225818.000	-3.021536e-001	-9.552377e-001
16231812.000	-3.024547e-001	-9.551693e-001
16237806.000	-3.027709e-001	-9.550204e-001
16243800.000	-3.031042e-001	-9.549484e-001
16249794.000	-3.034494e-001	-9.547831e-001
16255788.000	-3.037920e-001	-9.546628e-001
16261782.000	-3.041534e-001	-9.545706e-001
16267776.000	-3.044582e-001	-9.544740e-001
16273770.000	-3.047732e-001	-9.543832e-001
16279764.000	-3.051336e-001	-9.542325e-001
16285758.000	-3.054735e-001	-9.542086e-001
16291752.000	-3.057896e-001	-9.540578e-001
16297746.000	-3.061210e-001	-9.539720e-001
16303740.000	-3.064977e-001	-9.538438e-001
16309734.000	-3.067957e-001	-9.537374e-001
16315728.000	-3.071287e-001	-9.536594e-001
16321722.000	-3.074586e-001	-9.535428e-001
16327716.000	-3.078048e-001	-9.534238e-001
16333710.000	-3.081667e-001	-9.533548e-001
16339704.000	-3.084523e-001	-9.532047e-001
16345698.000	-3.087746e-001	-9.530889e-001
16351692.000	-3.091087e-001	-9.529624e-001
16357686.000	-3.094322e-001	-9.528861e-001
16363680.000	-3.097683e-001	-9.527802e-001
16369674.000	-3.101285e-001	-9.526742e-001
16375668.000	-3.104742e-001	-9.525652e-001
16381662.000	-3.107891e-001	-9.524629e-001
16387656.000	-3.111005e-001	-9.523695e-001
16393650.000	-3.114293e-001	-9.522241e-001
16399644.000	-3.117817e-001	-9.521443e-001
16405638.000	-3.120926e-001	-9.520166e-001
16411632.000	-3.124320e-001	-9.518770e-001
16417626.000	-3.127582e-001	-9.518171e-001
16423620.000	-3.130901e-001	-9.516398e-001
16429614.000	-3.133973e-001	-9.515815e-001
16435608.000	-3.137996e-001	-9.515326e-001
16441602.000	-3.140865e-001	-9.513648e-001
16447596.000	-3.143943e-001	-9.512467e-001
16453590.000	-3.147447e-001	-9.511086e-001
16459584.000	-3.151052e-001	-9.510260e-001
16465578.000	-3.153786e-001	-9.508768e-001
16471572.000	-3.157174e-001	-9.508420e-001
16477566.000	-3.160244e-001	-9.507164e-001
16483560.000	-3.163788e-001	-9.506353e-001
16489554.000	-3.166840e-001	-9.505266e-001
16495548.000	-3.170337e-001	-9.504159e-001
16501542.000	-3.173692e-001	-9.502840e-001
16507536.000	-3.176829e-001	-9.501510e-001
16513530.000	-3.179660e-001	-9.500649e-001
16519524.000	-3.183409e-001	-9.499034e-001
16525518.000	-3.186242e-001	-9.498256e-001
16531512.000	-3.190230e-001	-9.497050e-001
16537506.000	-3.192681e-001	-9.495756e-001
16543500.000	-3.195672e-001	-9.495089e-001
16549494.000	-3.199164e-001	-9.493455e-001
16555488.000	-3.202260e-001	-9.492847e-001
16561482.000	-3.206242e-001	-9.491812e-001
16567476.000	-3.209209e-001	-9.490647e-001
16573470.000	-3.212832e-001	-9.489065e-001
16579464.000	-3.215204e-001	-9.487659e-001
16585458.000	-3.219159e-001	-9.487069e-001
16591452.000	-3.221997e-001	-9.486156e-001
16597446.000	-3.225437e-001	-9.484796e-001
16603440.000	-3.228998e-001	-9.484355e-001
16609434.000	-3.232148e-001	-9.483062e-001
16615428.000	-3.235224e-001	-9.481870e-001
16621422.000	-3.238374e-001	-9.480590e-001
16627416.000	-3.242246e-001	-9.480114e-001
16633410.000	-3.245000e-001	-9.478806e-001
16639404.000	-3.247832e-001	-9.477464e-001
16645398.000	-3.251701e-001	-9.477046e-001
16651392.000	-3.254488e-001	-9.475376e-001
16657386.000	-3.258095e-001	-9.474386e-001
16663380.000	-3.261034e-001	-9.472991e-001
16669374.000	-3.264757e-001	-9.471896e-001
16675368.000	-3.267453e-001	-9.470635e-001
16681362.000	-3.270764e-001	-9.470202e-001
16687356.000	-3.273580e-001	-9.469383e-001
16693350.000	-3.277305e-001	-9.467806e-001
16699344.000	-3.280120e-001	-9.466155e-001
16705338.000	-3.283506e-001	-9.465555e-001
16711332.000	-3.287093e-001	-9.464686e-001
16717326.000	-3.290169e-001	-9.463369e-001
16723320.000	-3.292917e-001	-9.462543e-001
16729314.000	-3.296601e-001	-9.461303e-001
16735308.000	-3.299474e-001	-9.459625e-001
16741302.000	-3.302249e-001	-9.458559e-001
16747296.000	-3.305774e-001	-9.457385e-001
16753290.000	-3.308495e-001	-9.455654e-001
16759284.000	-3.312225e-001	-9.455828e-001
16765278.000	-3.315452e-001	-9.454396e-001
16771272.000	-3.318511e-001	-9.453247e-001
16777266.000	-3.321655e-001	-9.451152e-001
16783260.000	-3.324650e-001	-9.450719e-001
16789254.000	-3.328137e-001	-9.449714e-001
16795248.000	-3.330835e-001	-9.448526e-001
16801242.000	-3.334259e-001	-9.447454e-001
16807236.000	-3.337910e-001	-9.446444e-001
16813230.000	-3.340065e-001	-9.444698e-001
16819224.000	-3.343681e-001	-9.443963e-001
16825218.000	-3.347026e-001	-9.442649e-001
16831212.000	-3.349888e-001	-9.441363e-001
16837206.000	-3.353168e-001	-9.440740e-001
16843200.000	-3.355880e-001	-9.438863e-001
16849194.000	-3.359683e-001	-9.438549e-001
16855188.000	-3.362444e-001	-9.437052e-001
16861182.000	-3.365968e-001	-9.436026e-001
16867176.000	-3.368916e-001	-9.435187e-001
16873170.000	-3.372937e-001	-9.434322e-001
16879164.000	-3.375512e-001	-9.433392e-001
16885158.000	-3.378548e-001	-9.431168e-001
16891152.000	-3.381983e-001	-9.430314e-001
16897146.000	-3.384816e-001	-9.429737e-001
16903140.000	-3.388014e-001	-9.428726e-001
16909134.000	-3.391208e-001	-9.427503e-001
16915128.000	-3.394546e-001	-9.426625e-001
16921122.000	-3.397123e-001	-9.425058e-001
16927116.000	-3.400680e-001	-9.424018e-001
16933110.000	-3.403932e-001	-9.422837e-001
16939104.000	-3.406782e-001	-9.421804e-001
16945098.000	-3.409866e-001	-9.420827e-001
16951092.000	-3.413433e-001	-9.419675e-001
16957086.000	-3.415961e-001	-9.418828e-001
16963080.000	-3.419430e-001	-9.417522e-001
16969074.000	-3.422694e-001	-9.415974e-001
16975068.000	-3.425626e-001	-9.414789e-001
16981062.000	-3.428858e-001	-9.414113e-001
16987056.000	-3.431814e-001	-9.412397e-001
16993050.000	-3.435203e-001	-9.411685e-001
16999044.000	-3.438007e-001	-9.410237e-001
17005038.000	-3.441305e-001	-9.408986e-001
17011032.000	-3.444488e-001	-9.408709e-001
17017026.000	-3.446713e-001	-9.406686e-001
17023020.000	-3.450292e-001	-9.405699e-001
17029014.000	-3.453570e-001	-9.404780e-001
17035008.000	-3.456527e-001	-9.403370e-001
17041002.000	-3.459523e-001	-9.402284e-001
17046996.000	-3.462733e-001	-9.401212e-001
17052990.000	-3.465332e-001	-9.399292e-001
17058984.000	-3.468991e-001	-9.398831e-001
17064978.000	-3.472027e-001	-9.397405e-001
17070972.000	-3.474788e-001	-9.396681e-001
17076966.000	-3.478153e-001	-9.395477e-001
17082960.000	-3.481409e-001	-9.394160e-001
17088954.000	-3.483783e-001	-9.392801e-001
17094948.000	-3.487014e-001	-9.391450e-001
17100942.000	-3.490259e-001	-9.390882e-001
17106936.000	-3.493088e-001	-9.389729e-001
17112930.000	-3.496847e-001	-9.388553e-001
17118924.000	-3.499937e-001	-9.387860e-001
17124918.000	-3.502942e-001	-9.386938e-001
17130912.000	-3.505751e-001	-9.385551e-001
17136906.000	-3.509031e-001	-9.384034e-001
17142900.000	-3.511771e-001	-9.382772e-001
17148894.000	-3.515047e-001	-9.381289e-001
17154888.000	-3.517951e-001	-9.380508e-001
17160882.000	-3.521311e-001	-9.379814e-001
17166876.000	-3.524303e-001	-9.378433e-001
17172870.000	-3.527148e-001	-9.377067e-001
17178864.000	-3.530426e-001	-9.375821e-001
17184858.000	-3.533461e-001	-9.374942e-001
17190852.000	-3.536153e-001	-9.373316e-001
17196846.000	-3.539015e-001	-9.371635e-001
17202840.000	-3.542460e-001	-9.371065e-001
17208834.000	-3.545217e-001	-9.370156e-001
17214828.000	-3.548230e-001	-9.368786e-001
17220822.000	-3.551605e-001	-9.368103e-001
17226816.000	-3.554319e-001	-9.366798e-001
17232810.000	-3.557181e-001	-9.365667e-001
17238804.000	-3.560763e-001	-9.364154e-001
17244798.000	-3.563999e-001	-9.363167e-001
17250792.000	-3.566628e-001	-9.361789e-001
17256786.000	-3.569868e-001	-9.360778e-001
17262780.000	-3.572750e-001	-9.359818e-001
17268774.000	-3.575694e-001	-9.358121e-001
17274768.000	-3.579150e-001	-9.357789e-001
17280762.000	-3.582198e-001	-9.356354e-001
17286756.000	-3.584701e-001	-9.355112e-001
17292750.000	-3.588143e-001	-9.353590e-001
17298744.000	-3.591137e-001	-9.352610e-001
17304738.000	-3.593767e-001	-9.351518e-001
17310732.000	-3.596904e-001	-9.350508e-001
17316726.000	-3.599788e-001	-9.349186e-001
17322720.000	-3.603425e-001	-9.348409e-001
17328714.000	-3.605918e-001	-9.346973e-001
17334708.000	-3.608917e-001	-9.346466e-001
17340702.000	-3.612232e-001	-9.345121e-001
17346696.000	-3.614977e-001	-9.343812e-001
17352690.000	-3.617834e-001	-9.342375e-001
17358684.000	-3.621182e-001	-9.341545e-001
17364678.000	-3.624274e-001	-9.340460e-001
17370672.000	-3.627233e-001	-9.339246e-001
17376666.000	-3.630178e-001	-9.338206e-001
17382660.000	-3.633214e-001	-9.336575e-001
17388654.000	-3.636165e-001	-9.335703e-001
17394648.000	-3.638859e-001	-9.334607e-001
17400642.000	-3.641873e-001	-9.333122e-001
17406636.000	-3.645054e-001	-9.332184e-001
17412630.000	-3.648541e-001	-9.330838e-001
17418624.000	-3.651114e-001	-9.329551e-001
17424618.000	-3.654004e-001	-9.328912e-001
17430612.000	-3.657099e-001	-9.328027e-001
17436606.000	-3.660296e-001	-9.326391e-001
17442600.000	-3.662910e-001	-9.325145e-001
17448594.000	-3.665745e-001	-9.324349e-001
17454588.000	-3.669422e-001	-9.322346e-001
17460582.000	-3.671701e-001	-9.321146e-001
17466576.000	-3.675176e-001	-9.321237e-001
17472570.000	-3.677767e-001	-9.318834e-001
17478564.000	-3.680737e-001	-9.318435e-001
17484558.000	-3.683886e-001	-9.316896e-001
17490552.000	-3.687103e-001	-9.315500e-001
17496546.000	-3.690001e-001	-9.314320e-001
17502540.000	-3.692766e-001	-9.313799e-001
17508534.000	-3.695486e-001	-9.312370e-001
17514528.000	-3.698267e-001	-9.311316e-001
17520522.000	-3.701306e-001	-9.310342e-001
17526516.000	-3.704344e-001	-9.308766e-001
17532510.000	-3.707312e-001	-9.307626e-001
17538504.000	-3.710314e-001	-9.306805e-001
17544498.000	-3.712994e-001	-9.305153e-001
17550492.000	-3.716341e-001	-9.304058e-001
17556486.000	-3.719368e-001	-9.303228e-001
17562480.000	-3.721955e-001	-9.301600e-001
17568474.000	-3.724958e-001	-9.300726e-001
17574468.000	-3.727775e-001	-9.299444e-001
17580462.000	-3.731075e-001	-9.298616e-001
17586456.000	-3.734122e-001	-9.296948e-001
17592450.000	-3.736781e-001	-9.296073e-001
17598444.000	-3.739362e-001	-9.294665e-001
17604438.000	-3.742569e-001	-9.293415e-001
17610432.000	-3.745541e-001	-9.291772e-001
17616426.000	-3.748443e-001	-9.290818e-001
17622420.000	-3.751674e-001	-9.290126e-001
17628414.000	-3.754064e-001	-9.289221e-001
17634408.000	-3.757356e-001	-9.287990e-001
17640402.000	-3.760291e-001	-9.286353e-001
17646396.000	-3.763090e-001	-9.285521e-001
17652390.000	-3.766001e-001	-9.283979e-001
17658384.000	-3.769199e-001	-9.282911e-001
17664378.000	-3.771860e-001	-9.282009e-001
17670372.000	-3.774205e-001	-9.280378e-001
17676366.000	-3.777304e-001	-9.279356e-001
17682360.000	-3.780495e-001	-9.278295e-001
17688354.000	-3.783409e-001	-9.277107e-001
17694348.000	-3.786253e-001	-9.275681e-001
17700342.000	-3.789284e-001	-9.274643e-001
17706336.000	-3.792475e-001	-9.273855e-001
17712330.000	-3.795561e-001	-9.271987e-001
17718324.000	-3.798178e-001	-9.271586e-001
17724318.000	-3.800554e-001	-9.269995e-001
17730312.000	-3.804153e-001	-9.268524e-001
17736306.000	-3.806573e-001	-9.267682e-001
17742300.000	-3.809486e-001	-9.266133e-001
17748294.000	-3.812013e-001	-9.264944e-001
17754288.000	-3.815675e-001	-9.263991e-001
17760282.000	-3.818312e-001	-9.262686e-001
17766276.000	-3.821287e-001	-9.261612e-001
17772270.000	-3.823761e-001	-9.260597e-001
17778264.000	-3.826896e-001	-9.259014e-001
17784258.000	-3.830143e-001	-9.257909e-001
17790252.000	-3.832977e-001	-9.257100e-001
17796246.000	-3.835258e-001	-9.255422e-001
17802240.000	-3.838462e-001	-9.254173e-001
17808234.000	-3.841103e-001	-9.253166e-001
17814228.000	-3.843894e-001	-9.252415e-001
17820222.000	-3.846867e-001	-9.250703e-001
17826216.000	-3.850130e-001	-9.249819e-001
17832210.000	-3.852826e-001	-9.248434e-001
17838204.000	-3.855479e-001	-9.247110e-001
17844198.000	-3.858436e-001	-9.245802e-001
17850192.000	-3.861154e-001	-9.244716e-001
17856186.000	-3.863747e-001	-9.243616e-001
17862180.000	-3.866793e-001	-9.242781e-001
17868174.000	-3.869986e-001	-9.241539e-001
17874168.000	-3.872828e-001	-9.240475e-001
17880162.000	-3.875892e-001	-9.239177e-001
17886156.000	-3.878238e-001	-9.237574e-001
17892150.000	-3.881208e-001	-9.236698e-001
17898144.000	-3.884357e-001	-9.235115e-001
17904138.000	-3.887213e-001	-9.233973e-001
17910132.000	-3.889822e-001	-9.232747e-001
17916126.000	-3.892421e-001	-9.231909e-001
17922120.000	-3.895421e-001	-9.230265e-001
17928114.000	-3.897817e-001	-9.228932e-001
17934108.000	-3.900645e-001	-9.227812e-001
17940102.000	-3.904012e-001	-9.226785e-001
17946096.000	-3.906930e-001	-9.225883e-001
17952090.000	-3.909704e-001	-9.224802e-001
17958084.000	-3.912935e-001	-9.223421e-001
17964078.000	-3.915401e-001	-9.222134e-001
17970072.000	-3.918139e-001	-9.220987e-001
17976066.000	-3.921064e-001	-9.219842e-001
17982060.000	-3.924094e-001	-9.219052e-001
17988054.000	-3.926426e-001	-9.216667e-001
17994048.000	-3.929187e-001	-9.216082e-001
18000042.000	-3.932248e-001	-9.214708e-001
18006036.000	-3.935098e-001	-9.214180e-001
18012030.000	-3.937184e-001	-9.212087e-001
18018024.000	-3.940672e-001	-9.211142e-001
18024018.000	-3.943333e-001	-9.210287e-001
18030012.000	-3.946332e-001	-9.209005e-001
18036006.000	-3.948649e-001	-9.207541e-001
18042000.000	-3.951624e-001	-9.206418e-001
18047994.000	-3.954350e-001	-9.204487e-001
18053988.000	-3.957312e-001	-9.204263e-001
18059982.000	-3.959618e-001	-9.202776e-001
18065976.000	-3.962653e-001	-9.201649e-001
18071970.000	-3.966000e-001	-9.200443e-001
18077964.000	-3.968733e-001	-9.199251e-001
18083958.000	-3.971432e-001	-9.198385e-001
18089952.000	-3.974274e-001	-9.197152e-001
18095946.000	-3.977154e-001	-9.196296e-001
18101940.000	-3.979670e-001	-9.194845e-001
18107934.000	-3.982512e-001	-9.194122e-001
18113928.000	-3.984831e-001	-9.192158e-001
18119922.000	-3.988333e-001	-9.191101e-001
18125916.000	-3.991024e-001	-9.189822e-001
18131910.000	-3.993605e-001	-9.188565e-001
18137904.000	-3.996823e-001	-9.187947e-001
18143898.000	-3.998862e-001	-9.185783e-001
18149892.000	-4.001753e-001	-9.184555e-001
18155886.000	-4.004615e-001	-9.183527e-001
18161880.000	-4.007615e-001	-9.182030e-001
18167874.000	-4.010019e-001	-9.180916e-001
18173868.000	-4.013313e-001	-9.180280e-001
18179862.000	-4.015787e-001	-9.179040e-001
18185856.000	-4.018523e-001	-9.177880e-001
18191850.000	-4.021493e-001	-9.176598e-001
18197844.000	-4.024456e-001	-9.175227e-001
18203838.000	-4.026958e-001	-9.174107e-001
18209832.000	-4.029634e-001	-9.172809e-001
18215826.000	-4.032298e-001	-9.171075e-001
18221820.000	-4.035192e-001	-9.169627e-001
18227814.000	-4.037629e-001	-9.168999e-001
18233808.000	-4.040578e-001	-9.167423e-001
18239802.000	-4.043092e-001	-9.166284e-001
18245796.000	-4.045898e-001	-9.165798e-001
18251790.000	-4.048909e-001	-9.164419e-001
18257784.000	-4.051822e-001	-9.162815e-001
18263778.000	-4.054199e-001	-9.161464e-001
18269772.000	-4.057098e-001	-9.160556e-001
18275766.000	-4.059495e-001	-9.158968e-001
18281760.000	-4.062068e-001	-9.158129e-001
18287754.000	-4.065537e-001	-9.156969e-001
18293748.000	-4.067700e-001	-9.155563e-001
18299742.000	-4.071151e-001	-9.154759e-001
18305736.000	-4.073360e-001	-9.153254e-001
18311730.000	-4.076082e-001	-9.151751e-001
18317724.000	-4.078510e-001	-9.150602e-001
18323718.000	-4.081457e-001	-9.149497e-001
18329712.000	-4.084289e-001	-9.148657e-001
18335706.000	-4.086926e-001	-9.147248e-001
18341700.000	-4.089991e-001	-9.145742e-001
18347694.000	-4.092878e-001	-9.145037e-001
18353688.000	-4.095004e-001	-9.143342e-001
18359682.000	-4.097731e-001	-9.141977e-001
18365676.000	-4.100783e-001	-9.140570e-001
18371670.000	-4.103592e-001	-9.139632e-001
18377664.000	-4.105910e-001	-9.138898e-001
18383658.000	-4.108625e-001	-9.137867e-001
18389652.000	-4.111642e-001	-9.136526e-001
18395646.000	-4.114549e-001	-9.135470e-001
18401640.000	-4.116948e-001	-9.133798e-001
18407634.000	-4.119613e-001	-9.132290e-001
18413628.000	-4.122479e-001	-9.131078e-001
18419622.000	-4.124956e-001	-9.130281e-001
18425616.000	-4.127605e-001	-9.128942e-001
18431610.000	-4.130387e-001	-9.127519e-001
18437604.000	-4.132656e-001	-9.125864e-001
18443598.000	-4.135810e-001	-9.124970e-001
18449592.000	-4.138626e-001	-9.124101e-001
18455586.000	-4.140980e-001	-9.122531e-001
18461580.000	-4.143955e-001	-9.121333e-001
18467574.000	-4.146536e-001	-9.120022e-001
18473568.000	-4.149146e-001	-9.118850e-001
18479562.000	-4.152399e-001	-9.117816e-001
18485556.000	-4.154348e-001	-9.115981e-001
18491550.000	-4.156535e-001	-9.114861e-001
18497544.000	-4.159702e-001	-9.113824e-001
18503538.000	-4.162233e-001	-9.112080e-001
18509532.000	-4.164707e-001	-9.111253e-001
18515526.000	-4.167947e-001	-9.110750e-001
18521520.000	-4.170209e-001	-9.108794e-001
18527514.000	-4.173204e-001	-9.107635e-001
18533508.000	-4.175726e-001	-9.106499e-001
18539502.000	-4.178730e-001	-9.105762e-001
18545496.000	-4.181513e-001	-9.103788e-001
18551490.000	-4.183613e-001	-9.103410e-001
18557484.000	-4.186286e-001	-9.102157e-001
18563478.000	-4.189364e-001	-9.100694e-001
18569472.000	-4.191644e-001	-9.099285e-001
18575466.000	-4.194566e-001	-9.097941e-001
18581460.000	-4.197208e-001	-9.096852e-001
18587454.000	-4.199929e-001	-9.095488e-001
18593448.000	-4.202372e-001	-9.094297e-001
18599442.000	-4.204982e-001	-9.093275e-001
18605436.000	-4.207717e-001	-9.091666e-001
18611430.000	-4.210383e-001	-9.090090e-001
18617424.000	-4.212947e-001	-9.088934e-001
18623418.000	-4.216369e-001	-9.088118e-001
18629412.000	-4.218189e-001	-9.087380e-001
18635406.000	-4.220903e-001	-9.085934e-001
18641400.000	-4.223520e-001	-9.084613e-001
18647394.000	-4.226398e-001	-9.083363e-001
18653388.000	-4.229439e-001	-9.082444e-001
18659382.000	-4.231763e-001	-9.080953e-001
18665376.000	-4.234311e-001	-9.079731e-001
18671370.000	-4.236674e-001	-9.078361e-001
18677364.000	-4.239644e-001	-9.077007e-001
18683358.000	-4.242334e-001	-9.076088e-001
18689352.000	-4.244684e-001	-9.074520e-001
18695346.000	-4.247416e-001	-9.073320e-001
18701340.000	-4.250069e-001	-9.071694e-001
18707334.000	-4.252326e-001	-9.070675e-001
18713328.000	-4.255121e-001	-9.069839e-001
18719322.000	-4.257966e-001	-9.068649e-001
18725316.000	-4.260643e-001	-9.067327e-001
18731310.000	-4.263021e-001	-9.066547e-001
18737304.000	-4.265882e-001	-9.064935e-001
18743298.000	-4.268790e-001	-9.063465e-001
18749292.000	-4.270760e-001	-9.063227e-001
18755286.000	-4.273710e-001	-9.061157e-001
18761280.000	-4.276062e-001	-9.059711e-001
18767274.000	-4.278595e-001	-9.058526e-001
18773268.000	-4.281155e-001	-9.057532e-001
18779262.000	-4.284037e-001	-9.055930e-001
18785256.000	-4.286866e-001	-9.055268e-001
18791250.000	-4.289568e-001	-9.054011e-001
18797244.000	-4.291795e-001	-9.052930e-001
18803238.000	-4.294568e-001	-9.051226e-001
18809232.000	-4.297172e-001	-9.049822e-001
18815226.000	-4.299689e-001	-9.048657e-001
18821220.000	-4.302135e-001	-9.047281e-001
18827214.000	-4.305073e-001	-9.046986e-001
18833208.000	-4.307832e-001	-9.045512e-001
18839202.000	-4.310414e-001	-9.043718e-001
18845196.000	-4.312443e-001	-9.042848e-001
18851190.000	-4.315448e-001	-9.041339e-001
18857184.000	-4.317962e-001	-9.040196e-001
18863178.000	-4.320469e-001	-9.038966e-001
18869172.000	-4.323207e-001	-9.037720e-001
18875166.000	-4.325870e-001	-9.036583e-001
18881160.000	-4.328353e-001	-9.035167e-001
18887154.000	-4.330918e-001	-9.033284e-001
18893148.000	-4.333727e-001	-9.033207e-001
18899142.000	-4.335860e-001	-9.031521e-001
18905136.000	-4.338449e-001	-9.030663e-001
18911130.000	-4.341108e-001	-9.028972e-001
18917124.000	-4.343782e-001	-9.028071e-001
18923118.000	-4.346481e-001	-9.026678e-001
18929112.000	-4.348874e-001	-9.025224e-001
18935106.000	-4.351208e-001	-9.024230e-001
18941100.000	-4.353788e-001	-9.022982e-001
18947094.000	-4.356176e-001	-9.021192e-001
18953088.000	-4.358707e-001	-9.019982e-001
18959082.000	-4.361316e-001	-9.018904e-001
18965076.000	-4.363923e-001	-9.017671e-001
18971070.000	-4.366503e-001	-9.016149e-001
18977064.000	-4.369233e-001	-9.014772e-001
18983058.000	-4.371791e-001	-9.013503e-001
18989052.000	-4.374386e-001	-9.013264e-001
18995046.000	-4.376983e-001	-9.011307e-001
19001040.000	-4.378959e-001	-9.010665e-001
19007034.000	-4.382538e-001	-9.009477e-001
19013028.000	-4.384244e-001	-9.007994e-001
19019022.000	-4.387235e-001	-9.007206e-001
19025016.000	-4.389514e-001	-9.005640e-001
19031010.000	-4.391880e-001	-9.004206e-001
19037004.000	-4.394412e-001	-9.002985e-001
19042998.000	-4.397207e-001	-9.001596e-001
19048992.000	-4.400131e-001	-9.000142e-001
19054986.000	-4.401850e-001	-8.999458e-001
19060980.000	-4.404723e-001	-8.997965e-001
19066974.000	-4.406965e-001	-8.996648e-001
19072968.000	-4.409474e-001	-8.995224e-001
19078962.000	-4.412247e-001	-8.994168e-001
19084956.000	-4.414514e-001	-8.992934e-001
19090950.000	-4.417397e-001	-8.991929e-001
19096944.000	-4.419999e-001	-8.990523e-001
19102938.000	-4.421949e-001	-8.988953e-001
19108932.000	-4.425095e-001	-8.987879e-001
19114926.000	-4.427289e-001	-8.986669e-001
19120920.000	-4.429885e-001	-8.985990e-001
19126914.000	-4.431986e-001	-8.983936e-001
19132908.000	-4.434946e-001	-8.982863e-001
19138902.000	-4.437688e-001	-8.982011e-001
19144896.000	-4.439915e-001	-8.980881e-001
19150890.000	-4.442668e-001	-8.979555e-001
19156884.000	-4.444779e-001	-8.978058e-001
19162878.000	-4.447302e-001	-8.976759e-001
19168872.000	-4.450341e-001	-8.975650e-001
19174866.000	-4.452581e-001	-8.974601e-001
19180860.000	-4.455454e-001	-8.973260e-001
19186854.000	-4.457759e-001	-8.972241e-001
19192848.000	-4.460095e-001	-8.970442e-001
19198842.000	-4.462562e-001	-8.969738e-001
19204836.000	-4.465455e-001	-8.968259e-001
19210830.000	-4.467604e-001	-8.967032e-001
19216824.000	-4.470103e-001	-8.965725e-001
19222818.000	-4.472776e-001	-8.964260e-001
19228812.000	-4.474752e-001	-8.962960e-001
19234806.000	-4.477852e-001	-8.961827e-001
19240800.000	-4.479680e-001	-8.960608e-001
19246794.000	-4.482800e-001	-8.959534e-001
19252788.000	-4.485056e-001	-8.958557e-001
19258782.000	-4.487433e-001	-8.957062e-001
19264776.000	-4.489724e-001	-8.955860e-001
19270770.000	-4.492404e-001	-8.954601e-001
19276764.000	-4.494767e-001	-8.953584e-001
19282758.000	-4.497701e-001	-8.952742e-001
19288752.000	-4.500040e-001	-8.951056e-001
19294746.000	-4.502851e-001	-8.949915e-001
19300740.000	-4.504855e-001	-8.948730e-001
19306734.000	-4.507157e-001	-8.947094e-001
19312728.000	-4.509747e-001	-8.945749e-001
19318722.000	-4.512127e-001	-8.944563e-001
19324716.000	-4.514730e-001	-8.943240e-001
19330710.000	-4.517329e-001	-8.942249e-001
19336704.000	-4.519344e-001	-8.940982e-001
19342698.000	-4.521961e-001	-8.939471e-001
19348692.000	-4.524118e-001	-8.938498e-001
19354686.000	-4.526651e-001	-8.937242e-001
19360680.000	-4.529259e-001	-8.936066e-001
19366674.000	-4.531989e-001	-8.935123e-001
19372668.000	-4.534586e-001	-8.933346e-001
19378662.000	-4.537016e-001	-8.932220e-001
19384656.000	-4.539246e-001	-8.931038e-001
19390650.000	-4.541336e-001	-8.929198e-001
19396644.000	-4.543869e-001	-8.929011e-001
19402638.000	-4.546398e-001	-8.927523e-001
19408632.000	-4.549306e-001	-8.926016e-001
19414626.000	-4.551646e-001	-8.925158e-001
19420620.000	-4.554103e-001	-8.923329e-001
19426614.000	-4.556891e-001	-8.922611e-001
19432608.000	-4.558887e-001	-8.921109e-001
19438602.000	-4.561385e-001	-8.919729e-001
19444596.000	-4.563181e-001	-8.918751e-001
19450590.000	-4.566222e-001	-8.917723e-001
19456584.000	-4.568363e-001	-8.915609e-001
19462578.000	-4.570965e-001	-8.914565e-001
19468572.000	-4.573804e-001	-8.913612e-001
19474566.000	-4.575306e-001	-8.911819e-001
19480560.000	-4.578141e-001	-8.910522e-001
19486554.000	-4.581081e-001	-8.909521e-001
19492548.000	-4.583150e-001	-8.908374e-001
19498542.000	-4.585681e-001	-8.907467e-001
19504536.000	-4.587828e-001	-8.906480e-001
19510530.000	-4.590490e-001	-8.904758e-001
19516524.000	-4.592932e-001	-8.903932e-001
19522518.000	-4.595322e-001	-8.901842e-001
19528512.000	-4.597859e-001	-8.901321e-001
19534506.000	-4.600139e-001	-8.899852e-001
19540500.000	-4.602546e-001	-8.898690e-001
19546494.000	-4.605280e-001	-8.897119e-001
19552488.000	-4.607485e-001	-8.896478e-001
19558482.000	-4.609865e-001	-8.895004e-001
19564476.000	-4.612250e-001	-8.893585e-001
19570470.000	-4.614656e-001	-8.892554e-001
19576464.000	-4.617333e-001	-8.891101e-001
19582458.000	-4.619209e-001	-8.890148e-001
19588452.000	-4.621573e-001	-8.888886e-001
19594446.000	-4.624592e-001	-8.887632e-001
19600440.000	-4.626695e-001	-8.886373e-001
19606434.000	-4.629396e-001	-8.884754e-001
19612428.000	-4.631441e-001	-8.883130e-001
19618422.000	-4.633945e-001	-8.882419e-001
19624416.000	-4.636306e-001	-8.880749e-001
19630410.000	-4.638433e-001	-8.879456e-001
19636404.000	-4.641007e-001	-8.878490e-001
19642398.000	-4.643472e-001	-8.877153e-001
19648392.000	-4.645746e-001	-8.875948e-001
19654386.000	-4.648215e-001	-8.874777e-001
19660380.000	-4.650712e-001	-8.873628e-001
19666374.000	-4.652957e-001	-8.872240e-001
19672368.000	-4.655387e-001	-8.870863e-001
19678362.000	-4.657484e-001	-8.869312e-001
19684356.000	-4.660152e-001	-8.868717e-001
19690350.000	-4.662161e-001	-8.867460e-001
19696344.000	-4.664530e-001	-8.865963e-001
19702338.000	-4.667124e-001	-8.864535e-001
19708332.000	-4.669688e-001	-8.863811e-001
19714326.000	-4.672022e-001	-8.861853e-001
19720320.000	-4.674768e-001	-8.860458e-001
19726314.000	-4.676946e-001	-8.859916e-001
19732308.000	-4.679125e-001	-8.858662e-001
19738302.000	-4.681706e-001	-8.857899e-001
19744296.000	-4.684061e-001	-8.856220e-001
19750290.000	-4.686381e-001	-8.855342e-001
19756284.000	-4.688887e-001	-8.853650e-001
19762278.000	-4.691420e-001	-8.852227e-001
19768272.000	-4.693562e-001	-8.851005e-001
19774266.000	-4.695670e-001	-8.849635e-001
19780260.000	-4.698392e-001	-8.847925e-001
19786254.000	-4.700000e-001	-8.847346e-001
19792248.000	-4.702841e-001	-8.845661e-001
19798242.000	-4.704824e-001	-8.844935e-001
19804236.000	-4.707398e-001	-8.843440e-001
19810230.000	-4.710059e-001	-8.842160e-001
19816224.000	-4.712525e-001	-8.840519e-001
19822218.000	-4.714435e-001	-8.839212e-001
19828212.000	-4.716509e-001	-8.838473e-001
19834206.000	-4.719215e-001	-8.837094e-001
19840200.000	-4.721381e-001	-8.835556e-001
19846194.000	-4.723593e-001	-8.834182e-001
19852188.000	-4.726227e-001	-8.832946e-001
19858182.000	-4.728858e-001	-8.831881e-001
19864176.000	-4.730996e-001	-8.830614e-001
19870170.000	-4.733274e-001	-8.829508e-001
19876164.000	-4.735438e-001	-8.828253e-001
19882158.000	-4.737909e-001	-8.827176e-001
19888152.000	-4.740196e-001	-8.825459e-001
19894146.000	-4.742810e-001	-8.824345e-001
19900140.000	-4.745012e-001	-8.823594e-001
19906134.000	-4.747437e-001	-8.822615e-001
19912128.000	-4.748918e-001	-8.820044e-001
19918122.000	-4.752099e-001	-8.819236e-001
19924116.000	-4.754303e-001	-8.818244e-001
19930110.000	-4.756530e-001	-8.817519e-001
19936104.000	-4.758949e-001	-8.815607e-001
19942098.000	-4.761103e-001	-8.814963e-001
19948092.000	-4.763758e-001	-8.813442e-001
19954086.000	-4.765903e-001	-8.812172e-001
19960080.000	-4.767593e-001	-8.810687e-001
19966074.000	-4.770040e-001	-8.809585e-001
19972068.000	-4.772210e-001	-8.808293e-001
19978062.000	-4.775024e-001	-8.807476e-001
19984056.000	-4.777870e-001	-8.805565e-001
19990050.000	-4.779588e-001	-8.804469e-001
19996044.000	-4.782120e-001	-8.803479e-001
20002038.000	-4.784744e-001	-8.802120e-001
20008032.000	-4.786769e-001	-8.801142e-001
20014026.000	-4.789367e-001	-8.799700e-001
20020020.000	-4.791424e-001	-8.798286e-001
20026014.000	-4.793709e-001	-8.796788e-001
20032008.000	-4.795850e-001	-8.795137e-001
20038002.000	-4.798567e-001	-8.794603e-001
20043996.000	-4.800252e-001	-8.793575e-001
20049990.000	-4.803178e-001	-8.791979e-001
20055984.000	-4.805290e-001	-8.790836e-001
20061978.000	-4.807390e-001	-8.789240e-001
20067972.000	-4.809568e-001	-8.788016e-001
20073966.000	-4.812065e-001	-8.787198e-001
20079960.000	-4.814275e-001	-8.785387e-001
20085954.000	-4.816772e-001	-8.784576e-001
20091948.000	-4.818728e-001	-8.783129e-001
20097942.000	-4.821308e-001	-8.781675e-001
20103936.000	-4.823839e-001	-8.780406e-001
20109930.000	-4.826095e-001	-8.779901e-001
20115924.000	-4.828052e-001	-8.777960e-001
20121918.000	-4.830104e-001	-8.776347e-001
20127912.000	-4.832534e-001	-8.775195e-001
20133906.000	-4.834721e-001	-8.773765e-001
20139900.000	-4.837091e-001	-8.772910e-001
20145894.000	-4.839287e-001	-8.771331e-001
20151888.000	-4.841653e-001	-8.770609e-001
20157882.000	-4.844247e-001	-8.769266e-001
20163876.000	-4.846501e-001	-8.768141e-001
20169870.000	-4.848447e-001	-8.766670e-001
20175864.000	-4.850540e-001	-8.765017e-001
20181858.000	-4.852801e-001	-8.763934e-001
20187852.000	-4.855198e-001	-8.762804e-001
20193846.000	-4.857055e-001	-8.761314e-001
20199840.000	-4.859959e-001	-8.759742e-001
20205834.000	-4.862048e-001	-8.759434e-001
20211828.000	-4.864562e-001	-8.757249e-001
20217822.000	-4.866365e-001	-8.756707e-001
20223816.000	-4.868716e-001	-8.755147e-001
20229810.000	-4.871353e-001	-8.754575e-001
20235804.000	-4.873265e-001	-8.752545e-001
20241798.000	-4.875397e-001	-8.751309e-001
20247792.000	-4.878099e-001	-8.750091e-001
20253786.000	-4.880015e-001	-8.748933e-001
20259780.000	-4.882172e-001	-8.747897e-001
20265774.000	-4.884611e-001	-8.746723e-001
20271768.000	-4.886939e-001	-8.745548e-001
20277762.000	-4.889154e-001	-8.743992e-001
20283756.000	-4.891845e-001	-8.743363e-001
20289750.000	-4.893648e-001	-8.741199e-001
20295744.000	-4.896152e-001	-8.740254e-001
20301738.000	-4.898204e-001	-8.739396e-001
20307732.000	-4.900595e-001	-8.737671e-001
20313726.000	-4.902583e-001	-8.737014e-001
20319720.000	-4.904679e-001	-8.735490e-001
20325714.000	-4.906827e-001	-8.734496e-001
20331708.000	-4.909323e-001	-8.733265e-001
20337702.000	-4.911666e-001	-8.731824e-001
20343696.000	-4.913549e-001	-8.730632e-001
20349690.000	-4.916414e-001	-8.729781e-001
20355684.000	-4.917883e-001	-8.727654e-001
20361678.000	-4.920333e-001	-8.726683e-001
20367672.000	-4.922704e-001	-8.725464e-001
20373666.000	-4.924683e-001	-8.724017e-001
20379660.000	-4.927199e-001	-8.722880e-001
20385654.000	-4.929182e-001	-8.721743e-001
20391648.000	-4.931160e-001	-8.720142e-001
20397642.000	-4.933561e-001	-8.719007e-001
20403636.000	-4.936300e-001	-8.718181e-001
20409630.000	-4.938060e-001	-8.716304e-001
20415624.000	-4.940950e-001	-8.715800e-001
20421618.000	-4.942785e-001	-8.714451e-001
20427612.000	-4.944237e-001	-8.712957e-001
20433606.000	-4.947272e-001	-8.711892e-001
20439600.000	-4.949107e-001	-8.710363e-001
20445594.000	-4.951731e-001	-8.709197e-001
20451588.000	-4.953464e-001	-8.707904e-001
20457582.000	-4.955810e-001	-8.706149e-001
20463576.000	-4.958034e-001	-8.705082e-001
20469570.000	-4.960528e-001	-8.703767e-001
20475564.000	-4.962600e-001	-8.703058e-001
20481558.000	-4.964995e-001	-8.700952e-001
20487552.000	-4.967248e-001	-8.700140e-001
20493546.000	-4.968980e-001	-8.698837e-001
20499540.000	-4.971409e-001	-8.697816e-001
20505534.000	-4.972812e-001	-8.695700e-001
20511528.000	-4.975684e-001	-8.694314e-001
20517522.000	-4.977881e-001	-8.693542e-001
20523516.000	-4.979677e-001	-8.692450e-001
20529510.000	-4.982323e-001	-8.691434e-001
20535504.000	-4.984311e-001	-8.690422e-001
20541498.000	-4.986655e-001	-8.688628e-001
20547492.000	-4.988572e-001	-8.687726e-001
20553486.000	-4.990814e-001	-8.686382e-001
20559480.000	-4.993214e-001	-8.685062e-001
20565474.000	-4.995139e-001	-8.683572e-001
20571468.000	-4.997610e-001	-8.682775e-001
20577462.000	-4.999820e-001	-8.681063e-001
20583456.000	-5.001665e-001	-8.679891e-001
20589450.000	-5.004131e-001	-8.678959e-001
20595444.000	-5.006295e-001	-8.677443e-001
20601438.000	-5.008324e-001	-8.676753e-001
20607432.000	-5.010849e-001	-8.674932e-001
20613426.000	-5.012514e-001	-8.673313e-001
20619420.000	-5.014995e-001	-8.672107e-001
20625414.000	-5.017213e-001	-8.671203e-001
20631408.000	-5.018894e-001	-8.669785e-001
20637402.000	-5.021354e-001	-8.668648e-001
20643396.000	-5.024004e-001	-8.667863e-001
20649390.000	-5.026136e-001	-8.665976e-001
20655384.000	-5.028188e-001	-8.664887e-001
20661378.000	-5.030086e-001	-8.663546e-001
20667372.000	-5.032107e-001	-8.661821e-001
20673366.000	-5.034815e-001	-8.660827e-001
20679360.000	-5.036181e-001	-8.660066e-001
20685354.000	-5.038867e-001	-8.658097e-001
20691348.000	-5.040829e-001	-8.657146e-001
20697342.000	-5.042862e-001	-8.655544e-001
20703336.000	-5.045480e-001	-8.654772e-001
20709330.000	-5.047565e-001	-8.653369e-001
20715324.000	-5.048758e-001	-8.652223e-001
20721318.000	-5.051429e-001	-8.651112e-001
20727312.000	-5.053818e-001	-8.649596e-001
20733306.000	-5.055957e-001	-8.649052e-001
20739300.000	-5.058141e-001	-8.647019e-001
20745294.000	-5.060397e-001	-8.646195e-001
20751288.000	-5.062527e-001	-8.644890e-001
20757282.000	-5.064678e-001	-8.643105e-001
20763276.000	-5.066361e-001	-8.641574e-001
20769270.000	-5.068709e-001	-8.640791e-001
20775264.000	-5.071008e-001	-8.639550e-001
20781258.000	-5.072897e-001	-8.637826e-001
20787252.000	-5.075189e-001	-8.637221e-001
20793246.000	-5.077224e-001	-8.635531e-001
20799240.000	-5.079272e-001	-8.634314e-001
20805234.000	-5.081549e-001	-8.633357e-001
20811228.000	-5.083634e-001	-8.632095e-001
20817222.000	-5.085612e-001	-8.630504e-001
20823216.000	-5.087953e-001	-8.629312e-001
20829210.000	-5.090071e-001	-8.628244e-001
20835204.000	-5.092275e-001	-8.627159e-001
20841198.000	-5.094022e-001	-8.625436e-001
20847192.000	-5.096459e-001	-8.624455e-001
20853186.000	-5.098484e-001	-8.622110e-001
20859180.000	-5.100518e-001	-8.621593e-001
20865174.000	-5.103177e-001	-8.620385e-001
20871168.000	-5.105331e-001	-8.619458e-001
20877162.000	-5.107081e-001	-8.617952e-001
20883156.000	-5.108957e-001	-8.617000e-001
20889150.000	-5.110994e-001	-8.615533e-001
20895144.000	-5.113378e-001	-8.613742e-001
20901138.000	-5.115687e-001	-8.613167e-001
20907132.000	-5.117829e-001	-8.611512e-001
20913126.000	-5.119905e-001	-8.610412e-001
20919120.000	-5.121747e-001	-8.609537e-001
20925114.000	-5.124440e-001	-8.608084e-001
20931108.000	-5.125959e-001	-8.606889e-001
20937102.000	-5.128064e-001	-8.605664e-001
20943096.000	-5.130248e-001	-8.604371e-001
20949090.000	-5.132105e-001	-8.602442e-001
20955084.000	-5.134392e-001	-8.601939e-001
20961078.000	-5.136391e-001	-8.600399e-001
20967072.000	-5.138741e-001	-8.598916e-001
20973066.000	-5.140905e-001	-8.597841e-001
20979060.000	-5.142834e-001	-8.597608e-001
20985054.000	-5.144960e-001	-8.595231e-001
20991048.000	-5.147109e-001	-8.594357e-001
20997042.000	-5.149358e-001	-8.592976e-001
21003036.000	-5.151249e-001	-8.591283e-001
21009030.000	-5.153164e-001	-8.590366e-001
21015024.000	-5.155778e-001	-8.589264e-001
21021018.000	-5.157423e-001	-8.588276e-001
21027012.000	-5.159772e-001	-8.586240e-001
21033006.000	-5.161928e-001	-8.585625e-001
21039000.000	-5.163877e-001	-8.584189e-001
21044994.000	-5.165850e-001	-8.582904e-001
21050988.000	-5.167894e-001	-8.581378e-001
21056982.000	-5.170143e-001	-8.580648e-001
21062976.000	-5.172091e-001	-8.579371e-001
21068970.000	-5.173827e-001	-8.577569e-001
21074964.000	-5.176419e-001	-8.576759e-001
21080958.000	-5.178860e-001	-8.575749e-001
21086952.000	-5.180231e-001	-8.574128e-001
21092946.000	-5.182705e-001	-8.573323e-001
21098940.000	-5.184129e-001	-8.571439e-001
21104934.000	-5.186598e-001	-8.570115e-001
21110928.000	-5.188303e-001	-8.568636e-001
21116922.000	-5.190413e-001	-8.567800e-001
21122916.000	-5.192789e-001	-8.566724e-001
21128910.000	-5.194783e-001	-8.564840e-001
21134904.000	-5.196979e-001	-8.563667e-001
21140898.000	-5.198868e-001	-8.562645e-001
21146892.000	-5.200827e-001	-8.561482e-001
21152886.000	-5.203015e-001	-8.559722e-001
21158880.000	-5.204828e-001	-8.558505e-001
21164874.000	-5.206529e-001	-8.557816e-001
21170868.000	-5.209833e-001	-8.555742e-001
21176862.000	-5.211476e-001	-8.554713e-001
21182856.000	-5.213743e-001	-8.553618e-001
21188850.000	-5.215399e-001	-8.552610e-001
21194844.000	-5.217708e-001	-8.551483e-001
21200838.000	-5.219356e-001	-8.549764e-001
21206832.000	-5.221663e-001	-8.548777e-001
21212826.000	-5.224051e-001	-8.547579e-001
21218820.000	-5.225371e-001	-8.546307e-001
21224814.000	-5.227956e-001	-8.545643e-001
21230808.000	-5.230389e-001	-8.544359e-001
21236802.000	-5.231940e-001	-8.542235e-001
21242796.000	-5.234224e-001	-8.541460e-001
21248790.000	-5.236277e-001	-8.540046e-001
21254784.000	-5.238279e-001	-8.538902e-001
21260778.000	-5.240140e-001	-8.537741e-001
21266772.000	-5.242217e-001	-8.536407e-001
21272766.000	-5.243994e-001	-8.535165e-001
21278760.000	-5.246550e-001	-8.534012e-001
21284754.000	-5.248384e-001	-8.532451e-001
21290748.000	-5.250129e-001	-8.530918e-001
21296742.000	-5.252320e-001	-8.530178e-001
21302736.000	-5.254273e-001	-8.528816e-001
21308730.000	-5.256533e-001	-8.527704e-001
21314724.000	-5.258149e-001	-8.526411e-001
21320718.000	-5.260101e-001	-8.524939e-001
21326712.000	-5.262378e-001	-8.523415e-001
21332706.000	-5.264442e-001	-8.522051e-001
21338700.000	-5.266711e-001	-8.521028e-001
21344694.000	-5.268774e-001	-8.519905e-001
21350688.000	-5.270543e-001	-8.518364e-001
21356682.000	-5.272401e-001	-8.517243e-001
21362676.000	-5.274621e-001	-8.516461e-001
21368670.000	-5.276201e-001	-8.514800e-001
21374664.000	-5.278482e-001	-8.513853e-001
21380658.000	-5.280094e-001	-8.511985e-001
21386652.000	-5.282699e-001	-8.510933e-001
21392646.000	-5.284741e-001	-8.510438e-001
21398640.000	-5.286665e-001	-8.508541e-001
21404634.000	-5.288772e-001	-8.507274e-001
21410628.000	-5.290716e-001	-8.506240e-001
21416622.000	-5.292771e-001	-8.505158e-001
21422616.000	-5.294822e-001	-8.503565e-001
21428610.000	-5.296753e-001	-8.502254e-001
21434604.000	-5.299145e-001	-8.501313e-001
21440598.000	-5.300655e-001	-8.499620e-001
21446592.000	-5.302761e-001	-8.498358e-001
21452586.000	-5.304971e-001	-8.496845e-001
21458580.000	-5.306359e-001	-8.495804e-001
21464574.000	-5.308795e-001	-8.494311e-001
21470568.000	-5.310568e-001	-8.493410e-001
21476562.000	-5.312408e-001	-8.491935e-001
21482556.000	-5.315039e-001	-8.491182e-001
21488550.000	-5.316622e-001	-8.489598e-001
21494544.000	-5.318373e-001	-8.488423e-001
21500538.000	-5.320560e-001	-8.487148e-001
21506532.000	-5.322739e-001	-8.485745e-001
21512526.000	-5.325117e-001	-8.484633e-001
21518520.000	-5.326577e-001	-8.483236e-001
21524514.000	-5.328924e-001	-8.482171e-001
21530508.000	-5.330470e-001	-8.480578e-001
21536502.000	-5.333069e-001	-8.479552e-001
21542496.000	-5.334751e-001	-8.478946e-001
21548490.000	-5.336300e-001	-8.476738e-001
21554484.000	-5.338701e-001	-8.475901e-001
21560478.000	-5.340557e-001	-8.474542e-001
21566472.000	-5.342909e-001	-8.473090e-001
21572466.000	-5.344696e-001	-8.471767e-001
21578460.000	-5.346577e-001	-8.470934e-001
21584454.000	-5.348406e-001	-8.469852e-001
21590448.000	-5.350455e-001	-8.468433e-001
21596442.000	-5.352398e-001	-8.467427e-001
21602436.000	-5.354678e-001	-8.465837e-001
21608430.000	-5.356441e-001	-8.464947e-001
21614424.000	-5.358147e-001	-8.463889e-001
21620418.000	-5.360450e-001	-8.462317e-001
21626412.000	-5.362399e-001	-8.461535e-001
21632406.000	-5.364551e-001	-8.459840e-001
21638400.000	-5.366513e-001	-8.458532e-001
21644394.000	-5.367981e-001	-8.457303e-001
21650388.000	-5.370487e-001	-8.456113e-001
21656382.000	-5.371915e-001	-8.454473e-001
21662376.000	-5.374136e-001	-8.452818e-001
21668370.000	-5.376172e-001	-8.452507e-001
21674364.000	-5.378096e-001	-8.450869e-001
21680358.000	-5.380231e-001	-8.449252e-001
21686352.000	-5.381934e-001	-8.448409e-001
21692346.000	-5.383920e-001	-8.446995e-001
21698340.000	-5.386249e-001	-8.445886e-001
21704334.000	-5.388097e-001	-8.444505e-001
21710328.000	-5.389782e-001	-8.442938e-001
21716322.000	-5.391721e-001	-8.442374e-001
21722316.000	-5.393377e-001	-8.440290e-001
21728310.000	-5.395539e-001	-8.439117e-001
21734304.000	-5.397984e-001	-8.437566e-001
21740298.000	-5.399406e-001	-8.437273e-001
21746292.000	-5.401808e-001	-8.435816e-001
21752286.000	-5.403468e-001	-8.434123e-001
21758280.000	-5.405576e-001	-8.433260e-001
21764274.000	-5.407495e-001	-8.432492e-001
21770268.000	-5.408867e-001	-8.430916e-001
21776262.000	-5.410923e-001	-8.429076e-001
21782256.000	-5.412941e-001	-8.428095e-001
21788250.000	-5.415613e-001	-8.427115e-001
21794244.000	-5.417254e-001	-8.426347e-001
21800238.000	-5.418825e-001	-8.424508e-001
21806232.000	-5.420334e-001	-8.423092e-001
21812226.000	-5.422920e-001	-8.421778e-001
21818220.000	-5.424285e-001	-8.420351e-001
21824214.000	-5.427071e-001	-8.419573e-001
21830208.000	-5.428814e-001	-8.418236e-001
21836202.000	-5.430248e-001	-8.417001e-001
21842196.000	-5.432280e-001	-8.415772e-001
21848190.000	-5.434743e-001	-8.414842e-001
21854184.000	-5.436754e-001	-8.413262e-001
21860178.000	-5.438283e-001	-8.412010e-001
21866172.000	-5.440346e-001	-8.411253e-001
21872166.000	-5.442181e-001	-8.409091e-001
21878160.000	-5.443978e-001	-8.408239e-001
21884154.000	-5.445686e-001	-8.406507e-001
21890148.000	-5.447761e-001	-8.405890e-001
21896142.000	-5.449870e-001	-8.403996e-001
21902136.000	-5.451694e-001	-8.403369e-001
21908130.000	-5.453475e-001	-8.401443e-001
21914124.000	-5.455871e-001	-8.400693e-001
21920118.000	-5.457420e-001	-8.399675e-001
21926112.000	-5.458654e-001	-8.398084e-001
21932106.000	-5.461497e-001	-8.396875e-001
21938100.000	-5.462921e-001	-8.395668e-001
21944094.000	-5.464777e-001	-8.394140e-001
21950088.000	-5.466801e-001	-8.393252e-001
21956082.000	-5.468912e-001	-8.391655e-001
21962076.000	-5.470928e-001	-8.390356e-001
21968070.000	-5.472756e-001	-8.388637e-001
21974064.000	-5.474935e-001	-8.388327e-001
21980058.000	-5.476662e-001	-8.386739e-001
21986052.000	-5.478569e-001	-8.385621e-001
21992046.000	-5.480166e-001	-8.384380e-001
21998040.000	-5.481982e-001	-8.383049e-001
22004034.000	-5.483952e-001	-8.381912e-001
22010028.000	-5.486008e-001	-8.381027e-001
22016022.000	-5.488017e-001	-8.379133e-001
22022016.000	-5.489529e-001	-8.377897e-001
22028010.000	-5.491703e-001	-8.377433e-001
22034004.000	-5.493859e-001	-8.375748e-001
22039998.000	-5.495321e-001	-8.374831e-001
22045992.000	-5.497144e-001	-8.372943e-001
22051986.000	-5.499541e-001	-8.371872e-001
22057980.000	-5.501742e-001	-8.370968e-001
22063974.000	-5.503346e-001	-8.369755e-001
22069968.000	-5.504905e-001	-8.368462e-001
22075962.000	-5.507325e-001	-8.367398e-001
22081956.000	-5.508897e-001	-8.365806e-001
22087950.000	-5.510914e-001	-8.364352e-001
22093944.000	-5.512778e-001	-8.363771e-001
22099938.000	-5.514362e-001	-8.361977e-001
22105932.000	-5.516327e-001	-8.360857e-001
22111926.000	-5.518356e-001	-8.359576e-001
22117920.000	-5.520094e-001	-8.358329e-001
22123914.000	-5.521769e-001	-8.357181e-001
22129908.000	-5.523809e-001	-8.355884e-001
22135902.000	-5.526270e-001	-8.354855e-001
22141896.000	-5.527417e-001	-8.352744e-001
22147890.000	-5.529342e-001	-8.352209e-001
22153884.000	-5.531553e-001	-8.351040e-001
22159878.000	-5.533291e-001	-8.349662e-001
22165872.000	-5.535145e-001	-8.349061e-001
22171866.000	-5.536790e-001	-8.346850e-001
22177860.000	-5.539184e-001	-8.345755e-001
22183854.000	-5.540603e-001	-8.344505e-001
22189848.000	-5.542562e-001	-8.343432e-001
22195842.000	-5.544586e-001	-8.342348e-001
22201836.000	-5.546218e-001	-8.341002e-001
22207830.000	-5.548405e-001	-8.339615e-001
22213824.000	-5.549773e-001	-8.338302e-001
22219818.000	-5.551949e-001	-8.337242e-001
22225812.000	-5.553868e-001	-8.335650e-001
22231806.000	-5.555159e-001	-8.334636e-001
22237800.000	-5.558076e-001	-8.333872e-001
22243794.000	-5.559477e-001	-8.332268e-001
22249788.000	-5.561424e-001	-8.331207e-001
22255782.000	-5.562963e-001	-8.330179e-001
22261776.000	-5.565276e-001	-8.328199e-001
22267770.000	-5.566591e-001	-8.327613e-001
22273764.000	-5.569095e-001	-8.326052e-001
22279758.000	-5.570792e-001	-8.324299e-001
22285752.000	-5.571975e-001	-8.323686e-001
22291746.000	-5.573870e-001	-8.322176e-001
22297740.000	-5.575898e-001	-8.321040e-001
22303734.000	-5.577733e-001	-8.319711e-001
22309728.000	-5.580093e-001	-8.318706e-001
22315722.000	-5.581548e-001	-8.317231e-001
22321716.000	-5.583256e-001	-8.315723e-001
22327710.000	-5.584864e-001	-8.314711e-001
22333704.000	-5.586783e-001	-8.313442e-001
22339698.000	-5.588802e-001	-8.312204e-001
22345692.000	-5.591187e-001	-8.311311e-001
22351686.000	-5.592526e-001	-8.310086e-001
22357680.000	-5.594129e-001	-8.308656e-001
22363674.000	-5.595822e-001	-8.307065e-001
22369668.000	-5.598259e-001	-8.306343e-001
22375662.000	-5.600024e-001	-8.305007e-001
22381656.000	-5.602024e-001	-8.303406e-001
22387650.000	-5.603823e-001	-8.302638e-001
22393644.000	-5.605425e-001	-8.301211e-001
22399638.000	-5.607390e-001	-8.299804e-001
22405632.000	-5.609148e-001	-8.298665e-001
22411626.000	-5.610697e-001	-8.297620e-001
22417620.000	-5.612645e-001	-8.295820e-001
22423614.000	-5.614522e-001	-8.295269e-001
22429608.000	-5.616123e-001	-8.294108e-001
22435602.000	-5.618512e-001	-8.292395e-001
22441596.000	-5.620161e-001	-8.291509e-001
22447590.000	-5.621743e-001	-8.290454e-001
22453584.000	-5.623348e-001	-8.288417e-001
22459578.000	-5.625572e-001	-8.287768e-001
22465572.000	-5.626851e-001	-8.286070e-001
22471566.000	-5.629032e-001	-8.285076e-001
22477560.000	-5.630931e-001	-8.284090e-001
22483554.000	-5.632560e-001	-8.282844e-001
22489548.000	-5.634763e-001	-8.281458e-001
22495542.000	-5.636208e-001	-8.280034e-001
22501536.000	-5.637948e-001	-8.278530e-001
22507530.000	-5.639743e-001	-8.278096e-001
22513524.000	-5.641982e-001	-8.276634e-001
22519518.000	-5.643477e-001	-8.275103e-001
22525512.000	-5.645332e-001	-8.274140e-001
22531506.000	-5.647431e-001	-8.272557e-001
22537500.000	-5.648702e-001	-8.271193e-001
22543494.000	-5.650619e-001	-8.269880e-001
22549488.000	-5.652535e-001	-8.268534e-001
22555482.000	-5.654195e-001	-8.267793e-001
22561476.000	-5.656277e-001	-8.266800e-001
22567470.000	-5.657775e-001	-8.265115e-001
22573464.000	-5.659471e-001	-8.263758e-001
22579458.000	-5.661096e-001	-8.262416e-001
22585452.000	-5.662845e-001	-8.261725e-001
22591446.000	-5.664834e-001	-8.260043e-001
22597440.000	-5.666856e-001	-8.259098e-001
22603434.000	-5.668434e-001	-8.257869e-001
22609428.000	-5.670021e-001	-8.256305e-001
22615422.000	-5.671993e-001	-8.255180e-001
22621416.000	-5.674109e-001	-8.253961e-001
22627410.000	-5.676119e-001	-8.252609e-001
22633404.000	-5.677781e-001	-8.251904e-001
22639398.000	-5.679983e-001	-8.250386e-001
22645392.000	-5.681454e-001	-8.248851e-001
22651386.000	-5.683340e-001	-8.247546e-001
22657380.000	-5.684287e-001	-8.246487e-001
22663374.000	-5.686463e-001	-8.245153e-001
22669368.000	-5.688184e-001	-8.243935e-001
22675362.000	-5.690112e-001	-8.242672e-001
22681356.000	-5.691804e-001	-8.241570e-001
22687350.000	-5.693512e-001	-8.240073e-001
22693344.000	-5.695720e-001	-8.238886e-001
22699338.000	-5.697124e-001	-8.237791e-001
22705332.000	-5.698903e-001	-8.236650e-001
22711326.000	-5.700992e-001	-8.235537e-001
22717320.000	-5.702515e-001	-8.234073e-001
22723314.000	-5.704516e-001	-8.232632e-001
22729308.000	-5.706323e-001	-8.231974e-001
22735302.000	-5.707246e-001	-8.230744e-001
22741296.000	-5.709371e-001	-8.229375e-001
22747290.000	-5.711274e-001	-8.227957e-001
22753284.000	-5.713026e-001	-8.226799e-001
22759278.000	-5.714696e-001	-8.225792e-001
22765272.000	-5.717146e-001	-8.224017e-001
22771266.000	-5.718462e-001	-8.223215e-001
22777260.000	-5.720014e-001	-8.222098e-001
22783254.000	-5.721717e-001	-8.220788e-001
22789248.000	-5.723472e-001	-8.220101e-001
22795242.000	-5.725419e-001	-8.218072e-001
22801236.000	-5.727098e-001	-8.217021e-001
22807230.000	-5.728676e-001	-8.215459e-001
22813224.000	-5.731002e-001	-8.214744e-001
22819218.000	-5.732709e-001	-8.213417e-001
22825212.000	-5.734307e-001	-8.211927e-001
22831206.000	-5.736129e-001	-8.210456e-001
22837200.000	-5.737620e-001	-8.209451e-001
22843194.000	-5.739308e-001	-8.208219e-001
22849188.000	-5.741679e-001	-8.207458e-001
22855182.000	-5.743169e-001	-8.205976e-001
22861176.000	-5.744765e-001	-8.204927e-001
22867170.000	-5.747016e-001	-8.203802e-001
22873164.000	-5.748539e-001	-8.202036e-001
22879158.000	-5.750577e-001	-8.200655e-001
22885152.000	-5.752075e-001	-8.199492e-001
22891146.000	-5.753555e-001	-8.198542e-001
22897140.000	-5.755294e-001	-8.197288e-001
22903134.000	-5.757228e-001	-8.196600e-001
22909128.000	-5.758934e-001	-8.194975e-001
22915122.000	-5.760571e-001	-8.193628e-001
22921116.000	-5.762535e-001	-8.192197e-001
22927110.000	-5.763741e-001	-8.191181e-001
22933104.000	-5.765897e-001	-8.189057e-001
22939098.000	-5.767834e-001	-8.188104e-001
22945092.000	-5.769491e-001	-8.187443e-001
22951086.000	-5.771238e-001	-8.186144e-001
22957080.000	-5.772752e-001	-8.185333e-001
22963074.000	-5.774633e-001	-8.183891e-001
22969068.000	-5.776518e-001	-8.182396e-001
22975062.000	-5.778067e-001	-8.181483e-001
22981056.000	-5.779549e-001	-8.179988e-001
22987050.000	-5.781521e-001	-8.179289e-001
22993044.000	-5.783289e-001	-8.177800e-001
22999038.000	-5.784823e-001	-8.176947e-001
23005032.000	-5.786784e-001	-8.175066e-001
23011026.000	-5.788382e-001	-8.173576e-001
23017020.000	-5.790526e-001	-8.172290e-001
23023014.000	-5.792151e-001	-8.171080e-001
23029008.000	-5.793555e-001	-8.170363e-001
23035002.000	-5.795479e-001	-8.168826e-001
23040996.000	-5.797062e-001	-8.167165e-001
23046990.000	-5.798939e-001	-8.165908e-001
23052984.000	-5.800229e-001	-8.164337e-001
23058978.000	-5.802120e-001	-8.163585e-001
23064972.000	-5.804394e-001	-8.162655e-001
23070966.000	-5.805733e-001	-8.160894e-001
23076960.000	-5.807025e-001	-8.159822e-001
23082954.000	-5.809173e-001	-8.158765e-001
23088948.000	-5.810678e-001	-8.157436e-001
23094942.000	-5.812471e-001	-8.156751e-001
23100936.000	-5.814029e-001	-8.154653e-001
23106930.000	-5.816114e-001	-8.154104e-001
23112924.000	-5.817798e-001	-8.152532e-001
23118918.000	-5.819627e-001	-8.151152e-001
23124912.000	-5.820859e-001	-8.150432e-001
23130906.000	-5.822936e-001	-8.149387e-001
23136900.000	-5.824342e-001	-8.147567e-001
23142894.000	-5.826616e-001	-8.146183e-001
23148888.000	-5.828179e-001	-8.145426e-001
23154882.000	-5.829290e-001	-8.144086e-001
23160876.000	-5.831386e-001	-8.142683e-001
23166870.000	-5.833131e-001	-8.141673e-001
23172864.000	-5.835187e-001	-8.140684e-001
23178858.000	-5.836562e-001	-8.139670e-001
23184852.000	-5.838128e-001	-8.138067e-001
23190846.000	-5.840004e-001	-8.137436e-001
23196840.000	-5.841240e-001	-8.135372e-001
23202834.000	-5.843394e-001	-8.134760e-001
23208828.000	-5.845260e-001	-8.133657e-001
23214822.000	-5.846485e-001	-8.132011e-001
23220816.000	-5.848475e-001	-8.131018e-001
23226810.000	-5.849919e-001	-8.130099e-001
23232804.000	-5.851796e-001	-8.128290e-001
23238798.000	-5.853754e-001	-8.127195e-001
23244792.000	-5.854919e-001	-8.125867e-001
23250786.000	-5.856929e-001	-8.125204e-001
23256780.000	-5.858779e-001	-8.123661e-001
23262774.000	-5.860325e-001	-8.122145e-001
23268768.000	-5.861875e-001	-8.121051e-001
23274762.000	-5.863518e-001	-8.119275e-001
23280756.000	-5.865010e-001	-8.118174e-001
23286750.000	-5.867273e-001	-8.117795e-001
23292744.000	-5.868891e-001	-8.116610e-001
23298738.000	-5.870195e-001	-8.115351e-001
23304732.000	-5.872356e-001	-8.114273e-001
23310726.000	-5.873680e-001	-8.113147e-001
23316720.000	-5.875036e-001	-8.111262e-001
23322714.000	-5.876961e-001	-8.110183e-001
23328708.000	-5.878825e-001	-8.108872e-001
23334702.000	-5.880368e-001	-8.108060e-001
23340696.000	-5.882152e-001	-8.106826e-001
23346690.000	-5.883569e-001	-8.105411e-001
23352684.000	-5.885031e-001	-8.104039e-001
23358678.000	-5.886797e-001	-8.103073e-001
23364672.000	-5.889020e-001	-8.101532e-001
23370666.000	-5.890160e-001	-8.100427e-001
23376660.000	-5.891666e-001	-8.099331e-001
23382654.000	-5.893864e-001	-8.098389e-001
23388648.000	-5.895029e-001	-8.096569e-001
23394642.000	-5.897091e-001	-8.095449e-001
23400636.000	-5.898771e-001	-8.094109e-001
23406630.000	-5.899975e-001	-8.092740e-001
23412624.000	-5.902201e-001	-8.091531e-001
23418618.000	-5.903367e-001	-8.090798e-001
23424612.000	-5.905887e-001	-8.089253e-001
23430606.000	-5.906797e-001	-8.087810e-001
23436600.000	-5.908867e-001	-8.086905e-001
23442594.000	-5.910263e-001	-8.085508e-001
23448588.000	-5.912163e-001	-8.084407e-001
23454582.000	-5.913233e-001	-8.083202e-001
23460576.000	-5.915270e-001	-8.081826e-001
23466570.000	-5.917049e-001	-8.080499e-001
23472564.000	-5.918631e-001	-8.079892e-001
23478558.000	-5.920635e-001	-8.078209e-001
23484552.000	-5.922217e-001	-8.077184e-001
23490546.000	-5.923996e-001	-8.076493e-001
23496540.000	-5.925120e-001	-8.074960e-001
23502534.000	-5.926761e-001	-8.073533e-001
23508528.000	-5.928151e-001	-8.072854e-001
23514522.000	-5.930327e-001	-8.071176e-001
23520516.000	-5.931487e-001	-8.070118e-001
23526510.000	-5.933510e-001	-8.068619e-001
23532504.000	-5.934889e-001	-8.067387e-001
23538498.000	-5.936895e-001	-8.065638e-001
23544492.000	-5.938452e-001	-8.065002e-001
23550486.000	-5.939750e-001	-8.063868e-001
23556480.000	-5.941659e-001	-8.063075e-001
23562474.000	-5.943238e-001	-8.061201e-001
23568468.000	-5.944810e-001	-8.060414e-001
23574462.000	-5.946739e-001	-8.059652e-001
23580456.000	-5.948224e-001	-8.058308e-001
23586450.000	-5.950000e-001	-8.056138e-001
23592444.000	-5.951954e-001	-8.055977e-001
23598438.000	-5.953470e-001	-8.054140e-001
23604432.000	-5.954639e-001	-8.052996e-001
23610426.000	-5.956158e-001	-8.051968e-001
23616420.000	-5.958088e-001	-8.050936e-001
23622414.000	-5.959594e-001	-8.049652e-001
23628408.000	-5.961060e-001	-8.048370e-001
23634402.000	-5.962872e-001	-8.047070e-001
23640396.000	-5.964648e-001	-8.045684e-001
23646390.000	-5.966109e-001	-8.044966e-001
23652384.000	-5.968152e-001	-8.043315e-001
23658378.000	-5.969905e-001	-8.042371e-001
23664372.000	-5.971166e-001	-8.041183e-001
23670366.000	-5.972794e-001	-8.039488e-001
23676360.000	-5.974030e-001	-8.038491e-001
23682354.000	-5.976266e-001	-8.037634e-001
23688348.000	-5.977974e-001	-8.036667e-001
23694342.000	-5.979111e-001	-8.034952e-001
23700336.000	-5.980856e-001	-8.033671e-001
23706330.000	-5.981976e-001	-8.033083e-001
23712324.000	-5.984457e-001	-8.031716e-001
23718318.000	-5.986042e-001	-8.030088e-001
23724312.000	-5.987324e-001	-8.028939e-001
23730306.000	-5.988615e-001	-8.027752e-001
23736300.000	-5.990638e-001	-8.026272e-001
23742294.000	-5.992641e-001	-8.025558e-001
23748288.000	-5.993606e-001	-8.024001e-001
23754282.000	-5.995343e-001	-8.023220e-001
23760276.000	-5.997342e-001	-8.021684e-001
23766270.000	-5.998659e-001	-8.020982e-001
23772264.000	-6.000294e-001	-8.019480e-001
23778258.000	-6.001970e-001	-8.018601e-001
23784252.000	-6.003988e-001	-8.016853e-001
23790246.000	-6.005209e-001	-8.015606e-001
23796240.000	-6.006184e-001	-8.014435e-001
23802234.000	-6.007883e-001	-8.013433e-001
23808228.000	-6.009754e-001	-8.012391e-001
23814222.000	-6.011213e-001	-8.010636e-001
23820216.000	-6.012542e-001	-8.009583e-001
23826210.000	-6.014946e-001	-8.008453e-001
23832204.000	-6.016061e-001	-8.006924e-001
23838198.000	-6.017615e-001	-8.005988e-001
23844192.000	-6.019528e-001	-8.004755e-001
23850186.000	-6.020907e-001	-8.003772e-001
23856180.000	-6.022560e-001	-8.002489e-001
23862174.000	-6.023974e-001	-8.000740e-001
23868168.000	-6.026072e-001	-7.999684e-001
23874162.000	-6.026844e-001	-7.998922e-001
23880156.000	-6.028888e-001	-7.997474e-001
23886150.000	-6.030628e-001	-7.995990e-001
23892144.000	-6.031904e-001	-7.995026e-001
23898138.000	-6.033321e-001	-7.994003e-001
23904132.000	-6.034841e-001	-7.992835e-001
23910126.000	-6.036887e-001	-7.991297e-001
23916120.000	-6.038401e-001	-7.990220e-001
23922114.000	-6.039495e-001	-7.988874e-001
23928108.000	-6.041767e-001	-7.987944e-001
23934102.000	-6.043126e-001	-7.986373e-001
23940096.000	-6.044997e-001	-7.985440e-001
23946090.000	-6.045992e-001	-7.983832e-001
23952084.000	-6.047705e-001	-7.983194e-001
23958078.000	-6.049823e-001	-7.981629e-001
23964072.000	-6.051100e-001	-7.980782e-001
23970066.000	-6.052820e-001	-7.979277e-001
23976060.000	-6.054703e-001	-7.978517e-001
23982054.000	-6.055923e-001	-7.977396e-001
23988048.000	-6.057302e-001	-7.975877e-001
23994042.000	-6.059090e-001	-7.975043e-001
24000036.000	-6.060571e-001	-7.974234e-001
24006030.000	-6.062386e-001	-7.972487e-001
24012024.000	-6.064402e-001	-7.971641e-001
24018018.000	-6.065683e-001	-7.969739e-001
24024012.000	-6.067124e-001	-7.968688e-001
24030006.000	-6.068623e-001	-7.967261e-001
24036000.000	-6.070320e-001	-7.966488e-001
24041994.000	-6.072147e-001	-7.965583e-001
24047988.000	-6.073121e-001	-7.964123e-001
24053982.000	-6.075150e-001	-7.962959e-001
24059976.000	-6.076315e-001	-7.961805e-001
24065970.000	-6.077819e-001	-7.960677e-001
24071964.000	-6.079893e-001	-7.959294e-001
24077958.000	-6.081165e-001	-7.958508e-001
24083952.000	-6.082647e-001	-7.956641e-001
24089946.000	-6.084421e-001	-7.955782e-001
24095940.000	-6.085556e-001	-7.954102e-001
24101934.000	-6.087463e-001	-7.952929e-001
24107928.000	-6.088653e-001	-7.951770e-001
24113922.000	-6.089921e-001	-7.951031e-001
24119916.000	-6.091834e-001	-7.949331e-001
24125910.000	-6.093781e-001	-7.948192e-001
24131904.000	-6.094866e-001	-7.946978e-001
24137898.000	-6.096496e-001	-7.946042e-001
24143892.000	-6.098119e-001	-7.944722e-001
24149886.000	-6.100075e-001	-7.943552e-001
24155880.000	-6.101130e-001	-7.942270e-001
24161874.000	-6.102952e-001	-7.941092e-001
24167868.000	-6.104408e-001	-7.940190e-001
24173862.000	-6.106185e-001	-7.939281e-001
24179856.000	-6.107738e-001	-7.938088e-001
24185850.000	-6.109205e-001	-7.937348e-001
24191844.000	-6.110517e-001	-7.935218e-001
24197838.000	-6.112415e-001	-7.934304e-001
24203832.000	-6.113822e-001	-7.932890e-001
24209826.000	-6.115433e-001	-7.932411e-001
24215820.000	-6.116584e-001	-7.930648e-001
24221814.000	-6.118287e-001	-7.929801e-001
24227808.000	-6.120273e-001	-7.928475e-001
24233802.000	-6.121556e-001	-7.927043e-001
24239796.000	-6.123233e-001	-7.926049e-001
24245790.000	-6.124239e-001	-7.925334e-001
24251784.000	-6.126330e-001	-7.923363e-001
24257778.000	-6.128402e-001	-7.922105e-001
24263772.000	-6.129022e-001	-7.920891e-001
24269766.000	-6.130756e-001	-7.920108e-001
24275760.000	-6.131666e-001	-7.918712e-001
24281754.000	-6.133970e-001	-7.917672e-001
24287748.000	-6.135197e-001	-7.915978e-001
24293742.000	-6.136924e-001	-7.915050e-001
24299736.000	-6.138343e-001	-7.913594e-001
24305730.000	-6.139712e-001	-7.912767e-001
24311724.000	-6.141144e-001	-7.911174e-001
24317718.000	-6.142815e-001	-7.909807e-001
24323712.000	-6.144792e-001	-7.909214e-001
24329706.000	-6.145612e-001	-7.907996e-001
24335700.000	-6.147772e-001	-7.906894e-001
24341694.000	-6.149183e-001	-7.905512e-001
24347688.000	-6.150918e-001	-7.904048e-001
24353682.000	-6.152184e-001	-7.903755e-001
24359676.000	-6.153949e-001	-7.901771e-001
24365670.000	-6.155102e-001	-7.900700e-001
24371664.000	-6.156715e-001	-7.899731e-001
24377658.000	-6.157915e-001	-7.898337e-001
24383652.000	-6.160038e-001	-7.897275e-001
24389646.000	-6.161145e-001	-7.896222e-001
24395640.000	-6.163584e-001	-7.894759e-001
24401634.000	-6.164246e-001	-7.893506e-001
24407628.000	-6.165946e-001	-7.892400e-001
24413622.000	-6.167334e-001	-7.890804e-001
24419616.000	-6.168285e-001	-7.889986e-001
24425610.000	-6.170369e-001	-7.889307e-001
24431604.000	-6.172006e-001	-7.887817e-001
24437598.000	-6.173416e-001	-7.886996e-001
24443592.000	-6.174635e-001	-7.885346e-001
24449586.000	-6.176117e-001	-7.884723e-001
24455580.000	-6.177356e-001	-7.883403e-001
24461574.000	-6.179581e-001	-7.881983e-001
24467568.000	-6.180944e-001	-7.880942e-001
24473562.000	-6.182223e-001	-7.879274e-001
24479556.000	-6.183921e-001	-7.878436e-001
24485550.000	-6.185153e-001	-7.876993e-001
24491544.000	-6.187302e-001	-7.876016e-001
24497538.000	-6.188662e-001	-7.875167e-001
24503532.000	-6.189801e-001	-7.873960e-001
24509526.000	-6.191565e-001	-7.872239e-001
24515520.000	-6.192471e-001	-7.871238e-001
24521514.000	-6.194558e-001	-7.870442e-001
24527508.000	-6.195746e-001	-7.868698e-001
24533502.000	-6.197421e-001	-7.867684e-001
24539496.000	-6.198943e-001	-7.866777e-001
24545490.000	-6.200642e-001	-7.865719e-001
24551484.000	-6.201954e-001	-7.864072e-001
24557478.000	-6.203128e-001	-7.862842e-001
24563472.000	-6.205196e-001	-7.861623e-001
24569466.000	-6.206601e-001	-7.860582e-001
24575460.000	-6.208146e-001	-7.859391e-001
24581454.000	-6.209228e-001	-7.858152e-001
24587448.000	-6.210865e-001	-7.857158e-001
24593442.000	-6.212665e-001	-7.855994e-001
24599436.000	-6.214041e-001	-7.854191e-001
24605430.000	-6.215316e-001	-7.853677e-001
24611424.000	-6.216841e-001	-7.851904e-001
24617418.000	-6.218461e-001	-7.851115e-001
24623412.000	-6.220248e-001	-7.850336e-001
24629406.000	-6.221637e-001	-7.848888e-001
24635400.000	-6.222776e-001	-7.847549e-001
24641394.000	-6.224153e-001	-7.846639e-001
24647388.000	-6.225740e-001	-7.844726e-001
24653382.000	-6.227164e-001	-7.843452e-001
24659376.000	-6.228707e-001	-7.842725e-001
24665370.000	-6.230181e-001	-7.841248e-001
24671364.000	-6.231655e-001	-7.840737e-001
24677358.000	-6.233452e-001	-7.839590e-001
24683352.000	-6.234361e-001	-7.838003e-001
24689346.000	-6.236042e-001	-7.836917e-001
24695340.000	-6.237925e-001	-7.835467e-001
24701334.000	-6.239557e-001	-7.834668e-001
24707328.000	-6.240632e-001	-7.833801e-001
24713322.000	-6.242027e-001	-7.832145e-001
24719316.000	-6.243463e-001	-7.830302e-001
24725310.000	-6.244924e-001	-7.829967e-001
24731304.000	-6.246409e-001	-7.828360e-001
24737298.000	-6.247699e-001	-7.827421e-001
24743292.000	-6.249024e-001	-7.826145e-001
24749286.000	-6.250426e-001	-7.825425e-001
24755280.000	-6.252318e-001	-7.823440e-001
24761274.000	-6.253506e-001	-7.822786e-001
24767268.000	-6.254777e-001	-7.821621e-001
24773262.000	-6.256538e-001	-7.820487e-001
24779256.000	-6.257700e-001	-7.818830e-001
24785250.000	-6.259414e-001	-7.817767e-001
24791244.000	-6.260935e-001	-7.816902e-001
24797238.000	-6.262670e-001	-7.815875e-001
24803232.000	-6.264227e-001	-7.814883e-001
24809226.000	-6.265536e-001	-7.813962e-001
24815220.000	-6.266852e-001	-7.811684e-001
24821214.000	-6.268476e-001	-7.811074e-001
24827208.000	-6.269955e-001	-7.809647e-001
24833202.000	-6.271265e-001	-7.808415e-001
24839196.000	-6.272724e-001	-7.807306e-001
24845190.000	-6.274459e-001	-7.806162e-001
24851184.000	-6.275822e-001	-7.805163e-001
24857178.000	-6.277429e-001	-7.804053e-001
24863172.000	-6.278710e-001	-7.802975e-001
24869166.000	-6.280741e-001	-7.801641e-001
24875160.000	-6.281438e-001	-7.800609e-001
24881154.000	-6.282442e-001	-7.799764e-001
24887148.000	-6.284408e-001	-7.798093e-001
24893142.000	-6.285799e-001	-7.796650e-001
24899136.000	-6.287107e-001	-7.795806e-001
24905130.000	-6.288670e-001	-7.794163e-001
24911124.000	-6.289997e-001	-7.793263e-001
24917118.000	-6.291048e-001	-7.792359e-001
24923112.000	-6.293316e-001	-7.791183e-001
24929106.000	-6.294655e-001	-7.789412e-001
24935100.000	-6.296235e-001	-7.788848e-001
24941094.000	-6.298199e-001	-7.787437e-001
24947088.000	-6.299689e-001	-7.786832e-001
24953082.000	-6.300457e-001	-7.785247e-001
24959076.000	-6.301723e-001	-7.784049e-001
24965070.000	-6.303462e-001	-7.782758e-001
24971064.000	-6.304958e-001	-7.781403e-001
24977058.000	-6.306302e-001	-7.780299e-001
24983052.000	-6.307659e-001	-7.779417e-001
24989046.000	-6.309455e-001	-7.778191e-001
24995040.000	-6.310700e-001	-7.776947e-001
25001034.000	-6.311590e-001	-7.775952e-001
25007028.000	-6.313244e-001	-7.774519e-001
25013022.000	-6.315278e-001	-7.773274e-001
25019016.000	-6.316629e-001	-7.772914e-001
25025010.000	-6.317734e-001	-7.770993e-001
25031004.000	-6.318397e-001	-7.769585e-001
25036998.000	-6.320394e-001	-7.768709e-001
25042992.000	-6.322085e-001	-7.767992e-001
25048986.000	-6.323770e-001	-7.766944e-001
25054980.000	-6.325033e-001	-7.765532e-001
25060974.000	-6.326564e-001	-7.764091e-001
25066968.000	-6.327350e-001	-7.762583e-001
25072962.000	-6.329072e-001	-7.761865e-001
25078956.000	-6.330141e-001	-7.760761e-001
25084950.000	-6.332153e-001	-7.759700e-001
25090944.000	-6.333506e-001	-7.758435e-001
25096938.000	-6.334639e-001	-7.756732e-001
25102932.000	-6.336619e-001	-7.755963e-001
25108926.000	-6.337844e-001	-7.754889e-001
25114920.000	-6.338872e-001	-7.753940e-001
25120914.000	-6.340083e-001	-7.752503e-001
25126908.000	-6.342079e-001	-7.751386e-001
25132902.000	-6.343787e-001	-7.750652e-001
25138896.000	-6.345207e-001	-7.748933e-001
25144890.000	-6.346275e-001	-7.748017e-001
25150884.000	-6.347559e-001	-7.746763e-001
25156878.000	-6.349210e-001	-7.745608e-001
25162872.000	-6.350253e-001	-7.744410e-001
25168866.000	-6.351554e-001	-7.743284e-001
25174860.000	-6.353183e-001	-7.742131e-001
25180854.000	-6.354852e-001	-7.740228e-001
25186848.000	-6.356079e-001	-7.740137e-001
25192842.000	-6.357081e-001	-7.738854e-001
25198836.000	-6.358998e-001	-7.737374e-001
25204830.000	-6.360402e-001	-7.736578e-001
25210824.000	-6.361491e-001	-7.734907e-001
25216818.000	-6.363034e-001	-7.733770e-001
25222812.000	-6.364433e-001	-7.732402e-001
25228806.000	-6.366123e-001	-7.731608e-001
25234800.000	-6.367357e-001	-7.730491e-001
25240794.000	-6.368544e-001	-7.729346e-001
25246788.000	-6.369657e-001	-7.728192e-001
25252782.000	-6.371735e-001	-7.727015e-001
25258776.000	-6.373265e-001	-7.725964e-001
25264770.000	-6.374443e-001	-7.724968e-001
25270764.000	-6.375658e-001	-7.723758e-001
25276758.000	-6.377345e-001	-7.722579e-001
25282752.000	-6.378938e-001	-7.721230e-001
25288746.000	-6.379808e-001	-7.719955e-001
25294740.000	-6.381623e-001	-7.718895e-001
25300734.000	-6.383005e-001	-7.717899e-001
25306728.000	-6.383983e-001	-7.716365e-001
25312722.000	-6.385477e-001	-7.714980e-001
25318716.000	-6.386677e-001	-7.714099e-001
25324710.000	-6.388235e-001	-7.713214e-001
25330704.000	-6.389591e-001	-7.711705e-001
25336698.000	-6.390967e-001	-7.710386e-001
25342692.000	-6.392736e-001	-7.709749e-001
25348686.000	-6.394270e-001	-7.708447e-001
25354680.000	-6.395184e-001	-7.707494e-001
25360674.000	-6.396293e-001	-7.706155e-001
25366668.000	-6.398172e-001	-7.704534e-001
25372662.000	-6.399331e-001	-7.703819e-001
25378656.000	-6.400751e-001	-7.702893e-001
25384650.000	-6.402401e-001	-7.700978e-001
25390644.000	-6.403496e-001	-7.700227e-001
25396638.000	-6.405031e-001	-7.698989e-001
25402632.000	-6.406678e-001	-7.697641e-001
25408626.000	-6.407552e-001	-7.696788e-001
25414620.000	-6.408643e-001	-7.695681e-001
25420614.000	-6.410426e-001	-7.694255e-001
25426608.000	-6.411770e-001	-7.693491e-001
25432602.000	-6.413381e-001	-7.692157e-001
25438596.000	-6.414839e-001	-7.691406e-001
25444590.000	-6.415811e-001	-7.689516e-001
25450584.000	-6.417617e-001	-7.688806e-001
25456578.000	-6.419018e-001	-7.687296e-001
25462572.000	-6.420377e-001	-7.686555e-001
25468566.000	-6.422006e-001	-7.685221e-001
25474560.000	-6.423335e-001	-7.684448e-001
25480554.000	-6.424711e-001	-7.683166e-001
25486548.000	-6.425675e-001	-7.682566e-001
25492542.000	-6.427211e-001	-7.680910e-001
25498536.000	-6.428405e-001	-7.679867e-001
25504530.000	-6.429927e-001	-7.678047e-001
25510524.000	-6.430791e-001	-7.677664e-001
25516518.000	-6.432643e-001	-7.676319e-001
25522512.000	-6.434254e-001	-7.675562e-001
25528506.000	-6.435299e-001	-7.673938e-001
25534500.000	-6.436751e-001	-7.672779e-001
25540494.000	-6.438367e-001	-7.672037e-001
25546488.000	-6.439237e-001	-7.670738e-001
25552482.000	-6.441043e-001	-7.669153e-001
25558476.000	-6.442485e-001	-7.667969e-001
25564470.000	-6.443756e-001	-7.666914e-001
25570464.000	-6.445006e-001	-7.665622e-001
25576458.000	-6.446235e-001	-7.664531e-001
25582452.000	-6.447427e-001	-7.663350e-001
25588446.000	-6.449161e-001	-7.662454e-001
25594440.000	-6.450661e-001	-7.661230e-001
25600434.000	-6.451462e-001	-7.659870e-001
25606428.000	-6.452628e-001	-7.658457e-001
25612422.000	-6.454048e-001	-7.657491e-001
25618416.000	-6.455477e-001	-7.655657e-001
25624410.000	-6.456486e-001	-7.654812e-001
25630404.000	-6.457884e-001	-7.652962e-001
25636398.000	-6.459348e-001	-7.652475e-001
25642392.000	-6.460786e-001	-7.651282e-001
25648386.000	-6.462468e-001	-7.650069e-001
25654380.000	-6.464003e-001	-7.648946e-001
25660374.000	-6.465356e-001	-7.648055e-001
25666368.000	-6.466321e-001	-7.646408e-001
25672362.000	-6.467674e-001	-7.645169e-001
25678356.000	-6.468974e-001	-7.644611e-001
25684350.000	-6.470347e-001	-7.643418e-001
25690344.000	-6.471681e-001	-7.641988e-001
25696338.000	-6.472931e-001	-7.640986e-001
25702332.000	-6.474458e-001	-7.639715e-001
25708326.000	-6.475949e-001	-7.638652e-001
25714320.000	-6.477369e-001	-7.637897e-001
25720314.000	-6.478527e-001	-7.636890e-001
25726308.000	-6.479648e-001	-7.635864e-001
25732302.000	-6.481244e-001	-7.634039e-001
25738296.000	-6.482261e-001	-7.633155e-001
25744290.000	-6.483747e-001	-7.631961e-001
25750284.000	-6.485286e-001	-7.630941e-001
25756278.000	-6.486241e-001	-7.629483e-001
25762272.000	-6.487633e-001	-7.628595e-001
25768266.000	-6.489517e-001	-7.627263e-001
25774260.000	-6.490551e-001	-7.626181e-001
25780254.000	-6.492198e-001	-7.624898e-001
25786248.000	-6.493190e-001	-7.623870e-001
25792242.000	-6.494423e-001	-7.622501e-001
25798236.000	-6.496073e-001	-7.621451e-001
25804230.000	-6.497176e-001	-7.620261e-001
25810224.000	-6.498247e-001	-7.619237e-001
25816218.000	-6.499685e-001	-7.617890e-001
25822212.000	-6.501405e-001	-7.617294e-001
25828206.000	-6.502572e-001	-7.616090e-001
25834200.000	-6.504679e-001	-7.614909e-001
25840194.000	-6.505705e-001	-7.613918e-001
25846188.000	-6.506524e-001	-7.612334e-001
25852182.000	-6.507743e-001	-7.611296e-001
25858176.000	-6.508864e-001	-7.609677e-001
25864170.000	-6.510786e-001	-7.608961e-001
25870164.000	-6.511658e-001	-7.607823e-001
25876158.000	-6.513153e-001	-7.606560e-001
25882152.000	-6.514549e-001	-7.605330e-001
25888146.000	-6.516013e-001	-7.604596e-001
25894140.000	-6.517217e-001	-7.603505e-001
25900134.000	-6.518533e-001	-7.602639e-001
25906128.000	-6.519724e-001	-7.600824e-001
25912122.000	-6.521438e-001	-7.599945e-001
25918116.000	-6.522570e-001	-7.598994e-001
25924110.000	-6.523570e-001	-7.597565e-001
25930104.000	-6.525312e-001	-7.596151e-001
25936098.000	-6.526815e-001	-7.595181e-001
25942092.000	-6.528141e-001	-7.594251e-001
25948086.000	-6.528804e-001	-7.592778e-001
25954080.000	-6.530140e-001	-7.591715e-001
25960074.000	-6.531572e-001	-7.590581e-001
25966068.000	-6.533008e-001	-7.589247e-001
25972062.000	-6.534010e-001	-7.588575e-001
25978056.000	-6.535191e-001	-7.586641e-001
25984050.000	-6.536891e-001	-7.586211e-001
25990044.000	-6.538298e-001	-7.584751e-001
25996038.000	-6.539202e-001	-7.583794e-001
26002032.000	-6.540474e-001	-7.582337e-001
26008026.000	-6.542133e-001	-7.581758e-001
26014020.000	-6.543593e-001	-7.580608e-001
26020014.000	-6.544627e-001	-7.579509e-001
26026008.000	-6.545726e-001	-7.578244e-001
26032002.000	-6.546949e-001	-7.577222e-001
26037996.000	-6.548982e-001	-7.576405e-001
26043990.000	-6.549465e-001	-7.574498e-001
26049984.000	-6.551052e-001	-7.573743e-001
26055978.000	-6.552954e-001	-7.573025e-001
26061972.000	-6.553959e-001	-7.571699e-001
26067966.000	-6.555423e-001	-7.570429e-001
26073960.000	-6.556702e-001	-7.569469e-001
26079954.000	-6.558095e-001	-7.567943e-001
26085948.000	-6.559262e-001	-7.567045e-001
26091942.000	-6.560788e-001	-7.566159e-001
26097936.000	-6.561995e-001	-7.565379e-001
26103930.000	-6.563219e-001	-7.563516e-001
26109924.000	-6.564402e-001	-7.562294e-001
26115918.000	-6.565450e-001	-7.561314e-001
26121912.000	-6.567384e-001	-7.560432e-001
26127906.000	-6.567981e-001	-7.558805e-001
26133900.000	-6.569665e-001	-7.557647e-001
26139894.000	-6.570850e-001	-7.556493e-001
26145888.000	-6.572436e-001	-7.555827e-001
26151882.000	-6.573773e-001	-7.554640e-001
26157876.000	-6.574742e-001	-7.553979e-001
26163870.000	-6.576050e-001	-7.552765e-001
26169864.000	-6.577265e-001	-7.551120e-001
26175858.000	-6.578632e-001	-7.550386e-001
26181852.000	-6.579889e-001	-7.549329e-001
26187846.000	-6.581659e-001	-7.548305e-001
26193840.000	-6.582385e-001	-7.546978e-001
26199834.000	-6.583797e-001	-7.545611e-001
26205828.000	-6.585418e-001	-7.544151e-001
26211822.000	-6.586408e-001	-7.543032e-001
26217816.000	-6.587380e-001	-7.542458e-001
26223810.000	-6.589038e-001	-7.541295e-001
26229804.000	-6.590342e-001	-7.540037e-001
26235798.000	-6.591462e-001	-7.538844e-001
26241792.000	-6.592704e-001	-7.537475e-001
26247786.000	-6.594042e-001	-7.536394e-001
26253780.000	-6.595618e-001	-7.535178e-001
26259774.000	-6.597002e-001	-7.534183e-001
26265768.000	-6.597791e-001	-7.533272e-001
26271762.000	-6.599206e-001	-7.531932e-001
26277756.000	-6.600535e-001	-7.531207e-001
26283750.000	-6.601956e-001	-7.530047e-001
26289744.000	-6.602897e-001	-7.528633e-001
26295738.000	-6.604293e-001	-7.527349e-001
26301732.000	-6.605932e-001	-7.526205e-001
26307726.000	-6.606950e-001	-7.525140e-001
26313720.000	-6.608285e-001	-7.524121e-001
26319714.000	-6.609301e-001	-7.523246e-001
26325708.000	-6.610608e-001	-7.522305e-001
26331702.000	-6.611399e-001	-7.520592e-001
26337696.000	-6.613400e-001	-7.519887e-001
26343690.000	-6.614514e-001	-7.518072e-001
26349684.000	-6.616008e-001	-7.517302e-001
26355678.000	-6.617614e-001	-7.516363e-001
26361672.000	-6.618031e-001	-7.515318e-001
26367666.000	-6.619298e-001	-7.513687e-001
26373660.000	-6.620537e-001	-7.512585e-001
26379654.000	-6.621870e-001	-7.511624e-001
26385648.000	-6.622654e-001	-7.510225e-001
26391642.000	-6.625096e-001	-7.509103e-001
26397636.000	-6.625852e-001	-7.508375e-001
26403630.000	-6.627298e-001	-7.507288e-001
26409624.000	-6.628780e-001	-7.506599e-001
26415618.000	-6.629943e-001	-7.505264e-001
26421612.000	-6.631401e-001	-7.504013e-001
26427606.000	-6.632242e-001	-7.502896e-001
26433600.000	-6.633782e-001	-7.501861e-001
26439594.000	-6.634886e-001	-7.500387e-001
26445588.000	-6.636749e-001	-7.499658e-001
26451582.000	-6.637183e-001	-7.498751e-001
26457576.000	-6.638858e-001	-7.497141e-001
26463570.000	-6.640360e-001	-7.495643e-001
26469564.000	-6.641397e-001	-7.495120e-001
26475558.000	-6.642974e-001	-7.494135e-001
26481552.000	-6.643747e-001	-7.493369e-001
26487546.000	-6.645039e-001	-7.491991e-001
26493540.000	-6.646368e-001	-7.490570e-001
26499534.000	-6.647629e-001	-7.489454e-001
26505528.000	-6.648811e-001	-7.488022e-001
26511522.000	-6.649729e-001	-7.487505e-001
26517516.000	-6.651272e-001	-7.485866e-001
26523510.000	-6.652219e-001	-7.485231e-001
26529504.000	-6.653739e-001	-7.483805e-001
26535498.000	-6.655366e-001	-7.482788e-001
26541492.000	-6.656068e-001	-7.481588e-001
26547486.000	-6.657072e-001	-7.480320e-001
26553480.000	-6.658665e-001	-7.479497e-001
26559474.000	-6.660574e-001	-7.477913e-001
26565468.000	-6.661518e-001	-7.477434e-001
26571462.000	-6.662720e-001	-7.475763e-001
26577456.000	-6.663287e-001	-7.474401e-001
26583450.000	-6.664983e-001	-7.473360e-001
26589444.000	-6.666323e-001	-7.472875e-001
26595438.000	-6.667569e-001	-7.471425e-001
26601432.000	-6.668518e-001	-7.470870e-001
26607426.000	-6.670163e-001	-7.469590e-001
26613420.000	-6.671491e-001	-7.468191e-001
26619414.000	-6.672577e-001	-7.467325e-001
26625408.000	-6.673943e-001	-7.465809e-001
26631402.000	-6.674774e-001	-7.464583e-001
26637396.000	-6.676189e-001	-7.464055e-001
26643390.000	-6.677438e-001	-7.462628e-001
26649384.000	-6.677933e-001	-7.461075e-001
26655378.000	-6.679521e-001	-7.459646e-001
26661372.000	-6.680587e-001	-7.459230e-001
26667366.000	-6.681948e-001	-7.457908e-001
26673360.000	-6.683756e-001	-7.457083e-001
26679354.000	-6.684495e-001	-7.455823e-001
26685348.000	-6.686030e-001	-7.454871e-001
26691342.000	-6.687616e-001	-7.453462e-001
26697336.000	-6.688401e-001	-7.452731e-001
26703330.000	-6.689666e-001	-7.451287e-001
26709324.000	-6.690446e-001	-7.450214e-001
26715318.000	-6.692041e-001	-7.449216e-001
26721312.000	-6.693000e-001	-7.447533e-001
26727306.000	-6.694745e-001	-7.446355e-001
26733300.000	-6.695954e-001	-7.445321e-001
26739294.000	-6.697073e-001	-7.444363e-001
26745288.000	-6.698065e-001	-7.443368e-001
26751282.000	-6.699633e-001	-7.442493e-001
26757276.000	-6.700560e-001	-7.441314e-001
26763270.000	-6.702304e-001	-7.440160e-001
26769264.000	-6.703372e-001	-7.439441e-001
26775258.000	-6.704541e-001	-7.437420e-001
26781252.000	-6.705712e-001	-7.437278e-001
26787246.000	-6.706518e-001	-7.436171e-001
26793240.000	-6.708938e-001	-7.435030e-001
26799234.000	-6.709497e-001	-7.433945e-001
26805228.000	-6.710524e-001	-7.432656e-001
26811222.000	-6.712060e-001	-7.431112e-001
26817216.000	-6.712891e-001	-7.430026e-001
26823210.000	-6.714124e-001	-7.429288e-001
26829204.000	-6.715629e-001	-7.428515e-001
26835198.000	-6.717146e-001	-7.427143e-001
26841192.000	-6.718186e-001	-7.426140e-001
26847186.000	-6.719226e-001	-7.424274e-001
26853180.000	-6.720630e-001	-7.423472e-001
26859174.000	-6.721431e-001	-7.422325e-001
26865168.000	-6.722868e-001	-7.421522e-001
26871162.000	-6.724227e-001	-7.420510e-001
26877156.000	-6.725090e-001	-7.419129e-001
26883150.000	-6.726458e-001	-7.418042e-001
26889144.000	-6.727873e-001	-7.417143e-001
26895138.000	-6.728766e-001	-7.415856e-001
26901132.000	-6.729855e-001	-7.415065e-001
26907126.000	-6.731163e-001	-7.413273e-001
26913120.000	-6.732701e-001	-7.412152e-001
26919114.000	-6.733694e-001	-7.411156e-001
26925108.000	-6.734644e-001	-7.410485e-001
26931102.000	-6.736115e-001	-7.409620e-001
26937096.000	-6.737148e-001	-7.407804e-001
26943090.000	-6.738306e-001	-7.406917e-001
26949084.000	-6.739504e-001	-7.405409e-001
26955078.000	-6.740843e-001	-7.404674e-001
26961072.000	-6.742194e-001	-7.403850e-001
26967066.000	-6.743276e-001	-7.402886e-001
26973060.000	-6.744708e-001	-7.401463e-001
26979054.000	-6.745249e-001	-7.400610e-001
26985048.000	-6.747029e-001	-7.399286e-001
26991042.000	-6.747840e-001	-7.398039e-001
26997036.000	-6.749265e-001	-7.396915e-001
27003030.000	-6.750213e-001	-7.395864e-001
27009024.000	-6.751617e-001	-7.394892e-001
27015018.000	-6.752823e-001	-7.393926e-001
27021012.000	-6.754046e-001	-7.392484e-001
27027006.000	-6.755278e-001	-7.391661e-001
27033000.000	-6.756923e-001	-7.390715e-001
27038994.000	-6.757447e-001	-7.389185e-001
27044988.000	-6.758732e-001	-7.388064e-001
27050982.000	-6.759677e-001	-7.387027e-001
27056976.000	-6.761538e-001	-7.385992e-001
27062970.000	-6.762094e-001	-7.384492e-001
27068964.000	-6.763635e-001	-7.383818e-001
27074958.000	-6.764452e-001	-7.382675e-001
27080952.000	-6.766108e-001	-7.382022e-001
27086946.000	-6.767184e-001	-7.380560e-001
27092940.000	-6.768370e-001	-7.379530e-001
27098934.000	-6.770219e-001	-7.378221e-001
27104928.000	-6.770598e-001	-7.377235e-001
27110922.000	-6.771687e-001	-7.376065e-001
27116916.000	-6.773051e-001	-7.374570e-001
27122910.000	-6.774854e-001	-7.374202e-001
27128904.000	-6.775469e-001	-7.372880e-001
27134898.000	-6.776841e-001	-7.371977e-001
27140892.000	-6.777792e-001	-7.370864e-001
27146886.000	-6.778796e-001	-7.369444e-001
27152880.000	-6.780519e-001	-7.368721e-001
27158874.000	-6.781417e-001	-7.367889e-001
27164868.000	-6.782411e-001	-7.366125e-001
27170862.000	-6.783659e-001	-7.365400e-001
27176856.000	-6.784784e-001	-7.363800e-001
27182850.000	-6.785863e-001	-7.363087e-001
27188844.000	-6.787371e-001	-7.361819e-001
27194838.000	-6.788642e-001	-7.361147e-001
27200832.000	-6.789759e-001	-7.359510e-001
27206826.000	-6.790901e-001	-7.358318e-001
27212820.000	-6.792162e-001	-7.357983e-001
27218814.000	-6.793285e-001	-7.357012e-001
27224808.000	-6.794183e-001	-7.355524e-001
27230802.000	-6.795876e-001	-7.354633e-001
27236796.000	-6.796938e-001	-7.353065e-001
27242790.000	-6.797971e-001	-7.351818e-001
27248784.000	-6.799017e-001	-7.350599e-001
27254778.000	-6.800710e-001	-7.349408e-001
27260772.000	-6.801195e-001	-7.348763e-001
27266766.000	-6.802172e-001	-7.347590e-001
27272760.000	-6.803388e-001	-7.346287e-001
27278754.000	-6.805066e-001	-7.345163e-001
27284748.000	-6.805801e-001	-7.344101e-001
27290742.000	-6.807565e-001	-7.343210e-001
27296736.000	-6.808738e-001	-7.342687e-001
27302730.000	-6.809860e-001	-7.341449e-001
27308724.000	-6.810740e-001	-7.340057e-001
27314718.000	-6.811691e-001	-7.339086e-001
27320712.000	-6.813246e-001	-7.337531e-001
27326706.000	-6.814733e-001	-7.336817e-001
27332700.000	-6.815638e-001	-7.335193e-001
27338694.000	-6.816217e-001	-7.334168e-001
27344688.000	-6.817556e-001	-7.333718e-001
27350682.000	-6.818869e-001	-7.332414e-001
27356676.000	-6.820677e-001	-7.331405e-001
27362670.000	-6.821364e-001	-7.330698e-001
27368664.000	-6.823116e-001	-7.329385e-001
27374658.000	-6.824047e-001	-7.328322e-001
27380652.000	-6.824762e-001	-7.326610e-001
27386646.000	-6.826583e-001	-7.326393e-001
27392640.000	-6.827654e-001	-7.325010e-001
27398634.000	-6.828295e-001	-7.323464e-001
27404628.000	-6.829555e-001	-7.322070e-001
27410622.000	-6.830669e-001	-7.321411e-001
27416616.000	-6.831700e-001	-7.320419e-001
27422610.000	-6.833103e-001	-7.319353e-001
27428604.000	-6.834054e-001	-7.317854e-001
27434598.000	-6.835541e-001	-7.317612e-001
27440592.000	-6.836526e-001	-7.316366e-001
27446586.000	-6.837732e-001	-7.315015e-001
27452580.000	-6.838820e-001	-7.314095e-001
27458574.000	-6.840254e-001	-7.313168e-001
27464568.000	-6.841191e-001	-7.311969e-001
27470562.000	-6.842215e-001	-7.310547e-001
27476556.000	-6.843354e-001	-7.309463e-001
27482550.000	-6.843883e-001	-7.308412e-001
27488544.000	-6.845474e-001	-7.306940e-001
27494538.000	-6.846808e-001	-7.306144e-001
27500532.000	-6.848408e-001	-7.305432e-001
27506526.000	-6.849012e-001	-7.304554e-001
27512520.000	-6.849680e-001	-7.303234e-001
27518514.000	-6.851634e-001	-7.301600e-001
27524508.000	-6.852577e-001	-7.300433e-001
27530502.000	-6.852945e-001	-7.299576e-001
27536496.000	-6.854747e-001	-7.298555e-001
27542490.000	-6.855592e-001	-7.297224e-001
27548484.000	-6.856995e-001	-7.296388e-001
27554478.000	-6.857601e-001	-7.294878e-001
27560472.000	-6.859772e-001	-7.294271e-001
27566466.000	-6.860541e-001	-7.293316e-001
27572460.000	-6.861149e-001	-7.291990e-001
27578454.000	-6.862796e-001	-7.290911e-001
27584448.000	-6.863780e-001	-7.289997e-001
27590442.000	-6.865196e-001	-7.289102e-001
27596436.000	-6.866294e-001	-7.288272e-001
27602430.000	-6.867215e-001	-7.286813e-001
27608424.000	-6.868791e-001	-7.285817e-001
27614418.000	-6.870038e-001	-7.284607e-001
27620412.000	-6.870984e-001	-7.283540e-001
27626406.000	-6.871715e-001	-7.282586e-001
27632400.000	-6.872760e-001	-7.281471e-001
27638394.000	-6.874372e-001	-7.280385e-001
27644388.000	-6.875821e-001	-7.279224e-001
27650382.000	-6.876199e-001	-7.278301e-001
27656376.000	-6.877622e-001	-7.277191e-001
27662370.000	-6.878946e-001	-7.275946e-001
27668364.000	-6.879865e-001	-7.274629e-001
27674358.000	-6.881098e-001	-7.274278e-001
27680352.000	-6.882109e-001	-7.272759e-001
27686346.000	-6.883278e-001	-7.272039e-001
27692340.000	-6.884194e-001	-7.270527e-001
27698334.000	-6.885319e-001	-7.269577e-001
27704328.000	-6.886699e-001	-7.268512e-001
27710322.000	-6.887788e-001	-7.267125e-001
27716316.000	-6.888564e-001	-7.266270e-001
27722310.000	-6.890193e-001	-7.264585e-001
27728304.000	-6.890877e-001	-7.264187e-001
27734298.000	-6.892459e-001	-7.263403e-001
27740292.000	-6.893664e-001	-7.262126e-001
27746286.000	-6.894766e-001	-7.260623e-001
27752280.000	-6.895210e-001	-7.259524e-001
27758274.000	-6.896850e-001	-7.258796e-001
27764268.000	-6.898111e-001	-7.258073e-001
27770262.000	-6.899514e-001	-7.256097e-001
27776256.000	-6.900117e-001	-7.255763e-001
27782250.000	-6.901537e-001	-7.255106e-001
27788244.000	-6.902523e-001	-7.253601e-001
27794238.000	-6.903358e-001	-7.252344e-001
27800232.000	-6.904858e-001	-7.251324e-001
27806226.000	-6.905841e-001	-7.249928e-001
27812220.000	-6.907290e-001	-7.249214e-001
27818214.000	-6.907996e-001	-7.247979e-001
27824208.000	-6.909186e-001	-7.246697e-001
27830202.000	-6.910211e-001	-7.246554e-001
27836196.000	-6.911051e-001	-7.245097e-001
27842190.000	-6.912432e-001	-7.243881e-001
27848184.000	-6.913506e-001	-7.242810e-001
27854178.000	-6.914827e-001	-7.241678e-001
27860172.000	-6.915819e-001	-7.240452e-001
27866166.000	-6.917064e-001	-7.239861e-001
27872160.000	-6.918100e-001	-7.238416e-001
27878154.000	-6.919559e-001	-7.237533e-001
27884148.000	-6.919917e-001	-7.236421e-001
27890142.000	-6.921610e-001	-7.235465e-001
27896136.000	-6.922725e-001	-7.234488e-001
27902130.000	-6.924278e-001	-7.233297e-001
27908124.000	-6.924896e-001	-7.231978e-001
27914118.000	-6.925736e-001	-7.231079e-001
27920112.000	-6.927176e-001	-7.229843e-001
27926106.000	-6.927455e-001	-7.229102e-001
27932100.000	-6.928998e-001	-7.227471e-001
27938094.000	-6.930082e-001	-7.227131e-001
27944088.000	-6.931458e-001	-7.225741e-001
27950082.000	-6.932312e-001	-7.224338e-001
27956076.000	-6.933732e-001	-7.223692e-001
27962070.000	-6.934552e-001	-7.222403e-001
27968064.000	-6.935812e-001	-7.221315e-001
27974058.000	-6.936949e-001	-7.219899e-001
27980052.000	-6.938032e-001	-7.219205e-001
27986046.000	-6.938825e-001	-7.218264e-001
27992040.000	-6.940044e-001	-7.216792e-001
27998034.000	-6.940452e-001	-7.215597e-001
28004028.000	-6.942443e-001	-7.214918e-001
28010022.000	-6.942982e-001	-7.214041e-001
28016016.000	-6.944328e-001	-7.212662e-001
28022010.000	-6.945682e-001	-7.211940e-001
28028004.000	-6.946834e-001	-7.210652e-001
28033998.000	-6.947822e-001	-7.209833e-001
28039992.000	-6.949548e-001	-7.209406e-001
28045986.000	-6.950315e-001	-7.207283e-001
28051980.000	-6.951154e-001	-7.206719e-001
28057974.000	-6.952476e-001	-7.205509e-001
28063968.000	-6.953484e-001	-7.204717e-001
28069962.000	-6.954614e-001	-7.203391e-001
28075956.000	-6.955371e-001	-7.202537e-001
28081950.000	-6.956632e-001	-7.200873e-001
28087944.000	-6.958198e-001	-7.200560e-001
28093938.000	-6.959111e-001	-7.199481e-001
28099932.000	-6.960028e-001	-7.197879e-001
28105926.000	-6.960881e-001	-7.196887e-001
28111920.000	-6.962212e-001	-7.196106e-001
28117914.000	-6.963272e-001	-7.194632e-001
28123908.000	-6.964739e-001	-7.193655e-001
28129902.000	-6.965307e-001	-7.192514e-001
28135896.000	-6.966201e-001	-7.191819e-001
28141890.000	-6.967847e-001	-7.190171e-001
28147884.000	-6.968696e-001	-7.189729e-001
28153878.000	-6.969849e-001	-7.188423e-001
28159872.000	-6.970957e-001	-7.187556e-001
28165866.000	-6.972185e-001	-7.186468e-001
28171860.000	-6.973041e-001	-7.185529e-001
28177854.000	-6.974456e-001	-7.184187e-001
28183848.000	-6.975036e-001	-7.182888e-001
28189842.000	-6.976464e-001	-7.182303e-001
28195836.000	-6.977521e-001	-7.180892e-001
28201830.000	-6.978817e-001	-7.179516e-001
28207824.000	-6.979260e-001	-7.178659e-001
28213818.000	-6.980805e-001	-7.178180e-001
28219812.000	-6.981481e-001	-7.176758e-001
28225806.000	-6.982826e-001	-7.175613e-001
28231800.000	-6.984012e-001	-7.174625e-001
28237794.000	-6.984996e-001	-7.173228e-001
28243788.000	-6.986022e-001	-7.172216e-001
28249782.000	-6.987381e-001	-7.171269e-001
28255776.000	-6.988247e-001	-7.170401e-001
28261770.000	-6.989799e-001	-7.169698e-001
28267764.000	-6.990375e-001	-7.168426e-001
28273758.000	-6.991090e-001	-7.167296e-001
28279752.000	-6.992514e-001	-7.165972e-001
28285746.000	-6.993663e-001	-7.165245e-001
28291740.000	-6.994841e-001	-7.164487e-001
28297734.000	-6.996254e-001	-7.162881e-001
28303728.000	-6.996641e-001	-7.161820e-001
28309722.000	-6.998035e-001	-7.161788e-001
28315716.000	-6.999090e-001	-7.159872e-001
28321710.000	-7.000233e-001	-7.158949e-001
28327704.000	-7.001425e-001	-7.157606e-001
28333698.000	-7.002415e-001	-7.156761e-001
28339692.000	-7.003495e-001	-7.155435e-001
28345686.000	-7.004488e-001	-7.154547e-001
28351680.000	-7.005620e-001	-7.153629e-001
28357674.000	-7.006685e-001	-7.152803e-001
28363668.000	-7.007757e-001	-7.151706e-001
28369662.000	-7.008923e-001	-7.150538e-001
28375656.000	-7.009905e-001	-7.149569e-001
28381650.000	-7.010982e-001	-7.147989e-001
28387644.000	-7.012470e-001	-7.146969e-001
28393638.000	-7.013109e-001	-7.146598e-001
28399632.000	-7.014327e-001	-7.145338e-001
28405626.000	-7.015630e-001	-7.144384e-001
28411620.000	-7.015942e-001	-7.142929e-001
28417614.000	-7.017396e-001	-7.142168e-001
28423608.000	-7.018221e-001	-7.141210e-001
28429602.000	-7.019641e-001	-7.139585e-001
28435596.000	-7.020243e-001	-7.138494e-001
28441590.000	-7.021483e-001	-7.137719e-001
28447584.000	-7.022625e-001	-7.137062e-001
28453578.000	-7.023752e-001	-7.135690e-001
28459572.000	-7.024468e-001	-7.134434e-001
28465566.000	-7.025792e-001	-7.133497e-001
28471560.000	-7.026895e-001	-7.132684e-001
28477554.000	-7.028506e-001	-7.131392e-001
28483548.000	-7.028927e-001	-7.130716e-001
28489542.000	-7.029957e-001	-7.129679e-001
28495536.000	-7.031153e-001	-7.127995e-001
28501530.000	-7.032148e-001	-7.127154e-001
28507524.000	-7.032939e-001	-7.126724e-001
28513518.000	-7.034262e-001	-7.125616e-001
28519512.000	-7.035379e-001	-7.124349e-001
28525506.000	-7.036267e-001	-7.122768e-001
28531500.000	-7.037498e-001	-7.122288e-001
28537494.000	-7.038594e-001	-7.120843e-001
28543488.000	-7.039621e-001	-7.119999e-001
28549482.000	-7.040309e-001	-7.118389e-001
28555476.000	-7.041372e-001	-7.118084e-001
28561470.000	-7.042405e-001	-7.116829e-001
28567464.000	-7.043465e-001	-7.115958e-001
28573458.000	-7.044193e-001	-7.114500e-001
28579452.000	-7.045939e-001	-7.113418e-001
28585446.000	-7.046792e-001	-7.112750e-001
28591440.000	-7.048052e-001	-7.111757e-001
28597434.000	-7.049129e-001	-7.110796e-001
28603428.000	-7.049688e-001	-7.109811e-001
28609422.000	-7.051050e-001	-7.108950e-001
28615416.000	-7.052572e-001	-7.107565e-001
28621410.000	-7.053354e-001	-7.106619e-001
28627404.000	-7.054404e-001	-7.105118e-001
28633398.000	-7.055589e-001	-7.103902e-001
28639392.000	-7.056607e-001	-7.103797e-001
28645386.000	-7.057414e-001	-7.102310e-001
28651380.000	-7.058367e-001	-7.101535e-001
28657374.000	-7.059342e-001	-7.099699e-001
28663368.000	-7.060298e-001	-7.098982e-001
28669362.000	-7.061252e-001	-7.097607e-001
28675356.000	-7.062647e-001	-7.097247e-001
28681350.000	-7.063243e-001	-7.095755e-001
28687344.000	-7.064236e-001	-7.094788e-001
28693338.000	-7.065607e-001	-7.093592e-001
28699332.000	-7.066323e-001	-7.092954e-001
28705326.000	-7.068032e-001	-7.091948e-001
28711320.000	-7.068956e-001	-7.091037e-001
28717314.000	-7.069821e-001	-7.089909e-001
28723308.000	-7.070603e-001	-7.088798e-001
28729302.000	-7.071887e-001	-7.088118e-001
28735296.000	-7.072825e-001	-7.086912e-001
28741290.000	-7.073873e-001	-7.086018e-001
28747284.000	-7.074536e-001	-7.084636e-001
28753278.000	-7.076152e-001	-7.083668e-001
28759272.000	-7.077237e-001	-7.082725e-001
28765266.000	-7.078541e-001	-7.082044e-001
28771260.000	-7.079076e-001	-7.080472e-001
28777254.000	-7.080107e-001	-7.080031e-001
28783248.000	-7.080903e-001	-7.078443e-001
28789242.000	-7.081994e-001	-7.077221e-001
28795236.000	-7.082992e-001	-7.076085e-001
28801230.000	-7.084238e-001	-7.075113e-001
28807224.000	-7.085164e-001	-7.074119e-001
28813218.000	-7.086147e-001	-7.073676e-001
28819212.000	-7.086772e-001	-7.071971e-001
28825206.000	-7.088122e-001	-7.071200e-001
28831200.000	-7.089288e-001	-7.070010e-001
28837194.000	-7.090664e-001	-7.068881e-001
28843188.000	-7.091289e-001	-7.067986e-001
28849182.000	-7.092506e-001	-7.067171e-001
28855176.000	-7.092960e-001	-7.065544e-001
28861170.000	-7.094340e-001	-7.065493e-001
28867164.000	-7.095615e-001	-7.063987e-001
28873158.000	-7.096323e-001	-7.062697e-001
28879152.000	-7.097386e-001	-7.061573e-001
28885146.000	-7.098339e-001	-7.060660e-001
28891140.000	-7.099623e-001	-7.059820e-001
28897134.000	-7.100856e-001	-7.058006e-001
28903128.000	-7.101366e-001	-7.057216e-001
28909122.000	-7.102694e-001	-7.055831e-001
28915116.000	-7.103448e-001	-7.055188e-001
28921110.000	-7.104734e-001	-7.054408e-001
28927104.000	-7.105902e-001	-7.053117e-001
28933098.000	-7.106853e-001	-7.052320e-001
28939092.000	-7.107497e-001	-7.051138e-001
28945086.000	-7.108787e-001	-7.049878e-001
28951080.000	-7.110045e-001	-7.049106e-001
28957074.000	-7.110677e-001	-7.048280e-001
28963068.000	-7.111823e-001	-7.047216e-001
28969062.000	-7.112621e-001	-7.046367e-001
28975056.000	-7.113443e-001	-7.045181e-001
28981050.000	-7.115154e-001	-7.044605e-001
28987044.000	-7.116052e-001	-7.043667e-001
28993038.000	-7.117384e-001	-7.042011e-001
28999032.000	-7.118538e-001	-7.041453e-001
29005026.000	-7.118872e-001	-7.040354e-001
29011020.000	-7.119664e-001	-7.038876e-001
29017014.000	-7.120926e-001	-7.037575e-001
29023008.000	-7.121930e-001	-7.036650e-001
29029002.000	-7.123207e-001	-7.035963e-001
29034996.000	-7.123891e-001	-7.035092e-001
29040990.000	-7.124769e-001	-7.033859e-001
29046984.000	-7.125921e-001	-7.032685e-001
29052978.000	-7.127153e-001	-7.031778e-001
29058972.000	-7.128428e-001	-7.030983e-001
29064966.000	-7.129219e-001	-7.030718e-001
29070960.000	-7.129732e-001	-7.029209e-001
29076954.000	-7.130866e-001	-7.027512e-001
29082948.000	-7.131948e-001	-7.026224e-001
29088942.000	-7.132823e-001	-7.025439e-001
29094936.000	-7.133942e-001	-7.024783e-001
29100930.000	-7.135070e-001	-7.023707e-001
29106924.000	-7.136074e-001	-7.022648e-001
29112918.000	-7.137050e-001	-7.021664e-001
29118912.000	-7.138285e-001	-7.020820e-001
29124906.000	-7.139418e-001	-7.019217e-001
29130900.000	-7.139957e-001	-7.018545e-001
29136894.000	-7.141214e-001	-7.017157e-001
29142888.000	-7.142226e-001	-7.016401e-001
29148882.000	-7.143537e-001	-7.015067e-001
29154876.000	-7.144385e-001	-7.013904e-001
29160870.000	-7.145174e-001	-7.013290e-001
29166864.000	-7.145895e-001	-7.012237e-001
29172858.000	-7.146974e-001	-7.011289e-001
29178852.000	-7.147839e-001	-7.009788e-001
29184846.000	-7.148833e-001	-7.009651e-001
29190840.000	-7.150250e-001	-7.008385e-001
29196834.000	-7.150749e-001	-7.007041e-001
29202828.000	-7.151942e-001	-7.005969e-001
29208822.000	-7.153136e-001	-7.004967e-001
29214816.000	-7.153199e-001	-7.003601e-001
29220810.000	-7.155029e-001	-7.002935e-001
29226804.000	-7.156022e-001	-7.002090e-001
29232798.000	-7.156928e-001	-7.001019e-001
29238792.000	-7.157832e-001	-6.999935e-001
29244786.000	-7.159100e-001	-6.998860e-001
29250780.000	-7.159938e-001	-6.997938e-001
29256774.000	-7.160689e-001	-6.996864e-001
29262768.000	-7.162428e-001	-6.995914e-001
29268762.000	-7.162948e-001	-6.994859e-001
29274756.000	-7.164034e-001	-6.993946e-001
29280750.000	-7.164287e-001	-6.992710e-001
29286744.000	-7.165889e-001	-6.991798e-001
29292738.000	-7.166892e-001	-6.990446e-001
29298732.000	-7.167709e-001	-6.989704e-001
29304726.000	-7.169069e-001	-6.988749e-001
29310720.000	-7.169942e-001	-6.987321e-001
29316714.000	-7.171128e-001	-6.986545e-001
29322708.000	-7.171384e-001	-6.985412e-001
29328702.000	-7.172606e-001	-6.983839e-001
29334696.000	-7.173847e-001	-6.983469e-001
29340690.000	-7.174927e-001	-6.982800e-001
29346684.000	-7.175675e-001	-6.981601e-001
29352678.000	-7.176872e-001	-6.980856e-001
29358672.000	-7.178107e-001	-6.979787e-001
29364666.000	-7.178370e-001	-6.978539e-001
29370660.000	-7.179328e-001	-6.977298e-001
29376654.000	-7.180302e-001	-6.976533e-001
29382648.000	-7.181816e-001	-6.975131e-001
29388642.000	-7.182583e-001	-6.974409e-001
29394636.000	-7.183693e-001	-6.973562e-001
29400630.000	-7.185022e-001	-6.972499e-001
29406624.000	-7.185590e-001	-6.970917e-001
29412618.000	-7.186008e-001	-6.970105e-001
29418612.000	-7.187063e-001	-6.969168e-001
29424606.000	-7.188855e-001	-6.968670e-001
29430600.000	-7.189174e-001	-6.967363e-001
29436594.000	-7.190364e-001	-6.966203e-001
29442588.000	-7.191422e-001	-6.965326e-001
29448582.000	-7.192480e-001	-6.964140e-001
29454576.000	-7.193190e-001	-6.962854e-001
29460570.000	-7.194949e-001	-6.962270e-001
29466564.000	-7.195629e-001	-6.961330e-001
29472558.000	-7.196358e-001	-6.959781e-001
29478552.000	-7.197309e-001	-6.959521e-001
29484546.000	-7.198123e-001	-6.958433e-001
29490540.000	-7.198990e-001	-6.957497e-001
29496534.000	-7.200137e-001	-6.956336e-001
29502528.000	-7.201173e-001	-6.955226e-001
29508522.000	-7.202134e-001	-6.954002e-001
29514516.000	-7.203057e-001	-6.953041e-001
29520510.000	-7.204325e-001	-6.952152e-001
29526504.000	-7.205398e-001	-6.951232e-001
29532498.000	-7.206211e-001	-6.949942e-001
29538492.000	-7.207360e-001	-6.949166e-001
29544486.000	-7.207845e-001	-6.948187e-001
29550480.000	-7.208634e-001	-6.946904e-001
29556474.000	-7.209535e-001	-6.945780e-001
29562468.000	-7.210756e-001	-6.945157e-001
29568462.000	-7.211680e-001	-6.943921e-001
29574456.000	-7.212841e-001	-6.942900e-001
29580450.000	-7.213590e-001	-6.941729e-001
29586444.000	-7.214540e-001	-6.941411e-001
29592438.000	-7.215794e-001	-6.939889e-001
29598432.000	-7.216438e-001	-6.938615e-001
29604426.000	-7.217816e-001	-6.938024e-001
29610420.000	-7.218766e-001	-6.936842e-001
29616414.000	-7.219623e-001	-6.936330e-001
29622408.000	-7.220517e-001	-6.934521e-001
29628402.000	-7.221309e-001	-6.934008e-001
29634396.000	-7.222451e-001	-6.932664e-001
29640390.000	-7.223331e-001	-6.931949e-001
29646384.000	-7.224517e-001	-6.930603e-001
29652378.000	-7.225334e-001	-6.930090e-001
29658372.000	-7.226102e-001	-6.928902e-001
29664366.000	-7.227443e-001	-6.927811e-001
29670360.000	-7.228159e-001	-6.927034e-001
29676354.000	-7.229126e-001	-6.926309e-001
29682348.000	-7.230067e-001	-6.924787e-001
29688342.000	-7.230870e-001	-6.923743e-001
29694336.000	-7.231789e-001	-6.922319e-001
29700330.000	-7.232790e-001	-6.921910e-001
29706324.000	-7.233695e-001	-6.920574e-001
29712318.000	-7.234665e-001	-6.919869e-001
29718312.000	-7.235909e-001	-6.919096e-001
29724306.000	-7.237033e-001	-6.918131e-001
29730300.000	-7.237631e-001	-6.916461e-001
29736294.000	-7.238672e-001	-6.916402e-001
29742288.000	-7.240094e-001	-6.914972e-001
29748282.000	-7.240483e-001	-6.914248e-001
29754276.000	-7.242057e-001	-6.913181e-001
29760270.000	-7.242860e-001	-6.912610e-001
29766264.000	-7.243886e-001	-6.911031e-001
29772258.000	-7.245059e-001	-6.910071e-001
29778252.000	-7.245361e-001	-6.909499e-001
29784246.000	-7.246536e-001	-6.907793e-001
29790240.000	-7.246971e-001	-6.907286e-001
29796234.000	-7.248805e-001	-6.906240e-001
29802228.000	-7.249027e-001	-6.905144e-001
29808222.000	-7.250065e-001	-6.904306e-001
29814216.000	-7.251290e-001	-6.902507e-001
29820210.000	-7.251974e-001	-6.902056e-001
29826204.000	-7.252711e-001	-6.900824e-001
29832198.000	-7.253817e-001	-6.899735e-001
29838192.000	-7.254271e-001	-6.898802e-001
29844186.000	-7.255827e-001	-6.897497e-001
29850180.000	-7.256458e-001	-6.896930e-001
29856174.000	-7.257192e-001	-6.895672e-001
29862168.000	-7.258394e-001	-6.895278e-001
29868162.000	-7.259498e-001	-6.894034e-001
29874156.000	-7.260546e-001	-6.892843e-001
29880150.000	-7.261167e-001	-6.891929e-001
29886144.000	-7.262413e-001	-6.890679e-001
29892138.000	-7.263604e-001	-6.889859e-001
29898132.000	-7.264964e-001	-6.889956e-001
29904126.000	-7.265654e-001	-6.888049e-001
29910120.000	-7.266192e-001	-6.886881e-001
29916114.000	-7.266734e-001	-6.885723e-001
29922108.000	-7.267749e-001	-6.885053e-001
29928102.000	-7.268545e-001	-6.884126e-001
29934096.000	-7.269945e-001	-6.883131e-001
29940090.000	-7.271022e-001	-6.882253e-001
29946084.000	-7.271907e-001	-6.881222e-001
29952078.000	-7.272721e-001	-6.880393e-001
29958072.000	-7.273536e-001	-6.878870e-001
29964066.000	-7.274761e-001	-6.878260e-001
29970060.000	-7.275662e-001	-6.877195e-001
29976054.000	-7.276545e-001	-6.876209e-001
29982048.000	-7.277293e-001	-6.874991e-001
29988042.000	-7.278545e-001	-6.874201e-001
29994036.000	-7.279801e-001	-6.873390e-001
30000030.000	-7.280579e-001	-6.872211e-001
30006024.000	-7.280960e-001	-6.871582e-001
30012018.000	-7.282326e-001	-6.870106e-001
30018012.000	-7.283572e-001	-6.869421e-001
30024006.000	-7.283797e-001	-6.867991e-001
30030000.000	-7.285149e-001	-6.866921e-001
30035994.000	-7.285306e-001	-6.865763e-001
30041988.000	-7.285963e-001	-6.864922e-001
30047982.000	-7.287929e-001	-6.864123e-001
30053976.000	-7.288477e-001	-6.863027e-001
30059970.000	-7.289520e-001	-6.861826e-001
30065964.000	-7.290293e-001	-6.861496e-001
30071958.000	-7.291354e-001	-6.860194e-001
30077952.000	-7.292289e-001	-6.858774e-001
30083946.000	-7.293327e-001	-6.858410e-001
30089940.000	-7.293960e-001	-6.857473e-001
30095934.000	-7.295420e-001	-6.856437e-001
30101928.000	-7.296055e-001	-6.855065e-001
30107922.000	-7.296475e-001	-6.854335e-001
30113916.000	-7.297302e-001	-6.852810e-001
30119910.000	-7.298504e-001	-6.852188e-001
30125904.000	-7.299223e-001	-6.851058e-001
30131898.000	-7.300212e-001	-6.849642e-001
30137892.000	-7.301352e-001	-6.849269e-001
30143886.000	-7.302523e-001	-6.848542e-001
30149880.000	-7.303491e-001	-6.847616e-001
30155874.000	-7.304000e-001	-6.846361e-001
30161868.000	-7.304590e-001	-6.845099e-001
30167862.000	-7.306064e-001	-6.844117e-001
30173856.000	-7.306999e-001	-6.843317e-001
30179850.000	-7.307752e-001	-6.842192e-001
30185844.000	-7.308996e-001	-6.841099e-001
30191838.000	-7.309258e-001	-6.839853e-001
30197832.000	-7.310734e-001	-6.838776e-001
30203826.000	-7.311276e-001	-6.838349e-001
30209820.000	-7.312272e-001	-6.837154e-001
30215814.000	-7.313619e-001	-6.836324e-001
30221808.000	-7.314249e-001	-6.834996e-001
30227802.000	-7.315234e-001	-6.834441e-001
30233796.000	-7.316101e-001	-6.833646e-001
30239790.000	-7.316972e-001	-6.832574e-001
30245784.000	-7.317694e-001	-6.831134e-001
30251778.000	-7.318750e-001	-6.830282e-001
30257772.000	-7.319872e-001	-6.829163e-001
30263766.000	-7.320469e-001	-6.828456e-001
30269760.000	-7.321144e-001	-6.827538e-001
30275754.000	-7.322337e-001	-6.826760e-001
30281748.000	-7.323127e-001	-6.825528e-001
30287742.000	-7.324269e-001	-6.824596e-001
30293736.000	-7.324595e-001	-6.823352e-001
30299730.000	-7.326169e-001	-6.822510e-001
30305724.000	-7.326664e-001	-6.821462e-001
30311718.000	-7.327803e-001	-6.820863e-001
30317712.000	-7.328908e-001	-6.818944e-001
30323706.000	-7.330183e-001	-6.818396e-001
30329700.000	-7.330099e-001	-6.817197e-001
30335694.000	-7.331265e-001	-6.816191e-001
30341688.000	-7.332337e-001	-6.815272e-001
30347682.000	-7.333075e-001	-6.815123e-001
30353676.000	-7.333803e-001	-6.813506e-001
30359670.000	-7.335181e-001	-6.812994e-001
30365664.000	-7.335816e-001	-6.811314e-001
30371658.000	-7.337143e-001	-6.810606e-001
30377652.000	-7.338003e-001	-6.809919e-001
30383646.000	-7.338125e-001	-6.808425e-001
30389640.000	-7.339728e-001	-6.807453e-001
30395634.000	-7.340040e-001	-6.806771e-001
30401628.000	-7.340937e-001	-6.805910e-001
30407622.000	-7.342218e-001	-6.804723e-001
30413616.000	-7.343025e-001	-6.803492e-001
30419610.000	-7.343211e-001	-6.802441e-001
30425604.000	-7.344594e-001	-6.801434e-001
30431598.000	-7.345798e-001	-6.800480e-001
30437592.000	-7.346625e-001	-6.799567e-001
30443586.000	-7.347477e-001	-6.799039e-001
30449580.000	-7.348843e-001	-6.798004e-001
30455574.000	-7.349332e-001	-6.796848e-001
30461568.000	-7.350600e-001	-6.795844e-001
30467562.000	-7.351222e-001	-6.795130e-001
30473556.000	-7.351972e-001	-6.793807e-001
30479550.000	-7.352932e-001	-6.792752e-001
30485544.000	-7.353670e-001	-6.791948e-001
30491538.000	-7.354692e-001	-6.790533e-001
30497532.000	-7.355557e-001	-6.789714e-001
30503526.000	-7.356396e-001	-6.788953e-001
30509520.000	-7.357218e-001	-6.788449e-001
30515514.000	-7.358110e-001	-6.787096e-001
30521508.000	-7.359533e-001	-6.786283e-001
30527502.000	-7.360329e-001	-6.785422e-001
30533496.000	-7.361217e-001	-6.784146e-001
30539490.000	-7.361273e-001	-6.782924e-001
30545484.000	-7.362431e-001	-6.782171e-001
30551478.000	-7.363578e-001	-6.781093e-001
30557472.000	-7.364497e-001	-6.780089e-001
30563466.000	-7.364988e-001	-6.779316e-001
30569460.000	-7.366269e-001	-6.777983e-001
30575454.000	-7.367411e-001	-6.777537e-001
30581448.000	-7.368222e-001	-6.776554e-001
30587442.000	-7.369230e-001	-6.775720e-001
30593436.000	-7.370343e-001	-6.774524e-001
30599430.000	-7.370908e-001	-6.774089e-001
30605424.000	-7.371788e-001	-6.772600e-001
30611418.000	-7.372419e-001	-6.771845e-001
30617412.000	-7.372841e-001	-6.770598e-001
30623406.000	-7.374972e-001	-6.769561e-001
30629400.000	-7.375096e-001	-6.768512e-001
30635394.000	-7.375703e-001	-6.767669e-001
30641388.000	-7.377285e-001	-6.766857e-001
30647382.000	-7.378039e-001	-6.765542e-001
30653376.000	-7.378437e-001	-6.764836e-001
30659370.000	-7.379698e-001	-6.764277e-001
30665364.000	-7.380870e-001	-6.762748e-001
30671358.000	-7.381800e-001	-6.761967e-001
30677352.000	-7.382371e-001	-6.760943e-001
30683346.000	-7.382913e-001	-6.759375e-001
30689340.000	-7.383973e-001	-6.759012e-001
30695334.000	-7.385263e-001	-6.758167e-001
30701328.000	-7.386092e-001	-6.757307e-001
30707322.000	-7.386335e-001	-6.755919e-001
30713316.000	-7.387280e-001	-6.754936e-001
30719310.000	-7.388491e-001	-6.754402e-001
30725304.000	-7.389347e-001	-6.753476e-001
30731298.000	-7.390274e-001	-6.752364e-001
30737292.000	-7.390958e-001	-6.751273e-001
30743286.000	-7.391838e-001	-6.750069e-001
30749280.000	-7.393083e-001	-6.749109e-001
30755274.000	-7.393835e-001	-6.748183e-001
30761268.000	-7.394930e-001	-6.747379e-001
30767262.000	-7.395139e-001	-6.746104e-001
30773256.000	-7.397015e-001	-6.745788e-001
30779250.000	-7.397064e-001	-6.744706e-001
30785244.000	-7.398077e-001	-6.743772e-001
30791238.000	-7.398990e-001	-6.742243e-001
30797232.000	-7.399901e-001	-6.741505e-001
30803226.000	-7.400590e-001	-6.740677e-001
30809220.000	-7.401651e-001	-6.739844e-001
30815214.000	-7.402736e-001	-6.739344e-001
30821208.000	-7.403533e-001	-6.737905e-001
30827202.000	-7.404112e-001	-6.736601e-001
30833196.000	-7.405016e-001	-6.735947e-001
30839190.000	-7.405507e-001	-6.734508e-001
30845184.000	-7.406873e-001	-6.733901e-001
30851178.000	-7.407773e-001	-6.732834e-001
30857172.000	-7.408861e-001	-6.732384e-001
30863166.000	-7.409429e-001	-6.730963e-001
30869160.000	-7.410341e-001	-6.730244e-001
30875154.000	-7.411164e-001	-6.728705e-001
30881148.000	-7.412092e-001	-6.728182e-001
30887142.000	-7.413236e-001	-6.727515e-001
30893136.000	-7.413730e-001	-6.726059e-001
30899130.000	-7.414676e-001	-6.725246e-001
30905124.000	-7.415008e-001	-6.724409e-001
30911118.000	-7.416421e-001	-6.723350e-001
30917112.000	-7.417021e-001	-6.722347e-001
30923106.000	-7.418063e-001	-6.721496e-001
30929100.000	-7.418977e-001	-6.720473e-001
30935094.000	-7.419623e-001	-6.719311e-001
30941088.000	-7.420786e-001	-6.718344e-001
30947082.000	-7.421359e-001	-6.717580e-001
30953076.000	-7.422913e-001	-6.716797e-001
30959070.000	-7.423360e-001	-6.715486e-001
30965064.000	-7.423908e-001	-6.713999e-001
30971058.000	-7.424954e-001	-6.713623e-001
30977052.000	-7.425970e-001	-6.712980e-001
30983046.000	-7.426631e-001	-6.711940e-001
30989040.000	-7.427859e-001	-6.710644e-001
30995034.000	-7.428640e-001	-6.710380e-001
31001028.000	-7.429107e-001	-6.708907e-001
31007022.000	-7.429938e-001	-6.707839e-001
31013016.000	-7.430869e-001	-6.707184e-001
31019010.000	-7.431853e-001	-6.705770e-001
31025004.000	-7.433005e-001	-6.704125e-001
31030998.000	-7.433032e-001	-6.704094e-001
31036992.000	-7.434311e-001	-6.703173e-001
31042986.000	-7.435640e-001	-6.702056e-001
31048980.000	-7.435824e-001	-6.701400e-001
31054974.000	-7.436896e-001	-6.700103e-001
31060968.000	-7.437860e-001	-6.699571e-001
31066962.000	-7.438943e-001	-6.698702e-001
31072956.000	-7.439638e-001	-6.697163e-001
31078950.000	-7.440001e-001	-6.696196e-001
31084944.000	-7.441276e-001	-6.695505e-001
31090938.000	-7.442001e-001	-6.694292e-001
31096932.000	-7.442674e-001	-6.693660e-001
31102926.000	-7.443851e-001	-6.692377e-001
31108920.000	-7.444349e-001	-6.691551e-001
31114914.000	-7.445629e-001	-6.690473e-001
31120908.000	-7.446395e-001	-6.689723e-001
31126902.000	-7.446782e-001	-6.688706e-001
31132896.000	-7.448124e-001	-6.687776e-001
31138890.000	-7.448439e-001	-6.686777e-001
31144884.000	-7.450031e-001	-6.685686e-001
31150878.000	-7.450329e-001	-6.684703e-001
31156872.000	-7.451215e-001	-6.684139e-001
31162866.000	-7.452658e-001	-6.683169e-001
31168860.000	-7.453084e-001	-6.681620e-001
31174854.000	-7.454303e-001	-6.681239e-001
31180848.000	-7.455173e-001	-6.680179e-001
31186842.000	-7.455746e-001	-6.679688e-001
31192836.000	-7.456159e-001	-6.678582e-001
31198830.000	-7.457577e-001	-6.678047e-001
31204824.000	-7.458134e-001	-6.676396e-001
31210818.000	-7.458950e-001	-6.675741e-001
31216812.000	-7.459898e-001	-6.674787e-001
31222806.000	-7.460698e-001	-6.673502e-001
31228800.000	-7.461344e-001	-6.672361e-001
31234794.000	-7.462671e-001	-6.671476e-001
31240788.000	-7.463112e-001	-6.670595e-001
31246782.000	-7.464039e-001	-6.669967e-001
31252776.000	-7.464730e-001	-6.669465e-001
31258770.000	-7.465556e-001	-6.667837e-001
31264764.000	-7.466457e-001	-6.667228e-001
31270758.000	-7.467456e-001	-6.665846e-001
31276752.000	-7.468166e-001	-6.664942e-001
31282746.000	-7.468641e-001	-6.664394e-001
31288740.000	-7.470030e-001	-6.663202e-001
31294734.000	-7.470640e-001	-6.662129e-001
31300728.000	-7.471801e-001	-6.661119e-001
31306722.000	-7.472655e-001	-6.660374e-001
31312716.000	-7.472936e-001	-6.659122e-001
31318710.000	-7.473698e-001	-6.658397e-001
31324704.000	-7.474815e-001	-6.657688e-001
31330698.000	-7.475948e-001	-6.656395e-001
31336692.000	-7.476698e-001	-6.655270e-001
31342686.000	-7.477226e-001	-6.654526e-001
31348680.000	-7.478108e-001	-6.653597e-001
31354674.000	-7.479018e-001	-6.652673e-001
31360668.000	-7.479736e-001	-6.651746e-001
31366662.000	-7.480754e-001	-6.650836e-001
31372656.000	-7.481541e-001	-6.649590e-001
31378650.000	-7.482457e-001	-6.648979e-001
31384644.000	-7.483327e-001	-6.648230e-001
31390638.000	-7.484161e-001	-6.647119e-001
31396632.000	-7.485489e-001	-6.646161e-001
31402626.000	-7.486667e-001	-6.645879e-001
31408620.000	-7.487208e-001	-6.644845e-001
31414614.000	-7.488233e-001	-6.643879e-001
31420608.000	-7.489180e-001	-6.642955e-001
31426602.000	-7.489829e-001	-6.641825e-001
31432596.000	-7.491030e-001	-6.641160e-001
31438590.000	-7.491478e-001	-6.640741e-001
31444584.000	-7.491821e-001	-6.639369e-001
31450578.000	-7.492915e-001	-6.637924e-001
31456572.000	-7.493623e-001	-6.637011e-001
31462566.000	-7.494712e-001	-6.636145e-001
31468560.000	-7.495859e-001	-6.635516e-001
31474554.000	-7.496700e-001	-6.634997e-001
31480548.000	-7.496740e-001	-6.633810e-001
31486542.000	-7.497867e-001	-6.632460e-001
31492536.000	-7.498875e-001	-6.631464e-001
31498530.000	-7.500043e-001	-6.630664e-001
31504524.000	-7.500540e-001	-6.629779e-001
31510518.000	-7.501660e-001	-6.628894e-001
31516512.000	-7.502546e-001	-6.627961e-001
31522506.000	-7.503454e-001	-6.627193e-001
31528500.000	-7.504103e-001	-6.626320e-001
31534494.000	-7.505129e-001	-6.625080e-001
31540488.000	-7.505881e-001	-6.624534e-001
31546482.000	-7.506827e-001	-6.623220e-001
31552476.000	-7.507350e-001	-6.622527e-001
31558470.000	-7.508034e-001	-6.621395e-001
31564464.000	-7.508438e-001	-6.620490e-001
31570458.000	-7.509715e-001	-6.619471e-001
31576452.000	-7.510627e-001	-6.618996e-001
31582446.000	-7.511337e-001	-6.617909e-001
31588440.000	-7.512292e-001	-6.616727e-001
31594434.000	-7.513342e-001	-6.616221e-001
31600428.000	-7.513521e-001	-6.614844e-001
31606422.000	-7.514559e-001	-6.614321e-001
31612416.000	-7.515571e-001	-6.613100e-001
31618410.000	-7.516084e-001	-6.612627e-001
31624404.000	-7.516606e-001	-6.610677e-001
31630398.000	-7.518061e-001	-6.609996e-001
31636392.000	-7.518558e-001	-6.609475e-001
31642386.000	-7.519289e-001	-6.608577e-001
31648380.000	-7.520066e-001	-6.607480e-001
31654374.000	-7.521221e-001	-6.606976e-001
31660368.000	-7.521535e-001	-6.605662e-001
31666362.000	-7.522753e-001	-6.604760e-001
31672356.000	-7.523616e-001	-6.604040e-001
31678350.000	-7.524441e-001	-6.602943e-001
31684344.000	-7.524832e-001	-6.601846e-001
31690338.000	-7.525770e-001	-6.600913e-001
31696332.000	-7.526639e-001	-6.599830e-001
31702326.000	-7.527028e-001	-6.598928e-001
31708320.000	-7.528112e-001	-6.598532e-001
31714314.000	-7.529054e-001	-6.597209e-001
31720308.000	-7.529859e-001	-6.595743e-001
31726302.000	-7.529827e-001	-6.595102e-001
31732296.000	-7.531440e-001	-6.594203e-001
31738290.000	-7.532575e-001	-6.593650e-001
31744284.000	-7.532793e-001	-6.592436e-001
31750278.000	-7.533982e-001	-6.590992e-001
31756272.000	-7.534425e-001	-6.590524e-001
31762266.000	-7.535477e-001	-6.589600e-001
31768260.000	-7.536005e-001	-6.588247e-001
31774254.000	-7.536891e-001	-6.587814e-001
31780248.000	-7.537597e-001	-6.586610e-001
31786242.000	-7.538445e-001	-6.585621e-001
31792236.000	-7.539525e-001	-6.585584e-001
31798230.000	-7.540223e-001	-6.583561e-001
31804224.000	-7.541143e-001	-6.582889e-001
31810218.000	-7.541862e-001	-6.581968e-001
31816212.000	-7.542878e-001	-6.581306e-001
31822206.000	-7.543423e-001	-6.580406e-001
31828200.000	-7.544540e-001	-6.579904e-001
31834194.000	-7.545320e-001	-6.578649e-001
31840188.000	-7.546194e-001	-6.577285e-001
31846182.000	-7.546887e-001	-6.576596e-001
31852176.000	-7.547699e-001	-6.575452e-001
31858170.000	-7.548264e-001	-6.574647e-001
31864164.000	-7.549189e-001	-6.574171e-001
31870158.000	-7.550098e-001	-6.573103e-001
31876152.000	-7.550563e-001	-6.572192e-001
31882146.000	-7.551782e-001	-6.571314e-001
31888140.000	-7.552810e-001	-6.570342e-001
31894134.000	-7.553114e-001	-6.569320e-001
31900128.000	-7.554271e-001	-6.568383e-001
31906122.000	-7.554773e-001	-6.567557e-001
31912116.000	-7.556157e-001	-6.567216e-001
31918110.000	-7.556789e-001	-6.565846e-001
31924104.000	-7.557646e-001	-6.564191e-001
31930098.000	-7.558181e-001	-6.563814e-001
31936092.000	-7.558621e-001	-6.562533e-001
31942086.000	-7.559898e-001	-6.562129e-001
31948080.000	-7.560678e-001	-6.560988e-001
31954074.000	-7.561001e-001	-6.560111e-001
31960068.000	-7.562408e-001	-6.559269e-001
31966062.000	-7.562590e-001	-6.558174e-001
31972056.000	-7.563377e-001	-6.557388e-001
31978050.000	-7.564606e-001	-6.556541e-001
31984044.000	-7.565003e-001	-6.555475e-001
31990038.000	-7.566291e-001	-6.554954e-001
31996032.000	-7.567081e-001	-6.553871e-001
32002026.000	-7.567884e-001	-6.552251e-001
32008020.000	-7.568191e-001	-6.551512e-001
32014014.000	-7.569525e-001	-6.551061e-001
32020008.000	-7.569872e-001	-6.549646e-001
32026002.000	-7.570474e-001	-6.548970e-001
32031996.000	-7.571798e-001	-6.548201e-001
32037990.000	-7.572477e-001	-6.547273e-001
32043984.000	-7.572659e-001	-6.546022e-001
32049978.000	-7.574074e-001	-6.545091e-001
32055972.000	-7.574595e-001	-6.544303e-001
32061966.000	-7.575596e-001	-6.543515e-001
32067960.000	-7.576131e-001	-6.542435e-001
32073954.000	-7.577060e-001	-6.542184e-001
32079948.000	-7.577602e-001	-6.540427e-001
32085942.000	-7.578882e-001	-6.540002e-001
32091936.000	-7.579105e-001	-6.538758e-001
32097930.000	-7.580340e-001	-6.537822e-001
32103924.000	-7.580910e-001	-6.537237e-001
32109918.000	-7.581775e-001	-6.537223e-001
32115912.000	-7.582910e-001	-6.535174e-001
32121906.000	-7.583055e-001	-6.534268e-001
32127900.000	-7.584400e-001	-6.533978e-001
32133894.000	-7.585605e-001	-6.532536e-001
32139888.000	-7.585663e-001	-6.531571e-001
32145882.000	-7.587125e-001	-6.530681e-001
32151876.000	-7.587224e-001	-6.530196e-001
32157870.000	-7.588161e-001	-6.528678e-001
32163864.000	-7.588866e-001	-6.528332e-001
32169858.000	-7.589695e-001	-6.527422e-001
32175852.000	-7.590467e-001	-6.526148e-001
32181846.000	-7.591043e-001	-6.525524e-001
32187840.000	-7.592270e-001	-6.524810e-001
32193834.000	-7.592706e-001	-6.523197e-001
32199828.000	-7.593841e-001	-6.522554e-001
32205822.000	-7.594341e-001	-6.521417e-001
32211816.000	-7.595280e-001	-6.520428e-001
32217810.000	-7.595874e-001	-6.520167e-001
32223804.000	-7.596583e-001	-6.519141e-001
32229798.000	-7.597504e-001	-6.517859e-001
32235792.000	-7.598046e-001	-6.516757e-001
32241786.000	-7.598839e-001	-6.515915e-001
32247780.000	-7.599646e-001	-6.514975e-001
32253774.000	-7.600724e-001	-6.514418e-001
32259768.000	-7.601014e-001	-6.513180e-001
32265762.000	-7.602222e-001	-6.512507e-001
32271756.000	-7.602627e-001	-6.511330e-001
32277750.000	-7.603540e-001	-6.510244e-001
32283744.000	-7.604431e-001	-6.509321e-001
32289738.000	-7.605406e-001	-6.509095e-001
32295732.000	-7.605652e-001	-6.507831e-001
32301726.000	-7.606726e-001	-6.506850e-001
32307720.000	-7.607533e-001	-6.506179e-001
32313714.000	-7.608295e-001	-6.505121e-001
32319708.000	-7.609157e-001	-6.504604e-001
32325702.000	-7.610237e-001	-6.503667e-001
32331696.000	-7.610859e-001	-6.502738e-001
32337690.000	-7.611313e-001	-6.501628e-001
32343684.000	-7.612747e-001	-6.500462e-001
32349678.000	-7.613600e-001	-6.499840e-001
32355672.000	-7.613990e-001	-6.499147e-001
32361666.000	-7.614599e-001	-6.498140e-001
32367660.000	-7.615595e-001	-6.497124e-001
32373654.000	-7.616412e-001	-6.495798e-001
32379648.000	-7.617284e-001	-6.495384e-001
32385642.000	-7.617698e-001	-6.494677e-001
32391636.000	-7.618218e-001	-6.493463e-001
32397630.000	-7.619514e-001	-6.492808e-001
32403624.000	-7.620054e-001	-6.491169e-001
32409618.000	-7.620751e-001	-6.491405e-001
32415612.000	-7.621466e-001	-6.489456e-001
32421606.000	-7.622729e-001	-6.489039e-001
32427600.000	-7.622632e-001	-6.487802e-001
32433594.000	-7.623851e-001	-6.487287e-001
32439588.000	-7.624450e-001	-6.486359e-001
32445582.000	-7.625365e-001	-6.485062e-001
32451576.000	-7.626161e-001	-6.484405e-001
32457570.000	-7.626688e-001	-6.483237e-001
32463564.000	-7.627689e-001	-6.482490e-001
32469558.000	-7.628303e-001	-6.481268e-001
32475552.000	-7.628673e-001	-6.480639e-001
32481546.000	-7.630016e-001	-6.480195e-001
32487540.000	-7.630134e-001	-6.478820e-001
32493534.000	-7.631566e-001	-6.477615e-001
32499528.000	-7.632344e-001	-6.476932e-001
32505522.000	-7.632965e-001	-6.476209e-001
32511516.000	-7.633528e-001	-6.475020e-001
32517510.000	-7.634494e-001	-6.474152e-001
32523504.000	-7.634881e-001	-6.473074e-001
32529498.000	-7.636026e-001	-6.472343e-001
32535492.000	-7.636481e-001	-6.472160e-001
32541486.000	-7.637411e-001	-6.471016e-001
32547480.000	-7.638266e-001	-6.469726e-001
32553474.000	-7.638849e-001	-6.469100e-001
32559468.000	-7.639348e-001	-6.467854e-001
32565462.000	-7.640951e-001	-6.467193e-001
32571456.000	-7.641391e-001	-6.466412e-001
32577450.000	-7.641897e-001	-6.465473e-001
32583444.000	-7.642949e-001	-6.464485e-001
32589438.000	-7.643365e-001	-6.463634e-001
32595432.000	-7.644734e-001	-6.462749e-001
32601426.000	-7.644779e-001	-6.462024e-001
32607420.000	-7.645736e-001	-6.460979e-001
32613414.000	-7.647371e-001	-6.459755e-001
32619408.000	-7.647742e-001	-6.459515e-001
32625402.000	-7.648652e-001	-6.458873e-001
32631396.000	-7.648952e-001	-6.457354e-001
32637390.000	-7.649372e-001	-6.456517e-001
32643384.000	-7.650803e-001	-6.455209e-001
32649378.000	-7.651531e-001	-6.454752e-001
32655372.000	-7.652286e-001	-6.453591e-001
32661366.000	-7.653084e-001	-6.453318e-001
32667360.000	-7.653413e-001	-6.451973e-001
32673354.000	-7.654460e-001	-6.451325e-001
32679348.000	-7.654990e-001	-6.449640e-001
32685342.000	-7.655434e-001	-6.449418e-001
32691336.000	-7.656713e-001	-6.448437e-001
32697330.000	-7.656714e-001	-6.447090e-001
32703324.000	-7.657819e-001	-6.446379e-001
32709318.000	-7.658458e-001	-6.445736e-001
32715312.000	-7.659661e-001	-6.444737e-001
32721306.000	-7.659920e-001	-6.444114e-001
32727300.000	-7.661121e-001	-6.443048e-001
32733294.000	-7.661416e-001	-6.442066e-001
32739288.000	-7.662619e-001	-6.441570e-001
32745282.000	-7.663451e-001	-6.440404e-001
32751276.000	-7.663946e-001	-6.439548e-001
32757270.000	-7.664134e-001	-6.438770e-001
32763264.000	-7.664873e-001	-6.436833e-001
32769258.000	-7.665738e-001	-6.435938e-001
32775252.000	-7.666866e-001	-6.435944e-001
32781246.000	-7.666890e-001	-6.435160e-001
32787240.000	-7.668437e-001	-6.433974e-001
32793234.000	-7.668792e-001	-6.432682e-001
32799228.000	-7.669634e-001	-6.432286e-001
32805222.000	-7.670438e-001	-6.431312e-001
32811216.000	-7.671208e-001	-6.430506e-001
32817210.000	-7.672230e-001	-6.429690e-001
32823204.000	-7.672975e-001	-6.428613e-001
32829198.000	-7.673475e-001	-6.427635e-001
32835192.000	-7.674427e-001	-6.426664e-001
32841186.000	-7.674667e-001	-6.426085e-001
32847180.000	-7.676191e-001	-6.425196e-001
32853174.000	-7.676964e-001	-6.424740e-001
32859168.000	-7.676969e-001	-6.423928e-001
32865162.000	-7.678555e-001	-6.422794e-001
32871156.000	-7.678804e-001	-6.422179e-001
32877150.000	-7.679430e-001	-6.420379e-001
32883144.000	-7.680499e-001	-6.419849e-001
32889138.000	-7.680085e-001	-6.418792e-001
32895132.000	-7.681167e-001	-6.418096e-001
32901126.000	-7.681981e-001	-6.417286e-001
32907120.000	-7.682981e-001	-6.416434e-001
32913114.000	-7.683633e-001	-6.415396e-001
32919108.000	-7.684496e-001	-6.414629e-001
32925102.000	-7.685780e-001	-6.414086e-001
32931096.000	-7.686187e-001	-6.412655e-001
32937090.000	-7.686940e-001	-6.412050e-001
32943084.000	-7.687582e-001	-6.411085e-001
32949078.000	-7.687939e-001	-6.410615e-001
32955072.000	-7.688795e-001	-6.408934e-001
32961066.000	-7.689977e-001	-6.408410e-001
32967060.000	-7.690480e-001	-6.407586e-001
32973054.000	-7.691402e-001	-6.406752e-001
32979048.000	-7.692170e-001	-6.405626e-001
32985042.000	-7.692409e-001	-6.404790e-001
32991036.000	-7.693616e-001	-6.403407e-001
32997030.000	-7.694365e-001	-6.403123e-001
33003024.000	-7.695159e-001	-6.402234e-001
33009018.000	-7.695332e-001	-6.401281e-001
33015012.000	-7.696062e-001	-6.400476e-001
33021006.000	-7.697012e-001	-6.399343e-001
33027000.000	-7.697855e-001	-6.398569e-001
33032994.000	-7.698711e-001	-6.397746e-001
33038988.000	-7.699453e-001	-6.396608e-001
33044982.000	-7.700438e-001	-6.395740e-001
33050976.000	-7.700747e-001	-6.394629e-001
33056970.000	-7.701211e-001	-6.393924e-001
33062964.000	-7.701967e-001	-6.392948e-001
33068958.000	-7.702694e-001	-6.392366e-001
33074952.000	-7.703945e-001	-6.391610e-001
33080946.000	-7.704156e-001	-6.390495e-001
33086940.000	-7.705069e-001	-6.389641e-001
33092934.000	-7.705433e-001	-6.388681e-001
33098928.000	-7.706835e-001	-6.387920e-001
33104922.000	-7.707124e-001	-6.387290e-001
33110916.000	-7.708045e-001	-6.385971e-001
33116910.000	-7.708620e-001	-6.384969e-001
33122904.000	-7.709590e-001	-6.384608e-001
33128898.000	-7.710160e-001	-6.383354e-001
33134892.000	-7.710663e-001	-6.382392e-001
33140886.000	-7.711572e-001	-6.381761e-001
33146880.000	-7.712363e-001	-6.380493e-001
33152874.000	-7.712774e-001	-6.379894e-001
33158868.000	-7.713799e-001	-6.378956e-001
33164862.000	-7.714173e-001	-6.377967e-001
33170856.000	-7.714956e-001	-6.377271e-001
33176850.000	-7.715752e-001	-6.376652e-001
33182844.000	-7.716724e-001	-6.375612e-001
33188838.000	-7.717045e-001	-6.374898e-001
33194832.000	-7.718311e-001	-6.373750e-001
33200826.000	-7.719067e-001	-6.373147e-001
33206820.000	-7.719762e-001	-6.371903e-001
33212814.000	-7.720246e-001	-6.371472e-001
33218808.000	-7.720882e-001	-6.370212e-001
33224802.000	-7.721515e-001	-6.369388e-001
33230796.000	-7.722365e-001	-6.368330e-001
33236790.000	-7.723043e-001	-6.367120e-001
33242784.000	-7.723320e-001	-6.366582e-001
33248778.000	-7.724392e-001	-6.366132e-001
33254772.000	-7.725243e-001	-6.364759e-001
33260766.000	-7.726166e-001	-6.364215e-001
33266760.000	-7.726539e-001	-6.363060e-001
33272754.000	-7.727640e-001	-6.362321e-001
33278748.000	-7.728240e-001	-6.361669e-001
33284742.000	-7.728484e-001	-6.360347e-001
33290736.000	-7.729437e-001	-6.359771e-001
33296730.000	-7.730439e-001	-6.359029e-001
33302724.000	-7.731133e-001	-6.358040e-001
33308718.000	-7.731411e-001	-6.357090e-001
33314712.000	-7.732372e-001	-6.356312e-001
33320706.000	-7.732995e-001	-6.355439e-001
33326700.000	-7.734184e-001	-6.354714e-001
33332694.000	-7.734832e-001	-6.353764e-001
33338688.000	-7.735197e-001	-6.353216e-001
33344682.000	-7.735926e-001	-6.351983e-001
33350676.000	-7.736850e-001	-6.351028e-001
33356670.000	-7.737287e-001	-6.350213e-001
33362664.000	-7.738125e-001	-6.349474e-001
33368658.000	-7.739042e-001	-6.348385e-001
33374652.000	-7.739777e-001	-6.347617e-001
33380646.000	-7.740386e-001	-6.346982e-001
33386640.000	-7.740887e-001	-6.345636e-001
33392634.000	-7.741531e-001	-6.345190e-001
33398628.000	-7.742205e-001	-6.343835e-001
33404622.000	-7.742815e-001	-6.343362e-001
33410616.000	-7.743866e-001	-6.342250e-001
33416610.000	-7.744423e-001	-6.342002e-001
33422604.000	-7.745022e-001	-6.340000e-001
33428598.000	-7.746049e-001	-6.339609e-001
33434592.000	-7.746816e-001	-6.338811e-001
33440586.000	-7.747452e-001	-6.337859e-001
33446580.000	-7.747925e-001	-6.336623e-001
33452574.000	-7.748561e-001	-6.336095e-001
33458568.000	-7.749413e-001	-6.335311e-001
33464562.000	-7.750373e-001	-6.334430e-001
33470556.000	-7.750866e-001	-6.333343e-001
33476550.000	-7.751337e-001	-6.332437e-001
33482544.000	-7.752004e-001	-6.331874e-001
33488538.000	-7.752808e-001	-6.330924e-001
33494532.000	-7.753296e-001	-6.329468e-001
33500526.000	-7.754171e-001	-6.329393e-001
33506520.000	-7.755284e-001	-6.328452e-001
33512514.000	-7.756076e-001	-6.327631e-001
33518508.000	-7.756575e-001	-6.326742e-001
33524502.000	-7.757169e-001	-6.325561e-001
33530496.000	-7.758071e-001	-6.324762e-001
33536490.000	-7.758330e-001	-6.323944e-001
33542484.000	-7.758800e-001	-6.322735e-001
33548478.000	-7.760479e-001	-6.321783e-001
33554472.000	-7.760695e-001	-6.321064e-001
33560466.000	-7.761059e-001	-6.320098e-001
33566460.000	-7.762519e-001	-6.319698e-001
33572454.000	-7.762632e-001	-6.318484e-001
33578448.000	-7.763484e-001	-6.317565e-001
33584442.000	-7.764238e-001	-6.316529e-001
33590436.000	-7.765068e-001	-6.315864e-001
33596430.000	-7.765319e-001	-6.315315e-001
33602424.000	-7.765779e-001	-6.314271e-001
33608418.000	-7.766924e-001	-6.313223e-001
33614412.000	-7.767648e-001	-6.312388e-001
33620406.000	-7.768095e-001	-6.311405e-001
33626400.000	-7.769280e-001	-6.311223e-001
33632394.000	-7.769378e-001	-6.309811e-001
33638388.000	-7.770460e-001	-6.309000e-001
33644382.000	-7.770909e-001	-6.308242e-001
33650376.000	-7.772063e-001	-6.307467e-001
33656370.000	-7.772363e-001	-6.306461e-001
33662364.000	-7.772974e-001	-6.305245e-001
33668358.000	-7.773634e-001	-6.304801e-001
33674352.000	-7.774660e-001	-6.304017e-001
33680346.000	-7.775152e-001	-6.302680e-001
33686340.000	-7.776067e-001	-6.301972e-001
33692334.000	-7.776387e-001	-6.301182e-001
33698328.000	-7.777019e-001	-6.300613e-001
33704322.000	-7.778038e-001	-6.299257e-001
33710316.000	-7.778269e-001	-6.298912e-001
33716310.000	-7.779813e-001	-6.297811e-001
33722304.000	-7.780136e-001	-6.297091e-001
33728298.000	-7.781039e-001	-6.296143e-001
33734292.000	-7.781562e-001	-6.295496e-001
33740286.000	-7.781923e-001	-6.294386e-001
33746280.000	-7.783196e-001	-6.293709e-001
33752274.000	-7.783722e-001	-6.293169e-001
33758268.000	-7.784082e-001	-6.291870e-001
33764262.000	-7.784931e-001	-6.290409e-001
33770256.000	-7.785929e-001	-6.289984e-001
33776250.000	-7.786373e-001	-6.289073e-001
33782244.000	-7.787217e-001	-6.288538e-001
33788238.000	-7.787823e-001	-6.287367e-001
33794232.000	-7.788025e-001	-6.286835e-001
33800226.000	-7.788767e-001	-6.285752e-001
33806220.000	-7.789868e-001	-6.284943e-001
33812214.000	-7.790398e-001	-6.283755e-001
33818208.000	-7.791096e-001	-6.283579e-001
33824202.000	-7.791992e-001	-6.282252e-001
33830196.000	-7.792213e-001	-6.281514e-001
33836190.000	-7.793271e-001	-6.280565e-001
33842184.000	-7.793463e-001	-6.279783e-001
33848178.000	-7.795165e-001	-6.278903e-001
33854172.000	-7.795451e-001	-6.278788e-001
33860166.000	-7.795737e-001	-6.277468e-001
33866160.000	-7.796499e-001	-6.276542e-001
33872154.000	-7.797208e-001	-6.275487e-001
33878148.000	-7.798349e-001	-6.274407e-001
33884142.000	-7.798589e-001	-6.273614e-001
33890136.000	-7.799395e-001	-6.273089e-001
33896130.000	-7.800253e-001	-6.272046e-001
33902124.000	-7.801326e-001	-6.271301e-001
33908118.000	-7.801657e-001	-6.270073e-001
33914112.000	-7.802792e-001	-6.269468e-001
33920106.000	-7.803086e-001	-6.268237e-001
33926100.000	-7.803981e-001	-6.267348e-001
33932094.000	-7.804426e-001	-6.266834e-001
33938088.000	-7.804590e-001	-6.266058e-001
33944082.000	-7.805918e-001	-6.264896e-001
33950076.000	-7.806879e-001	-6.263856e-001
33956070.000	-7.806691e-001	-6.263937e-001
33962064.000	-7.808240e-001	-6.262990e-001
33968058.000	-7.808605e-001	-6.261628e-001
33974052.000	-7.809127e-001	-6.261060e-001
33980046.000	-7.810153e-001	-6.259640e-001
33986040.000	-7.810724e-001	-6.259251e-001
33992034.000	-7.811472e-001	-6.258235e-001
33998028.000	-7.812079e-001	-6.257937e-001
34004022.000	-7.812854e-001	-6.256249e-001
34010016.000	-7.813191e-001	-6.255662e-001
34016010.000	-7.813820e-001	-6.254694e-001
34022004.000	-7.814066e-001	-6.253362e-001
34027998.000	-7.815355e-001	-6.253294e-001
34033992.000	-7.816030e-001	-6.251983e-001
34039986.000	-7.816476e-001	-6.251733e-001
34045980.000	-7.817212e-001	-6.250802e-001
34051974.000	-7.817613e-001	-6.248968e-001
34057968.000	-7.818387e-001	-6.248715e-001
34063962.000	-7.818814e-001	-6.248251e-001
34069956.000	-7.819966e-001	-6.246482e-001
34075950.000	-7.820555e-001	-6.245884e-001
34081944.000	-7.821448e-001	-6.245180e-001
34087938.000	-7.822137e-001	-6.245063e-001
34093932.000	-7.822745e-001	-6.243126e-001
34099926.000	-7.823545e-001	-6.242482e-001
34105920.000	-7.824114e-001	-6.241875e-001
34111914.000	-7.825001e-001	-6.241232e-001
34117908.000	-7.824851e-001	-6.240573e-001
34123902.000	-7.826087e-001	-6.239671e-001
34129896.000	-7.826599e-001	-6.238993e-001
34135890.000	-7.827497e-001	-6.238015e-001
34141884.000	-7.827852e-001	-6.237050e-001
34147878.000	-7.828631e-001	-6.235967e-001
34153872.000	-7.829051e-001	-6.235134e-001
34159866.000	-7.829780e-001	-6.234198e-001
34165860.000	-7.830983e-001	-6.233737e-001
34171854.000	-7.831392e-001	-6.232293e-001
34177848.000	-7.831975e-001	-6.231348e-001
34183842.000	-7.833073e-001	-6.230796e-001
34189836.000	-7.833571e-001	-6.230411e-001
34195830.000	-7.834587e-001	-6.229198e-001
34201824.000	-7.834654e-001	-6.228234e-001
34207818.000	-7.834967e-001	-6.227114e-001
34213812.000	-7.835941e-001	-6.226489e-001
34219806.000	-7.836727e-001	-6.225736e-001
34225800.000	-7.837340e-001	-6.224936e-001
34231794.000	-7.837778e-001	-6.224209e-001
34237788.000	-7.838955e-001	-6.223442e-001
34243782.000	-7.839520e-001	-6.222137e-001
34249776.000	-7.840034e-001	-6.220875e-001
34255770.000	-7.841353e-001	-6.220954e-001
34261764.000	-7.841610e-001	-6.220611e-001
34267758.000	-7.842004e-001	-6.219351e-001
34273752.000	-7.843254e-001	-6.218228e-001
34279746.000	-7.843927e-001	-6.217799e-001
34285740.000	-7.844601e-001	-6.216902e-001
34291734.000	-7.844877e-001	-6.216088e-001
34297728.000	-7.846090e-001	-6.215265e-001
34303722.000	-7.846213e-001	-6.214375e-001
34309716.000	-7.846485e-001	-6.213626e-001
34315710.000	-7.847531e-001	-6.212470e-001
34321704.000	-7.848291e-001	-6.211893e-001
34327698.000	-7.849455e-001	-6.210808e-001
34333692.000	-7.849740e-001	-6.210619e-001
34339686.000	-7.850428e-001	-6.209442e-001
34345680.000	-7.850232e-001	-6.208198e-001
34351674.000	-7.851492e-001	-6.207572e-001
34357668.000	-7.852879e-001	-6.206562e-001
34363662.000	-7.853122e-001	-6.205748e-001
34369656.000	-7.853904e-001	-6.204829e-001
34375650.000	-7.854406e-001	-6.204482e-001
34381644.000	-7.855102e-001	-6.203276e-001
34387638.000	-7.855650e-001	-6.202353e-001
34393632.000	-7.856038e-001	-6.201410e-001
34399626.000	-7.856331e-001	-6.200141e-001
34405620.000	-7.857131e-001	-6.200197e-001
34411614.000	-7.857694e-001	-6.198813e-001
34417608.000	-7.858293e-001	-6.197673e-001
34423602.000	-7.858970e-001	-6.196921e-001
34429596.000	-7.859894e-001	-6.196069e-001
34435590.000	-7.860636e-001	-6.195592e-001
34441584.000	-7.861025e-001	-6.194586e-001
34447578.000	-7.861932e-001	-6.194201e-001
34453572.000	-7.862296e-001	-6.192892e-001
34459566.000	-7.863208e-001	-6.192457e-001
34465560.000	-7.863872e-001	-6.190986e-001
34471554.000	-7.864631e-001	-6.190624e-001
34477548.000	-7.865416e-001	-6.189558e-001
34483542.000	-7.865582e-001	-6.188406e-001
34489536.000	-7.866559e-001	-6.188446e-001
34495530.000	-7.867492e-001	-6.186787e-001
34501524.000	-7.867813e-001	-6.186722e-001
34507518.000	-7.868898e-001	-6.185975e-001
34513512.000	-7.869005e-001	-6.184423e-001
34519506.000	-7.870117e-001	-6.183739e-001
34525500.000	-7.870627e-001	-6.183399e-001
34531494.000	-7.871326e-001	-6.181953e-001
34537488.000	-7.871713e-001	-6.181236e-001
34543482.000	-7.872453e-001	-6.180369e-001
34549476.000	-7.873024e-001	-6.179776e-001
34555470.000	-7.873794e-001	-6.179037e-001
34561464.000	-7.873870e-001	-6.177520e-001
34567458.000	-7.874729e-001	-6.176918e-001
34573452.000	-7.875509e-001	-6.176356e-001
34579446.000	-7.876363e-001	-6.175522e-001
34585440.000	-7.876782e-001	-6.174336e-001
34591434.000	-7.877213e-001	-6.173589e-001
34597428.000	-7.878222e-001	-6.172688e-001
34603422.000	-7.878747e-001	-6.171357e-001
34609416.000	-7.879112e-001	-6.170886e-001
34615410.000	-7.879644e-001	-6.170202e-001
34621404.000	-7.880653e-001	-6.169461e-001
34627398.000	-7.881583e-001	-6.168395e-001
34633392.000	-7.881826e-001	-6.167907e-001
34639386.000	-7.882518e-001	-6.166572e-001
34645380.000	-7.883536e-001	-6.166518e-001
34651374.000	-7.883673e-001	-6.164995e-001
34657368.000	-7.884834e-001	-6.164597e-001
34663362.000	-7.884755e-001	-6.163568e-001
34669356.000	-7.885769e-001	-6.162665e-001
34675350.000	-7.886894e-001	-6.161733e-001
34681344.000	-7.886809e-001	-6.161061e-001
34687338.000	-7.887704e-001	-6.160405e-001
34693332.000	-7.888588e-001	-6.159622e-001
34699326.000	-7.889247e-001	-6.158298e-001
34705320.000	-7.890280e-001	-6.158026e-001
34711314.000	-7.890544e-001	-6.157078e-001
34717308.000	-7.891043e-001	-6.156358e-001
34723302.000	-7.891707e-001	-6.155377e-001
34729296.000	-7.892224e-001	-6.154603e-001
34735290.000	-7.893069e-001	-6.154088e-001
34741284.000	-7.893624e-001	-6.152891e-001
34747278.000	-7.894355e-001	-6.152160e-001
34753272.000	-7.894907e-001	-6.151277e-001
34759266.000	-7.895997e-001	-6.150851e-001
34765260.000	-7.896129e-001	-6.149147e-001
34771254.000	-7.896566e-001	-6.148616e-001
34777248.000	-7.897419e-001	-6.148510e-001
34783242.000	-7.897893e-001	-6.147194e-001
34789236.000	-7.899179e-001	-6.146273e-001
34795230.000	-7.899657e-001	-6.145936e-001
34801224.000	-7.900052e-001	-6.144959e-001
34807218.000	-7.900407e-001	-6.143851e-001
34813212.000	-7.901624e-001	-6.143122e-001
34819206.000	-7.901897e-001	-6.142278e-001
34825200.000	-7.902432e-001	-6.141324e-001
34831194.000	-7.903828e-001	-6.141051e-001
34837188.000	-7.904010e-001	-6.139865e-001
34843182.000	-7.905318e-001	-6.139158e-001
34849176.000	-7.905263e-001	-6.137804e-001
34855170.000	-7.906129e-001	-6.137599e-001
34861164.000	-7.906706e-001	-6.136857e-001
34867158.000	-7.907483e-001	-6.136115e-001
34873152.000	-7.908050e-001	-6.135078e-001
34879146.000	-7.908956e-001	-6.134051e-001
34885140.000	-7.909431e-001	-6.133301e-001
34891134.000	-7.909473e-001	-6.131946e-001
34897128.000	-7.910302e-001	-6.131825e-001
34903122.000	-7.910945e-001	-6.130711e-001
34909116.000	-7.911788e-001	-6.129765e-001
34915110.000	-7.911815e-001	-6.128994e-001
34921104.000	-7.913266e-001	-6.128339e-001
34927098.000	-7.913382e-001	-6.127731e-001
34933092.000	-7.913960e-001	-6.126053e-001
34939086.000	-7.914814e-001	-6.125861e-001
34945080.000	-7.915236e-001	-6.124465e-001
34951074.000	-7.915787e-001	-6.124129e-001
34957068.000	-7.916781e-001	-6.123257e-001
34963062.000	-7.916994e-001	-6.122297e-001
34969056.000	-7.917895e-001	-6.121687e-001
34975050.000	-7.918236e-001	-6.120313e-001
34981044.000	-7.919048e-001	-6.119987e-001
34987038.000	-7.919647e-001	-6.119030e-001
34993032.000	-7.920590e-001	-6.118326e-001
34999026.000	-7.920981e-001	-6.117515e-001
35005020.000	-7.921852e-001	-6.116269e-001
35011014.000	-7.922289e-001	-6.116024e-001
35017008.000	-7.922411e-001	-6.114975e-001
35023002.000	-7.923173e-001	-6.114260e-001
35028996.000	-7.923783e-001	-6.113492e-001
35034990.000	-7.924734e-001	-6.112126e-001
35040984.000	-7.925615e-001	-6.111954e-001
35046978.000	-7.925720e-001	-6.110508e-001
35052972.000	-7.926498e-001	-6.109768e-001
35058966.000	-7.926616e-001	-6.108793e-001
35064960.000	-7.928049e-001	-6.108073e-001
35070954.000	-7.928463e-001	-6.107527e-001
35076948.000	-7.929405e-001	-6.107086e-001
35082942.000	-7.929823e-001	-6.106065e-001
35088936.000	-7.930057e-001	-6.104597e-001
35094930.000	-7.931397e-001	-6.104374e-001
35100924.000	-7.931810e-001	-6.103391e-001
35106918.000	-7.932080e-001	-6.102516e-001
35112912.000	-7.932926e-001	-6.102095e-001
35118906.000	-7.933569e-001	-6.101341e-001
35124900.000	-7.934129e-001	-6.099800e-001
35130894.000	-7.934837e-001	-6.098710e-001
35136888.000	-7.935000e-001	-6.098460e-001
35142882.000	-7.935563e-001	-6.097862e-001
35148876.000	-7.936874e-001	-6.096865e-001
35154870.000	-7.937284e-001	-6.095581e-001
35160864.000	-7.937890e-001	-6.095159e-001
35166858.000	-7.938548e-001	-6.094793e-001
35172852.000	-7.938462e-001	-6.093958e-001
35178846.000	-7.939480e-001	-6.092391e-001
35184840.000	-7.940551e-001	-6.092053e-001
35190834.000	-7.941245e-001	-6.091662e-001
35196828.000	-7.941794e-001	-6.090408e-001
35202822.000	-7.942595e-001	-6.089756e-001
35208816.000	-7.943336e-001	-6.089110e-001
35214810.000	-7.943900e-001	-6.088334e-001
35220804.000	-7.944055e-001	-6.087332e-001
35226798.000	-7.944808e-001	-6.086249e-001
35232792.000	-7.945326e-001	-6.085514e-001
35238786.000	-7.945959e-001	-6.084837e-001
35244780.000	-7.946706e-001	-6.084096e-001
35250774.000	-7.947079e-001	-6.083244e-001
35256768.000	-7.948024e-001	-6.082400e-001
35262762.000	-7.948586e-001	-6.082008e-001
35268756.000	-7.949244e-001	-6.080882e-001
35274750.000	-7.949743e-001	-6.080380e-001
35280744.000	-7.950208e-001	-6.078918e-001
35286738.000	-7.951158e-001	-6.078619e-001
35292732.000	-7.951537e-001	-6.077586e-001
35298726.000	-7.952601e-001	-6.076533e-001
35304720.000	-7.953367e-001	-6.076172e-001
35310714.000	-7.953884e-001	-6.074905e-001
35316708.000	-7.954086e-001	-6.074560e-001
35322702.000	-7.954984e-001	-6.073945e-001
35328696.000	-7.955172e-001	-6.072919e-001
35334690.000	-7.956100e-001	-6.071990e-001
35340684.000	-7.956642e-001	-6.071515e-001
35346678.000	-7.957304e-001	-6.069867e-001
35352672.000	-7.957688e-001	-6.069337e-001
35358666.000	-7.958138e-001	-6.067958e-001
35364660.000	-7.959283e-001	-6.067736e-001
35370654.000	-7.959319e-001	-6.066849e-001
35376648.000	-7.960189e-001	-6.066117e-001
35382642.000	-7.960799e-001	-6.065046e-001
35388636.000	-7.961457e-001	-6.064168e-001
35394630.000	-7.961999e-001	-6.063659e-001
35400624.000	-7.962906e-001	-6.062653e-001
35406618.000	-7.962746e-001	-6.062151e-001
35412612.000	-7.964248e-001	-6.061174e-001
35418606.000	-7.964551e-001	-6.059906e-001
35424600.000	-7.964878e-001	-6.059809e-001
35430594.000	-7.965079e-001	-6.059223e-001
35436588.000	-7.966479e-001	-6.057528e-001
35442582.000	-7.966682e-001	-6.056853e-001
35448576.000	-7.967794e-001	-6.056719e-001
35454570.000	-7.968508e-001	-6.055653e-001
35460564.000	-7.969697e-001	-6.054577e-001
35466558.000	-7.969391e-001	-6.053938e-001
35472552.000	-7.970179e-001	-6.053965e-001
35478546.000	-7.971030e-001	-6.052611e-001
35484540.000	-7.971352e-001	-6.051716e-001
35490534.000	-7.972278e-001	-6.051114e-001
35496528.000	-7.972555e-001	-6.050333e-001
35502522.000	-7.972726e-001	-6.048779e-001
35508516.000	-7.973540e-001	-6.048678e-001
35514510.000	-7.974572e-001	-6.047934e-001
35520504.000	-7.975406e-001	-6.047004e-001
35526498.000	-7.975381e-001	-6.046253e-001
35532492.000	-7.976426e-001	-6.045300e-001
35538486.000	-7.976665e-001	-6.044438e-001
35544480.000	-7.977095e-001	-6.043756e-001
35550474.000	-7.977605e-001	-6.042552e-001
35556468.000	-7.978682e-001	-6.041918e-001
35562462.000	-7.978821e-001	-6.041003e-001
35568456.000	-7.979718e-001	-6.040521e-001
35574450.000	-7.980318e-001	-6.040064e-001
35580444.000	-7.981380e-001	-6.038618e-001
35586438.000	-7.981524e-001	-6.038556e-001
35592432.000	-7.981826e-001	-6.036936e-001
35598426.000	-7.982955e-001	-6.036517e-001
35604420.000	-7.983695e-001	-6.035699e-001
35610414.000	-7.983835e-001	-6.034618e-001
35616408.000	-7.984693e-001	-6.033875e-001
35622402.000	-7.985651e-001	-6.033578e-001
35628396.000	-7.986188e-001	-6.032911e-001
35634390.000	-7.986209e-001	-6.031207e-001
35640384.000	-7.987317e-001	-6.030734e-001
35646378.000	-7.987267e-001	-6.029750e-001
35652372.000	-7.988119e-001	-6.029265e-001
35658366.000	-7.988764e-001	-6.028227e-001
35664360.000	-7.989499e-001	-6.027675e-001
35670354.000	-7.990003e-001	-6.027025e-001
35676348.000	-7.990311e-001	-6.025962e-001
35682342.000	-7.991021e-001	-6.024662e-001
35688336.000	-7.991840e-001	-6.024443e-001
35694330.000	-7.991877e-001	-6.023750e-001
35700324.000	-7.993129e-001	-6.023295e-001
35706318.000	-7.993833e-001	-6.022144e-001
35712312.000	-7.994297e-001	-6.021324e-001
35718306.000	-7.994658e-001	-6.021019e-001
35724300.000	-7.995321e-001	-6.019527e-001
35730294.000	-7.995898e-001	-6.018978e-001
35736288.000	-7.996601e-001	-6.018080e-001
35742282.000	-7.997252e-001	-6.017576e-001
35748276.000	-7.998088e-001	-6.016665e-001
35754270.000	-7.998184e-001	-6.015404e-001
35760264.000	-7.999085e-001	-6.014817e-001
35766258.000	-7.999681e-001	-6.014219e-001
35772252.000	-8.000034e-001	-6.013297e-001
35778246.000	-8.000139e-001	-6.012366e-001
35784240.000	-8.001234e-001	-6.011807e-001
35790234.000	-8.001484e-001	-6.010628e-001
35796228.000	-8.002289e-001	-6.009802e-001
35802222.000	-8.002963e-001	-6.009130e-001
35808216.000	-8.003630e-001	-6.007946e-001
35814210.000	-8.004030e-001	-6.007424e-001
35820204.000	-8.005011e-001	-6.006713e-001
35826198.000	-8.004809e-001	-6.005407e-001
35832192.000	-8.005688e-001	-6.005162e-001
35838186.000	-8.006521e-001	-6.004428e-001
35844180.000	-8.006846e-001	-6.003692e-001
35850174.000	-8.007770e-001	-6.002419e-001
35856168.000	-8.008074e-001	-6.002196e-001
35862162.000	-8.009055e-001	-6.001217e-001
35868156.000	-8.009510e-001	-6.000361e-001
35874150.000	-8.010317e-001	-5.999109e-001
35880144.000	-8.010616e-001	-5.999141e-001
35886138.000	-8.011192e-001	-5.998008e-001
35892132.000	-8.011715e-001	-5.997406e-001
35898126.000	-8.012135e-001	-5.996467e-001
35904120.000	-8.012579e-001	-5.995191e-001
35910114.000	-8.013513e-001	-5.994616e-001
35916108.000	-8.014245e-001	-5.994347e-001
35922102.000	-8.014587e-001	-5.993346e-001
35928096.000	-8.015177e-001	-5.992587e-001
35934090.000	-8.015889e-001	-5.991512e-001
35940084.000	-8.016208e-001	-5.990566e-001
35946078.000	-8.017267e-001	-5.990497e-001
35952072.000	-8.017346e-001	-5.989439e-001
35958066.000	-8.018525e-001	-5.987937e-001
35964060.000	-8.018982e-001	-5.987554e-001
35970054.000	-8.019615e-001	-5.987048e-001
35976048.000	-8.020157e-001	-5.985597e-001
35982042.000	-8.020693e-001	-5.985047e-001
35988036.000	-8.021200e-001	-5.984523e-001
35994030.000	-8.021782e-001	-5.983410e-001
36000024.000	-8.022080e-001	-5.983187e-001
36006018.000	-8.023036e-001	-5.982108e-001
36012012.000	-8.023393e-001	-5.981274e-001
36018006.000	-8.023848e-001	-5.980988e-001
36024000.000	-8.025077e-001	-5.979906e-001
36029994.000	-8.024894e-001	-5.979033e-001
36035988.000	-8.025649e-001	-5.977816e-001
36041982.000	-8.025993e-001	-5.977411e-001
36047976.000	-8.027490e-001	-5.976705e-001
36053970.000	-8.027541e-001	-5.976237e-001
36059964.000	-8.028418e-001	-5.975706e-001
36065958.000	-8.028978e-001	-5.974476e-001
36071952.000	-8.030004e-001	-5.973227e-001
36077946.000	-8.029744e-001	-5.972813e-001
36083940.000	-8.030713e-001	-5.971730e-001
36089934.000	-8.030540e-001	-5.970847e-001
36095928.000	-8.031531e-001	-5.969816e-001
36101922.000	-8.032530e-001	-5.969770e-001
36107916.000	-8.033035e-001	-5.968743e-001
36113910.000	-8.033294e-001	-5.967329e-001
36119904.000	-8.034084e-001	-5.967398e-001
36125898.000	-8.034486e-001	-5.966555e-001
36131892.000	-8.035125e-001	-5.965413e-001
36137886.000	-8.035674e-001	-5.964943e-001
36143880.000	-8.036064e-001	-5.964001e-001
36149874.000	-8.036794e-001	-5.963161e-001
36155868.000	-8.037656e-001	-5.962541e-001
36161862.000	-8.038220e-001	-5.961233e-001
36167856.000	-8.038718e-001	-5.960873e-001
36173850.000	-8.039689e-001	-5.960154e-001
36179844.000	-8.040520e-001	-5.959655e-001
36185838.000	-8.040861e-001	-5.958962e-001
36191832.000	-8.040990e-001	-5.957935e-001
36197826.000	-8.041852e-001	-5.956781e-001
36203820.000	-8.042310e-001	-5.956295e-001
36209814.000	-8.042954e-001	-5.955292e-001
36215808.000	-8.042916e-001	-5.954287e-001
36221802.000	-8.043701e-001	-5.953885e-001
36227796.000	-8.044592e-001	-5.953170e-001
36233790.000	-8.045119e-001	-5.952210e-001
36239784.000	-8.045745e-001	-5.951379e-001
36245778.000	-8.045959e-001	-5.950680e-001
36251772.000	-8.046719e-001	-5.949657e-001
36257766.000	-8.047739e-001	-5.948531e-001
36263760.000	-8.047795e-001	-5.947698e-001
36269754.000	-8.049115e-001	-5.947436e-001
36275748.000	-8.049083e-001	-5.946223e-001
36281742.000	-8.049820e-001	-5.946124e-001
36287736.000	-8.050378e-001	-5.945260e-001
36293730.000	-8.050595e-001	-5.944152e-001
36299724.000	-8.051408e-001	-5.943969e-001
36305718.000	-8.051791e-001	-5.943036e-001
36311712.000	-8.052386e-001	-5.942362e-001
36317706.000	-8.053291e-001	-5.941892e-001
36323700.000	-8.053617e-001	-5.940824e-001
36329694.000	-8.054239e-001	-5.940249e-001
36335688.000	-8.055000e-001	-5.938838e-001
36341682.000	-8.055316e-001	-5.937838e-001
36347676.000	-8.056002e-001	-5.937792e-001
36353670.000	-8.056622e-001	-5.936852e-001
36359664.000	-8.056511e-001	-5.935693e-001
36365658.000	-8.057701e-001	-5.934942e-001
36371652.000	-8.058221e-001	-5.934203e-001
36377646.000	-8.058639e-001	-5.933876e-001
36383640.000	-8.059216e-001	-5.932907e-001
36389634.000	-8.060332e-001	-5.932212e-001
36395628.000	-8.060405e-001	-5.931639e-001
36401622.000	-8.060824e-001	-5.930297e-001
36407616.000	-8.062030e-001	-5.929903e-001
36413610.000	-8.062230e-001	-5.928847e-001
36419604.000	-8.062965e-001	-5.927871e-001
36425598.000	-8.063264e-001	-5.927335e-001
36431592.000	-8.063872e-001	-5.927023e-001
36437586.000	-8.064056e-001	-5.925914e-001
36443580.000	-8.064918e-001	-5.925164e-001
36449574.000	-8.065464e-001	-5.924217e-001
36455568.000	-8.065340e-001	-5.923340e-001
36461562.000	-8.066553e-001	-5.923202e-001
36467556.000	-8.067343e-001	-5.921799e-001
36473550.000	-8.067726e-001	-5.920824e-001
36479544.000	-8.068683e-001	-5.919867e-001
36485538.000	-8.068558e-001	-5.919601e-001
36491532.000	-8.069247e-001	-5.918062e-001
36497526.000	-8.069800e-001	-5.917688e-001
36503520.000	-8.070248e-001	-5.916856e-001
36509514.000	-8.070670e-001	-5.916030e-001
36515508.000	-8.071866e-001	-5.916215e-001
36521502.000	-8.071831e-001	-5.914940e-001
36527496.000	-8.072672e-001	-5.914126e-001
36533490.000	-8.073342e-001	-5.913181e-001
36539484.000	-8.074362e-001	-5.912644e-001
36545478.000	-8.074707e-001	-5.911667e-001
36551472.000	-8.075496e-001	-5.910909e-001
36557466.000	-8.075663e-001	-5.910271e-001
36563460.000	-8.076398e-001	-5.909327e-001
36569454.000	-8.076860e-001	-5.908947e-001
36575448.000	-8.077317e-001	-5.907854e-001
36581442.000	-8.078043e-001	-5.907028e-001
36587436.000	-8.078651e-001	-5.906437e-001
36593430.000	-8.079107e-001	-5.905727e-001
36599424.000	-8.079728e-001	-5.905021e-001
36605418.000	-8.080617e-001	-5.903590e-001
36611412.000	-8.081372e-001	-5.903441e-001
36617406.000	-8.081543e-001	-5.902708e-001
36623400.000	-8.081497e-001	-5.901806e-001
36629394.000	-8.081825e-001	-5.900936e-001
36635388.000	-8.082901e-001	-5.899809e-001
36641382.000	-8.083255e-001	-5.899485e-001
36647376.000	-8.084407e-001	-5.898846e-001
36653370.000	-8.085088e-001	-5.898012e-001
36659364.000	-8.085236e-001	-5.896998e-001
36665358.000	-8.086290e-001	-5.896837e-001
36671352.000	-8.086482e-001	-5.895483e-001
36677346.000	-8.087040e-001	-5.894831e-001
36683340.000	-8.087521e-001	-5.894599e-001
36689334.000	-8.088408e-001	-5.893260e-001
36695328.000	-8.088867e-001	-5.893045e-001
36701322.000	-8.089456e-001	-5.892005e-001
36707316.000	-8.089847e-001	-5.890878e-001
36713310.000	-8.090426e-001	-5.890083e-001
36719304.000	-8.091124e-001	-5.889358e-001
36725298.000	-8.091816e-001	-5.888785e-001
36731292.000	-8.091851e-001	-5.888030e-001
36737286.000	-8.092455e-001	-5.887009e-001
36743280.000	-8.092967e-001	-5.885756e-001
36749274.000	-8.093452e-001	-5.885758e-001
36755268.000	-8.094380e-001	-5.884834e-001
36761262.000	-8.094959e-001	-5.884494e-001
36767256.000	-8.095458e-001	-5.883402e-001
36773250.000	-8.096083e-001	-5.882635e-001
36779244.000	-8.096668e-001	-5.882028e-001
36785238.000	-8.097090e-001	-5.881073e-001
36791232.000	-8.097170e-001	-5.880008e-001
36797226.000	-8.098281e-001	-5.879846e-001
36803220.000	-8.098769e-001	-5.879085e-001
36809214.000	-8.099251e-001	-5.878435e-001
36815208.000	-8.099418e-001	-5.877349e-001
36821202.000	-8.099976e-001	-5.876338e-001
36827196.000	-8.101020e-001	-5.876046e-001
36833190.000	-8.101133e-001	-5.874805e-001
36839184.000	-8.102145e-001	-5.874099e-001
36845178.000	-8.102704e-001	-5.873282e-001
36851172.000	-8.102850e-001	-5.872551e-001
36857166.000	-8.103307e-001	-5.872117e-001
36863160.000	-8.104198e-001	-5.870979e-001
36869154.000	-8.104603e-001	-5.870485e-001
36875148.000	-8.105255e-001	-5.869226e-001
36881142.000	-8.105536e-001	-5.868459e-001
36887136.000	-8.106274e-001	-5.868098e-001
36893130.000	-8.106969e-001	-5.866910e-001
36899124.000	-8.107246e-001	-5.865988e-001
36905118.000	-8.107547e-001	-5.865835e-001
36911112.000	-8.108514e-001	-5.865006e-001
36917106.000	-8.108524e-001	-5.863885e-001
36923100.000	-8.109322e-001	-5.863020e-001
36929094.000	-8.109713e-001	-5.862631e-001
36935088.000	-8.110329e-001	-5.861926e-001
36941082.000	-8.110653e-001	-5.860944e-001
36947076.000	-8.111020e-001	-5.859911e-001
36953070.000	-8.111961e-001	-5.859530e-001
36959064.000	-8.112822e-001	-5.858572e-001
36965058.000	-8.113480e-001	-5.857568e-001
36971052.000	-8.113665e-001	-5.857336e-001
36977046.000	-8.114511e-001	-5.856457e-001
36983040.000	-8.114659e-001	-5.855721e-001
36989034.000	-8.115582e-001	-5.855337e-001
36995028.000	-8.115831e-001	-5.854082e-001
37001022.000	-8.116569e-001	-5.853217e-001
37007016.000	-8.116912e-001	-5.852400e-001
37013010.000	-8.117604e-001	-5.851871e-001
37019004.000	-8.118417e-001	-5.851547e-001
37024998.000	-8.118359e-001	-5.850263e-001
37030992.000	-8.118865e-001	-5.849180e-001
37036986.000	-8.119579e-001	-5.848661e-001
37042980.000	-8.120375e-001	-5.848038e-001
37048974.000	-8.120615e-001	-5.846967e-001
37054968.000	-8.120628e-001	-5.846276e-001
37060962.000	-8.121705e-001	-5.845691e-001
37066956.000	-8.122269e-001	-5.845329e-001
37072950.000	-8.123197e-001	-5.844194e-001
37078944.000	-8.122706e-001	-5.843723e-001
37084938.000	-8.123881e-001	-5.842341e-001
37090932.000	-8.124438e-001	-5.841701e-001
37096926.000	-8.125204e-001	-5.841207e-001
37102920.000	-8.125702e-001	-5.839965e-001
37108914.000	-8.125931e-001	-5.839647e-001
37114908.000	-8.126810e-001	-5.839051e-001
37120902.000	-8.127418e-001	-5.837950e-001
37126896.000	-8.127619e-001	-5.837424e-001
37132890.000	-8.128238e-001	-5.836803e-001
37138884.000	-8.128972e-001	-5.835342e-001
37144878.000	-8.129412e-001	-5.835304e-001
37150872.000	-8.130385e-001	-5.834498e-001
37156866.000	-8.130302e-001	-5.833408e-001
37162860.000	-8.131142e-001	-5.832429e-001
37168854.000	-8.131354e-001	-5.831855e-001
37174848.000	-8.131841e-001	-5.831479e-001
37180842.000	-8.132370e-001	-5.830308e-001
37186836.000	-8.133172e-001	-5.829567e-001
37192830.000	-8.133809e-001	-5.828853e-001
37198824.000	-8.134617e-001	-5.828161e-001
37204818.000	-8.134825e-001	-5.828023e-001
37210812.000	-8.135102e-001	-5.826847e-001
37216806.000	-8.136109e-001	-5.826318e-001
37222800.000	-8.136330e-001	-5.825535e-001
37228794.000	-8.136909e-001	-5.824797e-001
37234788.000	-8.137819e-001	-5.824534e-001
37240782.000	-8.138386e-001	-5.823082e-001
37246776.000	-8.138627e-001	-5.822876e-001
37252770.000	-8.139252e-001	-5.821610e-001
37258764.000	-8.139643e-001	-5.820542e-001
37264758.000	-8.139931e-001	-5.820849e-001
37270752.000	-8.141256e-001	-5.819768e-001
37276746.000	-8.141856e-001	-5.819125e-001
37282740.000	-8.141854e-001	-5.817618e-001
37288734.000	-8.142481e-001	-5.816713e-001
37294728.000	-8.142671e-001	-5.816299e-001
37300722.000	-8.143545e-001	-5.815609e-001
37306716.000	-8.143647e-001	-5.814991e-001
37312710.000	-8.144356e-001	-5.814268e-001
37318704.000	-8.144725e-001	-5.813264e-001
37324698.000	-8.145577e-001	-5.812591e-001
37330692.000	-8.146131e-001	-5.811943e-001
37336686.000	-8.146908e-001	-5.811141e-001
37342680.000	-8.146945e-001	-5.809997e-001
37348674.000	-8.147693e-001	-5.809463e-001
37354668.000	-8.147982e-001	-5.809212e-001
37360662.000	-8.148662e-001	-5.808329e-001
37366656.000	-8.149746e-001	-5.808013e-001
37372650.000	-8.150105e-001	-5.806577e-001
37378644.000	-8.149995e-001	-5.805946e-001
37384638.000	-8.151041e-001	-5.805631e-001
37390632.000	-8.151573e-001	-5.804260e-001
37396626.000	-8.151719e-001	-5.804119e-001
37402620.000	-8.152302e-001	-5.803035e-001
37408614.000	-8.153093e-001	-5.802056e-001
37414608.000	-8.153414e-001	-5.801723e-001
37420602.000	-8.153957e-001	-5.800424e-001
37426596.000	-8.154295e-001	-5.799780e-001
37432590.000	-8.154639e-001	-5.798443e-001
37438584.000	-8.154567e-001	-5.797687e-001
37444578.000	-8.155475e-001	-5.797491e-001
37450572.000	-8.156076e-001	-5.796703e-001
37456566.000	-8.156938e-001	-5.795691e-001
37462560.000	-8.157264e-001	-5.794916e-001
37468554.000	-8.157649e-001	-5.794086e-001
37474548.000	-8.158540e-001	-5.793476e-001
37480542.000	-8.158680e-001	-5.792749e-001
37486536.000	-8.159143e-001	-5.791549e-001
37492530.000	-8.159701e-001	-5.790990e-001
37498524.000	-8.160173e-001	-5.790541e-001
37504518.000	-8.161171e-001	-5.790258e-001
37510512.000	-8.161540e-001	-5.789663e-001
37516506.000	-8.162123e-001	-5.788522e-001
37522500.000	-8.162755e-001	-5.788100e-001
37528494.000	-8.163006e-001	-5.786776e-001
37534488.000	-8.163478e-001	-5.786672e-001
37540482.000	-8.164076e-001	-5.785690e-001
37546476.000	-8.164933e-001	-5.784965e-001
37552470.000	-8.165572e-001	-5.783946e-001
37558464.000	-8.165806e-001	-5.782855e-001
37564458.000	-8.166173e-001	-5.782273e-001
37570452.000	-8.166715e-001	-5.781475e-001
37576446.000	-8.167350e-001	-5.780702e-001
37582440.000	-8.167684e-001	-5.780041e-001
37588434.000	-8.168463e-001	-5.779722e-001
37594428.000	-8.168610e-001	-5.778876e-001
37600422.000	-8.169072e-001	-5.778021e-001
37606416.000	-8.169665e-001	-5.777429e-001
37612410.000	-8.170212e-001	-5.776686e-001
37618404.000	-8.170737e-001	-5.775374e-001
37624398.000	-8.170981e-001	-5.774884e-001
37630392.000	-8.171961e-001	-5.774074e-001
37636386.000	-8.172292e-001	-5.773524e-001
37642380.000	-8.172741e-001	-5.772600e-001
37648374.000	-8.173175e-001	-5.771825e-001
37654368.000	-8.173559e-001	-5.771222e-001
37660362.000	-8.174164e-001	-5.770758e-001
37666356.000	-8.175309e-001	-5.769698e-001
37672350.000	-8.176049e-001	-5.769261e-001
37678344.000	-8.176338e-001	-5.768204e-001
37684338.000	-8.176523e-001	-5.767732e-001
37690332.000	-8.177592e-001	-5.767197e-001
37696326.000	-8.177764e-001	-5.766360e-001
37702320.000	-8.178096e-001	-5.765050e-001
37708314.000	-8.179077e-001	-5.765073e-001
37714308.000	-8.179712e-001	-5.764415e-001
37720302.000	-8.179389e-001	-5.762784e-001
37726296.000	-8.180251e-001	-5.762089e-001
37732290.000	-8.180998e-001	-5.761766e-001
37738284.000	-8.181567e-001	-5.760584e-001
37744278.000	-8.181857e-001	-5.760485e-001
37750272.000	-8.182635e-001	-5.759281e-001
37756266.000	-8.183084e-001	-5.758696e-001
37762260.000	-8.183668e-001	-5.758033e-001
37768254.000	-8.183706e-001	-5.757239e-001
37774248.000	-8.184646e-001	-5.756609e-001
37780242.000	-8.184693e-001	-5.755815e-001
37786236.000	-8.185500e-001	-5.754946e-001
37792230.000	-8.186235e-001	-5.754860e-001
37798224.000	-8.186401e-001	-5.753638e-001
37804218.000	-8.187017e-001	-5.752973e-001
37810212.000	-8.187367e-001	-5.752466e-001
37816206.000	-8.188096e-001	-5.751271e-001
37822200.000	-8.188065e-001	-5.750206e-001
37828194.000	-8.188795e-001	-5.749648e-001
37834188.000	-8.189342e-001	-5.749446e-001
37840182.000	-8.190059e-001	-5.748309e-001
37846176.000	-8.190610e-001	-5.747502e-001
37852170.000	-8.191254e-001	-5.746876e-001
37858164.000	-8.191736e-001	-5.745783e-001
37864158.000	-8.191356e-001	-5.744894e-001
37870152.000	-8.192466e-001	-5.744841e-001
37876146.000	-8.192944e-001	-5.744029e-001
37882140.000	-8.193488e-001	-5.743217e-001
37888134.000	-8.194148e-001	-5.742734e-001
37894128.000	-8.195029e-001	-5.741789e-001
37900122.000	-8.194737e-001	-5.741119e-001
37906116.000	-8.195381e-001	-5.739669e-001
37912110.000	-8.196077e-001	-5.739247e-001
37918104.000	-8.196730e-001	-5.738742e-001
37924098.000	-8.196996e-001	-5.738312e-001
37930092.000	-8.197501e-001	-5.737758e-001
37936086.000	-8.198807e-001	-5.737062e-001
37942080.000	-8.198359e-001	-5.735906e-001
37948074.000	-8.199619e-001	-5.735100e-001
37954068.000	-8.199561e-001	-5.734752e-001
37960062.000	-8.200315e-001	-5.733792e-001
37966056.000	-8.201140e-001	-5.733575e-001
37972050.000	-8.201663e-001	-5.732908e-001
37978044.000	-8.202066e-001	-5.731551e-001
37984038.000	-8.202485e-001	-5.731333e-001
37990032.000	-8.203711e-001	-5.730294e-001
37996026.000	-8.203483e-001	-5.730059e-001
38002020.000	-8.204265e-001	-5.729088e-001
38008014.000	-8.204331e-001	-5.727993e-001
38014008.000	-8.204641e-001	-5.726961e-001
38020002.000	-8.205504e-001	-5.726936e-001
38025996.000	-8.206452e-001	-5.725704e-001
38031990.000	-8.206483e-001	-5.724920e-001
38037984.000	-8.206646e-001	-5.724252e-001
38043978.000	-8.206980e-001	-5.723563e-001
38049972.000	-8.207925e-001	-5.722589e-001
38055966.000	-8.208373e-001	-5.722340e-001
38061960.000	-8.209004e-001	-5.721841e-001
38067954.000	-8.209579e-001	-5.720599e-001
38073948.000	-8.210369e-001	-5.719499e-001
38079942.000	-8.210320e-001	-5.719415e-001
38085936.000	-8.210315e-001	-5.718361e-001
38091930.000	-8.211633e-001	-5.717678e-001
38097924.000	-8.211734e-001	-5.716746e-001
38103918.000	-8.212308e-001	-5.716350e-001
38109912.000	-8.212942e-001	-5.715901e-001
38115906.000	-8.213171e-001	-5.714659e-001
38121900.000	-8.214183e-001	-5.714061e-001
38127894.000	-8.214347e-001	-5.713465e-001
38133888.000	-8.214500e-001	-5.712518e-001
38139882.000	-8.215505e-001	-5.712003e-001
38145876.000	-8.216037e-001	-5.711349e-001
38151870.000	-8.216414e-001	-5.710154e-001
38157864.000	-8.216776e-001	-5.709691e-001
38163858.000	-8.217804e-001	-5.709111e-001
38169852.000	-8.217983e-001	-5.708525e-001
38175846.000	-8.218543e-001	-5.707918e-001
38181840.000	-8.219127e-001	-5.707174e-001
38187834.000	-8.219935e-001	-5.706185e-001
38193828.000	-8.219988e-001	-5.705138e-001
38199822.000	-8.220582e-001	-5.704614e-001
38205816.000	-8.221180e-001	-5.703255e-001
38211810.000	-8.221179e-001	-5.702881e-001
38217804.000	-8.222242e-001	-5.702236e-001
38223798.000	-8.222232e-001	-5.701895e-001
38229792.000	-8.222959e-001	-5.700849e-001
38235786.000	-8.223171e-001	-5.699675e-001
38241780.000	-8.223978e-001	-5.699664e-001
38247774.000	-8.224070e-001	-5.698240e-001
38253768.000	-8.224731e-001	-5.697856e-001
38259762.000	-8.225447e-001	-5.697189e-001
38265756.000	-8.225708e-001	-5.696667e-001
38271750.000	-8.226574e-001	-5.696106e-001
38277744.000	-8.226745e-001	-5.695383e-001
38283738.000	-8.227135e-001	-5.694565e-001
38289732.000	-8.227754e-001	-5.693777e-001
38295726.000	-8.228198e-001	-5.692961e-001
38301720.000	-8.228908e-001	-5.691899e-001
38307714.000	-8.229580e-001	-5.691487e-001
38313708.000	-8.229994e-001	-5.690989e-001
38319702.000	-8.230889e-001	-5.689697e-001
38325696.000	-8.230971e-001	-5.689072e-001
38331690.000	-8.231328e-001	-5.688756e-001
38337684.000	-8.232292e-001	-5.688195e-001
38343678.000	-8.232400e-001	-5.687199e-001
38349672.000	-8.232875e-001	-5.687053e-001
38355666.000	-8.233287e-001	-5.685798e-001
38361660.000	-8.234058e-001	-5.685306e-001
38367654.000	-8.235017e-001	-5.684131e-001
38373648.000	-8.235410e-001	-5.683682e-001
38379642.000	-8.235486e-001	-5.683466e-001
38385636.000	-8.236379e-001	-5.682414e-001
38391630.000	-8.236426e-001	-5.681890e-001
38397624.000	-8.237032e-001	-5.680935e-001
38403618.000	-8.237655e-001	-5.680019e-001
38409612.000	-8.237677e-001	-5.679370e-001
38415606.000	-8.238676e-001	-5.678645e-001
38421600.000	-8.239003e-001	-5.678235e-001
38427594.000	-8.239067e-001	-5.677130e-001
38433588.000	-8.240094e-001	-5.676701e-001
38439582.000	-8.240329e-001	-5.675922e-001
38445576.000	-8.240611e-001	-5.674859e-001
38451570.000	-8.241725e-001	-5.675243e-001
38457564.000	-8.241967e-001	-5.673698e-001
38463558.000	-8.242422e-001	-5.673013e-001
38469552.000	-8.242748e-001	-5.672335e-001
38475546.000	-8.243754e-001	-5.671812e-001
38481540.000	-8.243618e-001	-5.670681e-001
38487534.000	-8.244391e-001	-5.670559e-001
38493528.000	-8.245179e-001	-5.669375e-001
38499522.000	-8.244792e-001	-5.668968e-001
38505516.000	-8.245938e-001	-5.668107e-001
38511510.000	-8.246329e-001	-5.667239e-001
38517504.000	-8.246993e-001	-5.666254e-001
38523498.000	-8.247526e-001	-5.665865e-001
38529492.000	-8.247860e-001	-5.665048e-001
38535486.000	-8.248260e-001	-5.664514e-001
38541480.000	-8.248624e-001	-5.663981e-001
38547474.000	-8.249322e-001	-5.663113e-001
38553468.000	-8.249872e-001	-5.662125e-001
38559462.000	-8.249656e-001	-5.661597e-001
38565456.000	-8.250543e-001	-5.661067e-001
38571450.000	-8.251412e-001	-5.660330e-001
38577444.000	-8.251635e-001	-5.659744e-001
38583438.000	-8.252352e-001	-5.658908e-001
38589432.000	-8.252473e-001	-5.657485e-001
38595426.000	-8.252959e-001	-5.656839e-001
38601420.000	-8.253515e-001	-5.656753e-001
38607414.000	-8.253955e-001	-5.656364e-001
38613408.000	-8.254568e-001	-5.655236e-001
38619402.000	-8.255374e-001	-5.654623e-001
38625396.000	-8.256085e-001	-5.653908e-001
38631390.000	-8.256035e-001	-5.652745e-001
38637384.000	-8.255852e-001	-5.652122e-001
38643378.000	-8.257143e-001	-5.651758e-001
38649372.000	-8.257501e-001	-5.650575e-001
38655366.000	-8.258209e-001	-5.650171e-001
38661360.000	-8.258547e-001	-5.649444e-001
38667354.000	-8.258497e-001	-5.648522e-001
38673348.000	-8.259112e-001	-5.647679e-001
38679342.000	-8.259577e-001	-5.647062e-001
38685336.000	-8.260076e-001	-5.646289e-001
38691330.000	-8.260844e-001	-5.645336e-001
38697324.000	-8.261180e-001	-5.644745e-001
38703318.000	-8.261831e-001	-5.644292e-001
38709312.000	-8.261953e-001	-5.643553e-001
38715306.000	-8.262489e-001	-5.643214e-001
38721300.000	-8.263273e-001	-5.642373e-001
38727294.000	-8.263397e-001	-5.640945e-001
38733288.000	-8.263789e-001	-5.640415e-001
38739282.000	-8.264259e-001	-5.640051e-001
38745276.000	-8.265449e-001	-5.639403e-001
38751270.000	-8.265825e-001	-5.638870e-001
38757264.000	-8.266304e-001	-5.638088e-001
38763258.000	-8.266417e-001	-5.637107e-001
38769252.000	-8.267079e-001	-5.636165e-001
38775246.000	-8.267861e-001	-5.636036e-001
38781240.000	-8.267607e-001	-5.635087e-001
38787234.000	-8.267830e-001	-5.634272e-001
38793228.000	-8.268991e-001	-5.633306e-001
38799222.000	-8.269055e-001	-5.633105e-001
38805216.000	-8.270104e-001	-5.632465e-001
38811210.000	-8.270389e-001	-5.631677e-001
38817204.000	-8.271218e-001	-5.630889e-001
38823198.000	-8.271056e-001	-5.630153e-001
38829192.000	-8.271554e-001	-5.629169e-001
38835186.000	-8.272179e-001	-5.629286e-001
38841180.000	-8.272616e-001	-5.628240e-001
38847174.000	-8.273380e-001	-5.626927e-001
38853168.000	-8.273438e-001	-5.626721e-001
38859162.000	-8.274576e-001	-5.626247e-001
38865156.000	-8.274713e-001	-5.625180e-001
38871150.000	-8.275399e-001	-5.624805e-001
38877144.000	-8.275657e-001	-5.623906e-001
38883138.000	-8.276040e-001	-5.623376e-001
38889132.000	-8.276930e-001	-5.622833e-001
38895126.000	-8.276697e-001	-5.621294e-001
38901120.000	-8.277845e-001	-5.621424e-001
38907114.000	-8.277928e-001	-5.620357e-001
38913108.000	-8.278595e-001	-5.619744e-001
38919102.000	-8.278863e-001	-5.618708e-001
38925096.000	-8.279800e-001	-5.618406e-001
38931090.000	-8.279748e-001	-5.617922e-001
38937084.000	-8.280276e-001	-5.616911e-001
38943078.000	-8.280404e-001	-5.615716e-001
38949072.000	-8.281033e-001	-5.615031e-001
38955066.000	-8.281566e-001	-5.614579e-001
38961060.000	-8.282392e-001	-5.614222e-001
38967054.000	-8.283017e-001	-5.613189e-001
38973048.000	-8.283446e-001	-5.612573e-001
38979042.000	-8.284097e-001	-5.611785e-001
38985036.000	-8.283433e-001	-5.611087e-001
38991030.000	-8.284181e-001	-5.610314e-001
38997024.000	-8.284889e-001	-5.610154e-001
39003018.000	-8.285486e-001	-5.608602e-001
39009012.000	-8.285692e-001	-5.608497e-001
39015006.000	-8.286438e-001	-5.607550e-001
39021000.000	-8.287354e-001	-5.607367e-001
39026994.000	-8.287304e-001	-5.606150e-001
39032988.000	-8.287639e-001	-5.605732e-001
39038982.000	-8.288034e-001	-5.604673e-001
39044976.000	-8.288888e-001	-5.603660e-001
39050970.000	-8.289051e-001	-5.603359e-001
39056964.000	-8.289790e-001	-5.602570e-001
39062958.000	-8.290015e-001	-5.602114e-001
39068952.000	-8.291022e-001	-5.601753e-001
39074946.000	-8.291601e-001	-5.600351e-001
39080940.000	-8.291440e-001	-5.599868e-001
39086934.000	-8.291932e-001	-5.599042e-001
39092928.000	-8.292106e-001	-5.598349e-001
39098922.000	-8.293008e-001	-5.597783e-001
39104916.000	-8.293112e-001	-5.596706e-001
39110910.000	-8.293732e-001	-5.596222e-001
39116904.000	-8.294533e-001	-5.595460e-001
39122898.000	-8.295057e-001	-5.594797e-001
39128892.000	-8.295162e-001	-5.594226e-001
39134886.000	-8.295888e-001	-5.593619e-001
39140880.000	-8.296142e-001	-5.592862e-001
39146874.000	-8.296397e-001	-5.592049e-001
39152868.000	-8.297205e-001	-5.591481e-001
39158862.000	-8.297553e-001	-5.590682e-001
39164856.000	-8.298190e-001	-5.589500e-001
39170850.000	-8.298851e-001	-5.588957e-001
39176844.000	-8.299312e-001	-5.588242e-001
39182838.000	-8.299109e-001	-5.587961e-001
39188832.000	-8.300158e-001	-5.587592e-001
39194826.000	-8.300486e-001	-5.586607e-001
39200820.000	-8.301367e-001	-5.586097e-001
39206814.000	-8.301644e-001	-5.585633e-001
39212808.000	-8.301932e-001	-5.584747e-001
39218802.000	-8.302295e-001	-5.583688e-001
39224796.000	-8.302581e-001	-5.582730e-001
39230790.000	-8.303040e-001	-5.582023e-001
39236784.000	-8.304011e-001	-5.581600e-001
39242778.000	-8.303945e-001	-5.580814e-001
39248772.000	-8.304636e-001	-5.579959e-001
39254766.000	-8.304849e-001	-5.579327e-001
39260760.000	-8.305696e-001	-5.578599e-001
39266754.000	-8.306539e-001	-5.578538e-001
39272748.000	-8.306933e-001	-5.577497e-001
39278742.000	-8.307144e-001	-5.576685e-001
39284736.000	-8.307276e-001	-5.576034e-001
39290730.000	-8.307574e-001	-5.575175e-001
39296724.000	-8.308572e-001	-5.574867e-001
39302718.000	-8.308714e-001	-5.574125e-001
39308712.000	-8.309090e-001	-5.573169e-001
39314706.000	-8.309732e-001	-5.572484e-001
39320700.000	-8.309984e-001	-5.571653e-001
39326694.000	-8.310417e-001	-5.570860e-001
39332688.000	-8.311302e-001	-5.570840e-001
39338682.000	-8.311439e-001	-5.569829e-001
39344676.000	-8.311600e-001	-5.568911e-001
39350670.000	-8.312670e-001	-5.568780e-001
39356664.000	-8.313167e-001	-5.568148e-001
39362658.000	-8.313250e-001	-5.566838e-001
39368652.000	-8.314002e-001	-5.566490e-001
39374646.000	-8.314427e-001	-5.565680e-001
39380640.000	-8.314712e-001	-5.565136e-001
39386634.000	-8.314740e-001	-5.563483e-001
39392628.000	-8.315596e-001	-5.563501e-001
39398622.000	-8.316829e-001	-5.563141e-001
39404616.000	-8.316487e-001	-5.561860e-001
39410610.000	-8.317099e-001	-5.561485e-001
39416604.000	-8.317432e-001	-5.560866e-001
39422598.000	-8.318053e-001	-5.560210e-001
39428592.000	-8.318253e-001	-5.559271e-001
39434586.000	-8.318687e-001	-5.558801e-001
39440580.000	-8.319128e-001	-5.557876e-001
39446574.000	-8.320060e-001	-5.556935e-001
39452568.000	-8.321099e-001	-5.556547e-001
39458562.000	-8.320671e-001	-5.556540e-001
39464556.000	-8.321375e-001	-5.555245e-001
39470550.000	-8.321663e-001	-5.554670e-001
39476544.000	-8.322230e-001	-5.553774e-001
39482538.000	-8.322674e-001	-5.553396e-001
39488532.000	-8.323146e-001	-5.552685e-001
39494526.000	-8.323420e-001	-5.551420e-001
39500520.000	-8.324168e-001	-5.551045e-001
39506514.000	-8.324376e-001	-5.550319e-001
39512508.000	-8.325049e-001	-5.549798e-001
39518502.000	-8.325184e-001	-5.548952e-001
39524496.000	-8.325896e-001	-5.548834e-001
39530490.000	-8.326060e-001	-5.547515e-001
39536484.000	-8.326830e-001	-5.546793e-001
39542478.000	-8.326637e-001	-5.546150e-001
39548472.000	-8.327214e-001	-5.545417e-001
39554466.000	-8.327946e-001	-5.544606e-001
39560460.000	-8.328559e-001	-5.544215e-001
39566454.000	-8.329115e-001	-5.542959e-001
39572448.000	-8.329553e-001	-5.542674e-001
39578442.000	-8.330160e-001	-5.542230e-001
39584436.000	-8.330762e-001	-5.541365e-001
39590430.000	-8.330497e-001	-5.540553e-001
39596424.000	-8.331509e-001	-5.539912e-001
39602418.000	-8.331247e-001	-5.538940e-001
39608412.000	-8.332319e-001	-5.538824e-001
39614406.000	-8.332626e-001	-5.537983e-001
39620400.000	-8.333599e-001	-5.537086e-001
39626394.000	-8.333809e-001	-5.536665e-001
39632388.000	-8.333749e-001	-5.535565e-001
39638382.000	-8.334150e-001	-5.534932e-001
39644376.000	-8.334813e-001	-5.534547e-001
39650370.000	-8.335453e-001	-5.534117e-001
39656364.000	-8.336202e-001	-5.533163e-001
39662358.000	-8.336819e-001	-5.532593e-001
39668352.000	-8.336597e-001	-5.531850e-001
39674346.000	-8.337184e-001	-5.530784e-001
39680340.000	-8.337390e-001	-5.530306e-001
39686334.000	-8.337983e-001	-5.529683e-001
39692328.000	-8.338247e-001	-5.528920e-001
39698322.000	-8.338903e-001	-5.528085e-001
39704316.000	-8.339011e-001	-5.527209e-001
39710310.000	-8.339613e-001	-5.526949e-001
39716304.000	-8.340263e-001	-5.525912e-001
39722298.000	-8.340968e-001	-5.525597e-001
39728292.000	-8.341144e-001	-5.524985e-001
39734286.000	-8.341885e-001	-5.524599e-001
39740280.000	-8.341941e-001	-5.523408e-001
39746274.000	-8.342060e-001	-5.522366e-001
39752268.000	-8.342790e-001	-5.522085e-001
39758262.000	-8.343315e-001	-5.521453e-001
39764256.000	-8.344164e-001	-5.520437e-001
39770250.000	-8.343978e-001	-5.519872e-001
39776244.000	-8.344573e-001	-5.519257e-001
39782238.000	-8.344829e-001	-5.518323e-001
39788232.000	-8.345405e-001	-5.518043e-001
39794226.000	-8.345749e-001	-5.517040e-001
39800220.000	-8.346540e-001	-5.517117e-001
39806214.000	-8.346877e-001	-5.515869e-001
39812208.000	-8.347172e-001	-5.514785e-001
39818202.000	-8.347594e-001	-5.514166e-001
39824196.000	-8.348440e-001	-5.513991e-001
39830190.000	-8.348662e-001	-5.513336e-001
39836184.000	-8.349275e-001	-5.512409e-001
39842178.000	-8.349780e-001	-5.511620e-001
39848172.000	-8.350485e-001	-5.511213e-001
39854166.000	-8.350542e-001	-5.510484e-001
39860160.000	-8.351642e-001	-5.510396e-001
39866154.000	-8.351998e-001	-5.509629e-001
39872148.000	-8.351822e-001	-5.508147e-001
39878142.000	-8.352835e-001	-5.508227e-001
39884136.000	-8.352967e-001	-5.507125e-001
39890130.000	-8.353489e-001	-5.506822e-001
39896124.000	-8.354132e-001	-5.506536e-001
39902118.000	-8.354391e-001	-5.505495e-001
39908112.000	-8.354891e-001	-5.504850e-001
39914106.000	-8.355464e-001	-5.504424e-001
39920100.000	-8.355975e-001	-5.503646e-001
39926094.000	-8.355781e-001	-5.502430e-001
39932088.000	-8.356356e-001	-5.502396e-001
39938082.000	-8.356938e-001	-5.500738e-001
39944076.000	-8.357282e-001	-5.500930e-001
39950070.000	-8.357839e-001	-5.500278e-001
39956064.000	-8.358361e-001	-5.498829e-001
39962058.000	-8.358360e-001	-5.498200e-001
39968052.000	-8.358649e-001	-5.497629e-001
39974046.000	-8.359810e-001	-5.496866e-001
39980040.000	-8.359720e-001	-5.496206e-001
39986034.000	-8.360374e-001	-5.495374e-001
39992028.000	-8.360770e-001	-5.494814e-001
39998022.000	-8.360878e-001	-5.493973e-001
40004016.000	-8.361790e-001	-5.493668e-001
40010010.000	-8.361910e-001	-5.492753e-001
40016004.000	-8.362930e-001	-5.492340e-001
40021998.000	-8.363124e-001	-5.491957e-001
40027992.000	-8.363618e-001	-5.490584e-001
40033986.000	-8.364214e-001	-5.490262e-001
40039980.000	-8.364285e-001	-5.489905e-001
40045974.000	-8.364742e-001	-5.488793e-001
40051968.000	-8.365441e-001	-5.488186e-001
40057962.000	-8.365765e-001	-5.488086e-001
40063956.000	-8.366211e-001	-5.486630e-001
40069950.000	-8.366303e-001	-5.485713e-001
40075944.000	-8.367182e-001	-5.485524e-001
40081938.000	-8.367568e-001	-5.485048e-001
40087932.000	-8.367865e-001	-5.484345e-001
40093926.000	-8.368436e-001	-5.483724e-001
40099920.000	-8.368982e-001	-5.483254e-001
40105914.000	-8.369361e-001	-5.482530e-001
40111908.000	-8.370029e-001	-5.481528e-001
40117902.000	-8.369959e-001	-5.480896e-001
40123896.000	-8.370507e-001	-5.480317e-001
40129890.000	-8.370819e-001	-5.479602e-001
40135884.000	-8.371665e-001	-5.479406e-001
40141878.000	-8.371782e-001	-5.478234e-001
40147872.000	-8.372379e-001	-5.477369e-001
40153866.000	-8.372797e-001	-5.476332e-001
40159860.000	-8.373178e-001	-5.476015e-001
40165854.000	-8.373201e-001	-5.475197e-001
40171848.000	-8.373846e-001	-5.475059e-001
40177842.000	-8.374382e-001	-5.473906e-001
40183836.000	-8.374934e-001	-5.473575e-001
40189830.000	-8.375585e-001	-5.472591e-001
40195824.000	-8.375514e-001	-5.471855e-001
40201818.000	-8.376220e-001	-5.471195e-001
40207812.000	-8.376632e-001	-5.470606e-001
40213806.000	-8.377112e-001	-5.470539e-001
40219800.000	-8.377736e-001	-5.469494e-001
40225794.000	-8.378283e-001	-5.469273e-001
40231788.000	-8.378118e-001	-5.467755e-001
40237782.000	-8.379123e-001	-5.467607e-001
40243776.000	-8.379940e-001	-5.466930e-001
40249770.000	-8.379623e-001	-5.465716e-001
40255764.000	-8.380013e-001	-5.465440e-001
40261758.000	-8.380765e-001	-5.464912e-001
40267752.000	-8.381223e-001	-5.464495e-001
40273746.000	-8.381325e-001	-5.462814e-001
40279740.000	-8.382012e-001	-5.462236e-001
40285734.000	-8.382333e-001	-5.462033e-001
40291728.000	-8.382746e-001	-5.461534e-001
40297722.000	-8.383440e-001	-5.460698e-001
40303716.000	-8.383255e-001	-5.460066e-001
40309710.000	-8.383633e-001	-5.458786e-001
40315704.000	-8.384275e-001	-5.458656e-001
40321698.000	-8.385011e-001	-5.457698e-001
40327692.000	-8.385634e-001	-5.457521e-001
40333686.000	-8.386046e-001	-5.456631e-001
40339680.000	-8.386297e-001	-5.456067e-001
40345674.000	-8.386790e-001	-5.455163e-001
40351668.000	-8.387061e-001	-5.454743e-001
40357662.000	-8.387686e-001	-5.454250e-001
40363656.000	-8.387586e-001	-5.452784e-001
40369650.000	-8.388876e-001	-5.452668e-001
40375644.000	-8.388968e-001	-5.452433e-001
40381638.000	-8.389583e-001	-5.451396e-001
40387632.000	-8.389835e-001	-5.450735e-001
40393626.000	-8.390377e-001	-5.450234e-001
40399620.000	-8.390233e-001	-5.449272e-001
40405614.000	-8.390897e-001	-5.448915e-001
40411608.000	-8.391542e-001	-5.447922e-001
40417602.000	-8.392257e-001	-5.447193e-001
40423596.000	-8.392115e-001	-5.445990e-001
40429590.000	-8.392451e-001	-5.445959e-001
40435584.000	-8.392982e-001	-5.444913e-001
40441578.000	-8.393303e-001	-5.444538e-001
40447572.000	-8.393912e-001	-5.444454e-001
40453566.000	-8.394846e-001	-5.443282e-001
40459560.000	-8.394541e-001	-5.442353e-001
40465554.000	-8.395613e-001	-5.442487e-001
40471548.000	-8.395427e-001	-5.441649e-001
40477542.000	-8.396094e-001	-5.440702e-001
40483536.000	-8.396733e-001	-5.439861e-001
40489530.000	-8.396692e-001	-5.439306e-001
40495524.000	-8.397171e-001	-5.438704e-001
40501518.000	-8.398075e-001	-5.437669e-001
40507512.000	-8.398835e-001	-5.437729e-001
40513506.000	-8.399109e-001	-5.436829e-001
40519500.000	-8.399656e-001	-5.436739e-001
40525494.000	-8.400129e-001	-5.435494e-001
40531488.000	-8.400018e-001	-5.435000e-001
40537482.000	-8.400394e-001	-5.434082e-001
40543476.000	-8.400756e-001	-5.433081e-001
40549470.000	-8.401322e-001	-5.433117e-001
40555464.000	-8.401324e-001	-5.431635e-001
40561458.000	-8.401835e-001	-5.430757e-001
40567452.000	-8.402034e-001	-5.430441e-001
40573446.000	-8.402494e-001	-5.429673e-001
40579440.000	-8.403293e-001	-5.428802e-001
40585434.000	-8.403951e-001	-5.428789e-001
40591428.000	-8.404362e-001	-5.428240e-001
40597422.000	-8.404806e-001	-5.427075e-001
40603416.000	-8.405145e-001	-5.426893e-001
40609410.000	-8.405298e-001	-5.425952e-001
40615404.000	-8.405876e-001	-5.424907e-001
40621398.000	-8.406319e-001	-5.424738e-001
40627392.000	-8.406917e-001	-5.423650e-001
40633386.000	-8.407053e-001	-5.423078e-001
40639380.000	-8.407202e-001	-5.422136e-001
40645374.000	-8.408007e-001	-5.421985e-001
40651368.000	-8.408237e-001	-5.421573e-001
40657362.000	-8.408829e-001	-5.420820e-001
40663356.000	-8.409412e-001	-5.419947e-001
40669350.000	-8.409375e-001	-5.419074e-001
40675344.000	-8.409832e-001	-5.418390e-001
40681338.000	-8.410345e-001	-5.418355e-001
40687332.000	-8.411033e-001	-5.417599e-001
40693326.000	-8.411367e-001	-5.416555e-001
40699320.000	-8.411909e-001	-5.416147e-001
40705314.000	-8.412083e-001	-5.415355e-001
40711308.000	-8.412272e-001	-5.414842e-001
40717302.000	-8.413353e-001	-5.413937e-001
40723296.000	-8.413899e-001	-5.413575e-001
40729290.000	-8.413465e-001	-5.412798e-001
40735284.000	-8.414727e-001	-5.412021e-001
40741278.000	-8.414269e-001	-5.411083e-001
40747272.000	-8.415106e-001	-5.411012e-001
40753266.000	-8.415418e-001	-5.409978e-001
40759260.000	-8.416322e-001	-5.409565e-001
40765254.000	-8.416207e-001	-5.408825e-001
40771248.000	-8.417356e-001	-5.408878e-001
40777242.000	-8.417186e-001	-5.407369e-001
40783236.000	-8.417875e-001	-5.406729e-001
40789230.000	-8.418172e-001	-5.405915e-001
40795224.000	-8.418761e-001	-5.405287e-001
40801218.000	-8.418887e-001	-5.404926e-001
40807212.000	-8.419064e-001	-5.403876e-001
40813206.000	-8.419744e-001	-5.403527e-001
40819200.000	-8.420302e-001	-5.402804e-001
40825194.000	-8.420514e-001	-5.401767e-001
40831188.000	-8.421236e-001	-5.401483e-001
40837182.000	-8.421280e-001	-5.401102e-001
40843176.000	-8.421795e-001	-5.400515e-001
40849170.000	-8.422453e-001	-5.399633e-001
40855164.000	-8.422929e-001	-5.399034e-001
40861158.000	-8.422800e-001	-5.398121e-001
40867152.000	-8.422887e-001	-5.397680e-001
40873146.000	-8.423923e-001	-5.396873e-001
40879140.000	-8.424303e-001	-5.396255e-001
40885134.000	-8.424694e-001	-5.395609e-001
40891128.000	-8.425115e-001	-5.394747e-001
40897122.000	-8.425856e-001	-5.394112e-001
40903116.000	-8.425391e-001	-5.393530e-001
40909110.000	-8.426384e-001	-5.392720e-001
40915104.000	-8.426458e-001	-5.392345e-001
40921098.000	-8.427401e-001	-5.391277e-001
40927092.000	-8.427730e-001	-5.391324e-001
40933086.000	-8.427972e-001	-5.390109e-001
40939080.000	-8.428702e-001	-5.389102e-001
40945074.000	-8.428796e-001	-5.388410e-001
40951068.000	-8.429153e-001	-5.388141e-001
40957062.000	-8.429639e-001	-5.387310e-001
40963056.000	-8.430160e-001	-5.386843e-001
40969050.000	-8.430058e-001	-5.385851e-001
40975044.000	-8.430711e-001	-5.385455e-001
40981038.000	-8.430734e-001	-5.384743e-001
40987032.000	-8.431963e-001	-5.384233e-001
40993026.000	-8.431909e-001	-5.383162e-001
40999020.000	-8.432318e-001	-5.383213e-001
41005014.000	-8.432236e-001	-5.382366e-001
41011008.000	-8.433111e-001	-5.381954e-001
41017002.000	-8.433507e-001	-5.380925e-001
41022996.000	-8.433958e-001	-5.380423e-001
41028990.000	-8.434573e-001	-5.379834e-001
41034984.000	-8.435023e-001	-5.378727e-001
41040978.000	-8.435513e-001	-5.378405e-001
41046972.000	-8.436116e-001	-5.378080e-001
41052966.000	-8.435867e-001	-5.376600e-001
41058960.000	-8.436434e-001	-5.376201e-001
41064954.000	-8.437128e-001	-5.376093e-001
41070948.000	-8.437562e-001	-5.375248e-001
41076942.000	-8.437405e-001	-5.374505e-001
41082936.000	-8.438116e-001	-5.373925e-001
41088930.000	-8.438657e-001	-5.373154e-001
41094924.000	-8.439153e-001	-5.372882e-001
41100918.000	-8.439221e-001	-5.371625e-001
41106912.000	-8.439770e-001	-5.371019e-001
41112906.000	-8.439954e-001	-5.370399e-001
41118900.000	-8.441061e-001	-5.369757e-001
41124894.000	-8.441133e-001	-5.369329e-001
41130888.000	-8.441670e-001	-5.368515e-001
41136882.000	-8.441817e-001	-5.367965e-001
41142876.000	-8.442138e-001	-5.367136e-001
41148870.000	-8.442270e-001	-5.365988e-001
41154864.000	-8.442900e-001	-5.365986e-001
41160858.000	-8.443459e-001	-5.365111e-001
41166852.000	-8.443761e-001	-5.364641e-001
41172846.000	-8.443802e-001	-5.363959e-001
41178840.000	-8.444214e-001	-5.363132e-001
41184834.000	-8.444770e-001	-5.362211e-001
41190828.000	-8.445422e-001	-5.361596e-001
41196822.000	-8.445940e-001	-5.361089e-001
41202816.000	-8.446202e-001	-5.360777e-001
41208810.000	-8.446624e-001	-5.359835e-001
41214804.000	-8.447542e-001	-5.359700e-001
41220798.000	-8.447447e-001	-5.358852e-001
41226792.000	-8.448301e-001	-5.357953e-001
41232786.000	-8.448316e-001	-5.357788e-001
41238780.000	-8.448945e-001	-5.357038e-001
41244774.000	-8.449406e-001	-5.356312e-001
41250768.000	-8.449652e-001	-5.355321e-001
41256762.000	-8.450427e-001	-5.355107e-001
41262756.000	-8.450506e-001	-5.354592e-001
41268750.000	-8.450905e-001	-5.353602e-001
41274744.000	-8.451145e-001	-5.353092e-001
41280738.000	-8.451915e-001	-5.352119e-001
41286732.000	-8.452264e-001	-5.351519e-001
41292726.000	-8.452630e-001	-5.350457e-001
41298720.000	-8.452450e-001	-5.350591e-001
41304714.000	-8.452961e-001	-5.350039e-001
41310708.000	-8.453674e-001	-5.349081e-001
41316702.000	-8.454216e-001	-5.348893e-001
41322696.000	-8.454115e-001	-5.347616e-001
41328690.000	-8.454609e-001	-5.347751e-001
41334684.000	-8.455421e-001	-5.346871e-001
41340678.000	-8.455462e-001	-5.345900e-001
41346672.000	-8.456345e-001	-5.345090e-001
41352666.000	-8.456708e-001	-5.345080e-001
41358660.000	-8.457105e-001	-5.344198e-001
41364654.000	-8.457243e-001	-5.343412e-001
41370648.000	-8.457984e-001	-5.342643e-001
41376642.000	-8.458080e-001	-5.342456e-001
41382636.000	-8.457959e-001	-5.341479e-001
41388630.000	-8.458942e-001	-5.340649e-001
41394624.000	-8.459460e-001	-5.339982e-001
41400618.000	-8.459413e-001	-5.339190e-001
41406612.000	-8.459598e-001	-5.338567e-001
41412606.000	-8.460889e-001	-5.338519e-001
41418600.000	-8.460942e-001	-5.337552e-001
41424594.000	-8.461485e-001	-5.336575e-001
41430588.000	-8.462154e-001	-5.336525e-001
41436582.000	-8.462026e-001	-5.335360e-001
41442576.000	-8.462988e-001	-5.334778e-001
41448570.000	-8.462934e-001	-5.333999e-001
41454564.000	-8.462920e-001	-5.333373e-001
41460558.000	-8.463715e-001	-5.333240e-001
41466552.000	-8.464093e-001	-5.331924e-001
41472546.000	-8.464292e-001	-5.332128e-001
41478540.000	-8.465138e-001	-5.330588e-001
41484534.000	-8.465605e-001	-5.330977e-001
41490528.000	-8.465934e-001	-5.329770e-001
41496522.000	-8.466109e-001	-5.328784e-001
41502516.000	-8.466653e-001	-5.329167e-001
41508510.000	-8.467070e-001	-5.327328e-001
41514504.000	-8.467638e-001	-5.327090e-001
41520498.000	-8.466865e-001	-5.326369e-001
41526492.000	-8.467821e-001	-5.325671e-001
41532486.000	-8.468323e-001	-5.324896e-001
41538480.000	-8.469185e-001	-5.324579e-001
41544474.000	-8.469346e-001	-5.323954e-001
41550468.000	-8.469474e-001	-5.323460e-001
41556462.000	-8.470125e-001	-5.323014e-001
41562456.000	-8.470816e-001	-5.321969e-001
41568450.000	-8.470913e-001	-5.321707e-001
41574444.000	-8.471224e-001	-5.320580e-001
41580438.000	-8.471822e-001	-5.320393e-001
41586432.000	-8.471745e-001	-5.319449e-001
41592426.000	-8.472813e-001	-5.319300e-001
41598420.000	-8.472812e-001	-5.318184e-001
41604414.000	-8.473341e-001	-5.317180e-001
41610408.000	-8.473611e-001	-5.316748e-001
41616402.000	-8.474069e-001	-5.316380e-001
41622396.000	-8.474243e-001	-5.315248e-001
41628390.000	-8.475330e-001	-5.314995e-001
41634384.000	-8.475579e-001	-5.314356e-001
41640378.000	-8.475339e-001	-5.313600e-001
41646372.000	-8.476686e-001	-5.313045e-001
41652366.000	-8.476590e-001	-5.312764e-001
41658360.000	-8.476778e-001	-5.311932e-001
41664354.000	-8.477074e-001	-5.310906e-001
41670348.000	-8.477196e-001	-5.310444e-001
41676342.000	-8.477569e-001	-5.309959e-001
41682336.000	-8.478838e-001	-5.308984e-001
41688330.000	-8.478643e-001	-5.308817e-001
41694324.000	-8.479202e-001	-5.308150e-001
41700318.000	-8.479264e-001	-5.306902e-001
41706312.000	-8.480174e-001	-5.306533e-001
41712306.000	-8.480578e-001	-5.306028e-001
41718300.000	-8.480768e-001	-5.305636e-001
41724294.000	-8.481313e-001	-5.304786e-001
41730288.000	-8.481299e-001	-5.303807e-001
41736282.000	-8.482158e-001	-5.303600e-001
41742276.000	-8.482375e-001	-5.302896e-001
41748270.000	-8.482740e-001	-5.302160e-001
41754264.000	-8.483026e-001	-5.302121e-001
41760258.000	-8.483493e-001	-5.300976e-001
41766252.000	-8.484046e-001	-5.300722e-001
41772246.000	-8.484180e-001	-5.299660e-001
41778240.000	-8.484428e-001	-5.299285e-001
41784234.000	-8.484543e-001	-5.298329e-001
41790228.000	-8.485495e-001	-5.298051e-001
41796222.000	-8.485692e-001	-5.297416e-001
41802216.000	-8.486194e-001	-5.296239e-001
41808210.000	-8.486733e-001	-5.295706e-001
41814204.000	-8.486662e-001	-5.295383e-001
41820198.000	-8.487521e-001	-5.294496e-001
41826192.000	-8.487709e-001	-5.294065e-001
41832186.000	-8.488521e-001	-5.293728e-001
41838180.000	-8.488319e-001	-5.292603e-001
41844174.000	-8.488508e-001	-5.291746e-001
41850168.000	-8.489651e-001	-5.291400e-001
41856162.000	-8.489771e-001	-5.290778e-001
41862156.000	-8.489838e-001	-5.290094e-001
41868150.000	-8.490708e-001	-5.289654e-001
41874144.000	-8.491193e-001	-5.288755e-001
41880138.000	-8.491706e-001	-5.288728e-001
41886132.000	-8.492024e-001	-5.287444e-001
41892126.000	-8.492204e-001	-5.287455e-001
41898120.000	-8.492533e-001	-5.286254e-001
41904114.000	-8.492579e-001	-5.285908e-001
41910108.000	-8.493277e-001	-5.285552e-001
41916102.000	-8.493696e-001	-5.284743e-001
41922096.000	-8.493931e-001	-5.283607e-001
41928090.000	-8.494255e-001	-5.283187e-001
41934084.000	-8.494832e-001	-5.282847e-001
41940078.000	-8.495127e-001	-5.282269e-001
41946072.000	-8.495680e-001	-5.280684e-001
41952066.000	-8.496050e-001	-5.280994e-001
41958060.000	-8.495810e-001	-5.280190e-001
41964054.000	-8.496357e-001	-5.278917e-001
41970048.000	-8.497326e-001	-5.278821e-001
41976042.000	-8.497268e-001	-5.278334e-001
41982036.000	-8.497738e-001	-5.277201e-001
41988030.000	-8.498275e-001	-5.276606e-001
41994024.000	-8.498552e-001	-5.276138e-001
42000018.000	-8.499248e-001	-5.275401e-001
42006012.000	-8.499341e-001	-5.275269e-001
42012006.000	-8.499862e-001	-5.274014e-001
42018000.000	-8.500610e-001	-5.274237e-001
42023994.000	-8.500654e-001	-5.273455e-001
42029988.000	-8.501076e-001	-5.272664e-001
42035982.000	-8.501249e-001	-5.271580e-001
42041976.000	-8.501864e-001	-5.271229e-001
42047970.000	-8.502412e-001	-5.270631e-001
42053964.000	-8.502594e-001	-5.269793e-001
42059958.000	-8.502741e-001	-5.269525e-001
42065952.000	-8.503531e-001	-5.268732e-001
42071946.000	-8.504076e-001	-5.267775e-001
42077940.000	-8.504184e-001	-5.267363e-001
42083934.000	-8.504299e-001	-5.266396e-001
42089928.000	-8.504843e-001	-5.266208e-001
42095922.000	-8.504962e-001	-5.265286e-001
42101916.000	-8.505588e-001	-5.264539e-001
42107910.000	-8.506363e-001	-5.264300e-001
42113904.000	-8.506253e-001	-5.263374e-001
42119898.000	-8.506840e-001	-5.262676e-001
42125892.000	-8.507261e-001	-5.262328e-001
42131886.000	-8.507206e-001	-5.261720e-001
42137880.000	-8.508164e-001	-5.261321e-001
42143874.000	-8.508445e-001	-5.260461e-001
42149868.000	-8.509060e-001	-5.260308e-001
42155862.000	-8.509483e-001	-5.259305e-001
42161856.000	-8.509263e-001	-5.258437e-001
42167850.000	-8.509684e-001	-5.258210e-001
42173844.000	-8.510277e-001	-5.257687e-001
42179838.000	-8.511045e-001	-5.256556e-001
42185832.000	-8.511504e-001	-5.256529e-001
42191826.000	-8.511322e-001	-5.255997e-001
42197820.000	-8.511865e-001	-5.254889e-001
42203814.000	-8.512374e-001	-5.254574e-001
42209808.000	-8.513087e-001	-5.254210e-001
42215802.000	-8.513297e-001	-5.253131e-001
42221796.000	-8.513399e-001	-5.252387e-001
42227790.000	-8.513732e-001	-5.251690e-001
42233784.000	-8.513993e-001	-5.251055e-001
42239778.000	-8.514471e-001	-5.250439e-001
42245772.000	-8.514843e-001	-5.250055e-001
42251766.000	-8.515027e-001	-5.249269e-001
42257760.000	-8.515840e-001	-5.248859e-001
42263754.000	-8.515874e-001	-5.248212e-001
42269748.000	-8.516595e-001	-5.247568e-001
42275742.000	-8.516700e-001	-5.246176e-001
42281736.000	-8.516862e-001	-5.245871e-001
42287730.000	-8.517412e-001	-5.245565e-001
42293724.000	-8.518055e-001	-5.245087e-001
42299718.000	-8.518823e-001	-5.244609e-001
42305712.000	-8.518658e-001	-5.243654e-001
42311706.000	-8.519097e-001	-5.243224e-001
42317700.000	-8.519448e-001	-5.242684e-001
42323694.000	-8.519928e-001	-5.241830e-001
42329688.000	-8.519749e-001	-5.241260e-001
42335682.000	-8.520755e-001	-5.240081e-001
42341676.000	-8.521012e-001	-5.239519e-001
42347670.000	-8.521189e-001	-5.238947e-001
42353664.000	-8.521676e-001	-5.238496e-001
42359658.000	-8.521716e-001	-5.237928e-001
42365652.000	-8.521968e-001	-5.237221e-001
42371646.000	-8.522861e-001	-5.236668e-001
42377640.000	-8.522918e-001	-5.236010e-001
42383634.000	-8.523421e-001	-5.235488e-001
42389628.000	-8.523629e-001	-5.235087e-001
42395622.000	-8.523912e-001	-5.233747e-001
42401616.000	-8.524531e-001	-5.233884e-001
42407610.000	-8.524970e-001	-5.233232e-001
42413604.000	-8.525571e-001	-5.232796e-001
42419598.000	-8.525825e-001	-5.231983e-001
42425592.000	-8.525869e-001	-5.231398e-001
42431586.000	-8.526080e-001	-5.230796e-001
42437580.000	-8.526653e-001	-5.230017e-001
42443574.000	-8.527091e-001	-5.229571e-001
42449568.000	-8.527316e-001	-5.228868e-001
42455562.000	-8.528163e-001	-5.228023e-001
42461556.000	-8.528230e-001	-5.227095e-001
42467550.000	-8.529151e-001	-5.227314e-001
42473544.000	-8.529217e-001	-5.227345e-001
42479538.000	-8.529815e-001	-5.226138e-001
42485532.000	-8.530212e-001	-5.225665e-001
42491526.000	-8.530444e-001	-5.224288e-001
42497520.000	-8.530857e-001	-5.223841e-001
42503514.000	-8.531167e-001	-5.223064e-001
42509508.000	-8.531254e-001	-5.222310e-001
42515502.000	-8.531575e-001	-5.222352e-001
42521496.000	-8.532078e-001	-5.221016e-001
42527490.000	-8.532540e-001	-5.221129e-001
42533484.000	-8.532572e-001	-5.219965e-001
42539478.000	-8.533949e-001	-5.219509e-001
42545472.000	-8.533967e-001	-5.218475e-001
42551466.000	-8.533579e-001	-5.218124e-001
42557460.000	-8.534222e-001	-5.218158e-001
42563454.000	-8.535069e-001	-5.217598e-001
42569448.000	-8.535388e-001	-5.216272e-001
42575442.000	-8.535996e-001	-5.215941e-001
42581436.000	-8.535790e-001	-5.214970e-001
42587430.000	-8.536341e-001	-5.214991e-001
42593424.000	-8.536649e-001	-5.214011e-001
42599418.000	-8.537201e-001	-5.213526e-001
42605412.000	-8.537100e-001	-5.212829e-001
42611406.000	-8.537680e-001	-5.212568e-001
42617400.000	-8.537901e-001	-5.211850e-001
42623394.000	-8.538898e-001	-5.211075e-001
42629388.000	-8.538815e-001	-5.209898e-001
42635382.000	-8.539002e-001	-5.209541e-001
42641376.000	-8.539602e-001	-5.209679e-001
42647370.000	-8.540233e-001	-5.208361e-001
42653364.000	-8.540364e-001	-5.208272e-001
42659358.000	-8.540562e-001	-5.207345e-001
42665352.000	-8.540798e-001	-5.206571e-001
42671346.000	-8.541443e-001	-5.206354e-001
42677340.000	-8.541529e-001	-5.205316e-001
42683334.000	-8.542670e-001	-5.205199e-001
42689328.000	-8.542570e-001	-5.204642e-001
42695322.000	-8.542980e-001	-5.203952e-001
42701316.000	-8.543280e-001	-5.203165e-001
42707310.000	-8.544110e-001	-5.202574e-001
42713304.000	-8.543767e-001	-5.201758e-001
42719298.000	-8.544758e-001	-5.201049e-001
42725292.000	-8.544867e-001	-5.200730e-001
42731286.000	-8.545285e-001	-5.200050e-001
42737280.000	-8.545433e-001	-5.198843e-001
42743274.000	-8.546019e-001	-5.199164e-001
42749268.000	-8.546506e-001	-5.198410e-001
42755262.000	-8.546775e-001	-5.197867e-001
42761256.000	-8.546824e-001	-5.196730e-001
42767250.000	-8.547815e-001	-5.196142e-001
42773244.000	-8.548359e-001	-5.195815e-001
42779238.000	-8.548182e-001	-5.194886e-001
42785232.000	-8.548795e-001	-5.194720e-001
42791226.000	-8.549198e-001	-5.194112e-001
42797220.000	-8.549269e-001	-5.193525e-001
42803214.000	-8.549405e-001	-5.193002e-001
42809208.000	-8.550038e-001	-5.192109e-001
42815202.000	-8.550281e-001	-5.191426e-001
42821196.000	-8.550789e-001	-5.190817e-001
42827190.000	-8.550806e-001	-5.190506e-001
42833184.000	-8.551730e-001	-5.189532e-001
42839178.000	-8.552005e-001	-5.188654e-001
42845172.000	-8.551972e-001	-5.188072e-001
42851166.000	-8.552405e-001	-5.187694e-001
42857160.000	-8.552778e-001	-5.186522e-001
42863154.000	-8.553124e-001	-5.186512e-001
42869148.000	-8.553701e-001	-5.185803e-001
42875142.000	-8.554007e-001	-5.185003e-001
42881136.000	-8.553910e-001	-5.184549e-001
42887130.000	-8.554923e-001	-5.184062e-001
42893124.000	-8.555196e-001	-5.183673e-001
42899118.000	-8.555406e-001	-5.182729e-001
42905112.000	-8.555497e-001	-5.181930e-001
42911106.000	-8.555996e-001	-5.181723e-001
42917100.000	-8.556415e-001	-5.180883e-001
42923094.000	-8.556902e-001	-5.180834e-001
42929088.000	-8.557327e-001	-5.179588e-001
42935082.000	-8.557785e-001	-5.178890e-001
42941076.000	-8.558191e-001	-5.178978e-001
42947070.000	-8.558475e-001	-5.178485e-001
42953064.000	-8.558827e-001	-5.177403e-001
42959058.000	-8.558927e-001	-5.177242e-001
42965052.000	-8.559155e-001	-5.176704e-001
42971046.000	-8.559960e-001	-5.175694e-001
42977040.000	-8.559909e-001	-5.175124e-001
42983034.000	-8.560781e-001	-5.173858e-001
42989028.000	-8.560482e-001	-5.173770e-001
42995022.000	-8.561204e-001	-5.173436e-001
43001016.000	-8.561940e-001	-5.172223e-001
43007010.000	-8.562580e-001	-5.172047e-001
43013004.000	-8.562040e-001	-5.171611e-001
43018998.000	-8.562476e-001	-5.170471e-001
43024992.000	-8.563432e-001	-5.169996e-001
43030986.000	-8.563048e-001	-5.169516e-001
43036980.000	-8.563461e-001	-5.168433e-001
43042974.000	-8.563942e-001	-5.168376e-001
43048968.000	-8.564408e-001	-5.167573e-001
43054962.000	-8.564771e-001	-5.167336e-001
43060956.000	-8.564776e-001	-5.165532e-001
43066950.000	-8.565681e-001	-5.165706e-001
43072944.000	-8.565673e-001	-5.165139e-001
43078938.000	-8.566251e-001	-5.164245e-001
43084932.000	-8.566290e-001	-5.163527e-001
43090926.000	-8.566555e-001	-5.163237e-001
43096920.000	-8.567006e-001	-5.162439e-001
43102914.000	-8.567608e-001	-5.161940e-001
43108908.000	-8.567710e-001	-5.161544e-001
43114902.000	-8.567886e-001	-5.160486e-001
43120896.000	-8.568712e-001	-5.160501e-001
43126890.000	-8.569581e-001	-5.159850e-001
43132884.000	-8.569596e-001	-5.159052e-001
43138878.000	-8.569983e-001	-5.158766e-001
43144872.000	-8.570568e-001	-5.157909e-001
43150866.000	-8.570862e-001	-5.157492e-001
43156860.000	-8.571221e-001	-5.156876e-001
43162854.000	-8.571284e-001	-5.156179e-001
43168848.000	-8.571728e-001	-5.155702e-001
43174842.000	-8.571920e-001	-5.154514e-001
43180836.000	-8.572493e-001	-5.154580e-001
43186830.000	-8.572901e-001	-5.153852e-001
43192824.000	-8.572806e-001	-5.153130e-001
43198818.000	-8.573634e-001	-5.152670e-001
43204812.000	-8.573891e-001	-5.152361e-001
43210806.000	-8.574062e-001	-5.151066e-001
43216800.000	-8.574469e-001	-5.150741e-001
43222794.000	-8.574816e-001	-5.150210e-001
43228788.000	-8.575473e-001	-5.149849e-001
43234782.000	-8.575482e-001	-5.148935e-001
43240776.000	-8.576048e-001	-5.147892e-001
43246770.000	-8.575769e-001	-5.147572e-001
43252764.000	-8.576230e-001	-5.147214e-001
43258758.000	-8.576922e-001	-5.146667e-001
43264752.000	-8.577335e-001	-5.145892e-001
43270746.000	-8.577249e-001	-5.145231e-001
43276740.000	-8.578180e-001	-5.144443e-001
43282734.000	-8.578286e-001	-5.144144e-001
43288728.000	-8.578767e-001	-5.143220e-001
43294722.000	-8.578682e-001	-5.143019e-001
43300716.000	-8.579068e-001	-5.142255e-001
43306710.000	-8.579952e-001	-5.141608e-001
43312704.000	-8.580312e-001	-5.141584e-001
43318698.000	-8.580376e-001	-5.139819e-001
43324692.000	-8.580768e-001	-5.139999e-001
43330686.000	-8.581374e-001	-5.139359e-001
43336680.000	-8.581653e-001	-5.138910e-001
43342674.000	-8.581818e-001	-5.137809e-001
43348668.000	-8.581911e-001	-5.137106e-001
43354662.000	-8.582471e-001	-5.136983e-001
43360656.000	-8.582851e-001	-5.135756e-001
43366650.000	-8.583033e-001	-5.135787e-001
43372644.000	-8.583809e-001	-5.135457e-001
43378638.000	-8.583955e-001	-5.134660e-001
43384632.000	-8.584510e-001	-5.133529e-001
43390626.000	-8.584550e-001	-5.133257e-001
43396620.000	-8.584911e-001	-5.132569e-001
43402614.000	-8.585318e-001	-5.132019e-001
43408608.000	-8.585752e-001	-5.130642e-001
43414602.000	-8.586317e-001	-5.130837e-001
43420596.000	-8.586496e-001	-5.129934e-001
43426590.000	-8.586681e-001	-5.129676e-001
43432584.000	-8.586859e-001	-5.128778e-001
43438578.000	-8.587791e-001	-5.128660e-001
43444572.000	-8.587359e-001	-5.127429e-001
43450566.000	-8.587901e-001	-5.126695e-001
43456560.000	-8.588227e-001	-5.126491e-001
43462554.000	-8.588799e-001	-5.125393e-001
43468548.000	-8.588848e-001	-5.125388e-001
43474542.000	-8.589691e-001	-5.125036e-001
43480536.000	-8.589476e-001	-5.124234e-001
43486530.000	-8.590059e-001	-5.123451e-001
43492524.000	-8.590734e-001	-5.122927e-001
43498518.000	-8.590753e-001	-5.122288e-001
43504512.000	-8.590920e-001	-5.121866e-001
43510506.000	-8.591456e-001	-5.120372e-001
43516500.000	-8.591968e-001	-5.120715e-001
43522494.000	-8.592307e-001	-5.120115e-001
43528488.000	-8.592377e-001	-5.119255e-001
43534482.000	-8.593403e-001	-5.119220e-001
43540476.000	-8.593639e-001	-5.118507e-001
43546470.000	-8.593817e-001	-5.117938e-001
43552464.000	-8.594119e-001	-5.116665e-001
43558458.000	-8.594373e-001	-5.116253e-001
43564452.000	-8.594838e-001	-5.115885e-001
43570446.000	-8.595369e-001	-5.115429e-001
43576440.000	-8.595173e-001	-5.114629e-001
43582434.000	-8.595767e-001	-5.114012e-001
43588428.000	-8.596227e-001	-5.113181e-001
43594422.000	-8.596623e-001	-5.112889e-001
43600416.000	-8.596430e-001	-5.112054e-001
43606410.000	-8.597415e-001	-5.111891e-001
43612404.000	-8.597563e-001	-5.111037e-001
43618398.000	-8.597552e-001	-5.110596e-001
43624392.000	-8.598092e-001	-5.109349e-001
43630386.000	-8.599018e-001	-5.109614e-001
43636380.000	-8.599335e-001	-5.108349e-001
43642374.000	-8.598590e-001	-5.108349e-001
43648368.000	-8.599443e-001	-5.107273e-001
43654362.000	-8.599766e-001	-5.107117e-001
43660356.000	-8.600238e-001	-5.105803e-001
43666350.000	-8.600309e-001	-5.105427e-001
43672344.000	-8.600588e-001	-5.105082e-001
43678338.000	-8.600755e-001	-5.104035e-001
43684332.000	-8.601742e-001	-5.103597e-001
43690326.000	-8.601815e-001	-5.103256e-001
43696320.000	-8.602469e-001	-5.102844e-001
43702314.000	-8.603154e-001	-5.101989e-001
43708308.000	-8.602844e-001	-5.101464e-001
43714302.000	-8.603094e-001	-5.100605e-001
43720296.000	-8.603693e-001	-5.100621e-001
43726290.000	-8.603787e-001	-5.100178e-001
43732284.000	-8.604151e-001	-5.099780e-001
43738278.000	-8.604565e-001	-5.097886e-001
43744272.000	-8.604801e-001	-5.097820e-001
43750266.000	-8.605172e-001	-5.097454e-001
43756260.000	-8.605485e-001	-5.096582e-001
43762254.000	-8.606041e-001	-5.095991e-001
43768248.000	-8.606176e-001	-5.095764e-001
43774242.000	-8.606507e-001	-5.094864e-001
43780236.000	-8.606943e-001	-5.094818e-001
43786230.000	-8.607761e-001	-5.094564e-001
43792224.000	-8.607845e-001	-5.093342e-001
43798218.000	-8.607677e-001	-5.092438e-001
43804212.000	-8.608335e-001	-5.092126e-001
43810206.000	-8.608038e-001	-5.091367e-001
43816200.000	-8.608832e-001	-5.090675e-001
43822194.000	-8.609493e-001	-5.089937e-001
43828188.000	-8.609731e-001	-5.089901e-001
43834182.000	-8.609984e-001	-5.089021e-001
43840176.000	-8.610181e-001	-5.088149e-001
43846170.000	-8.611111e-001	-5.087919e-001
43852164.000	-8.611486e-001	-5.087233e-001
43858158.000	-8.611194e-001	-5.086458e-001
43864152.000	-8.611826e-001	-5.086134e-001
43870146.000	-8.612136e-001	-5.085514e-001
43876140.000	-8.612752e-001	-5.085059e-001
43882134.000	-8.612626e-001	-5.084226e-001
43888128.000	-8.612544e-001	-5.083658e-001
43894122.000	-8.613587e-001	-5.083428e-001
43900116.000	-8.613772e-001	-5.082545e-001
43906110.000	-8.614065e-001	-5.082387e-001
43912104.000	-8.614675e-001	-5.081408e-001
43918098.000	-8.615031e-001	-5.080716e-001
43924092.000	-8.614976e-001	-5.079794e-001
43930086.000	-8.615908e-001	-5.079926e-001
43936080.000	-8.616151e-001	-5.079352e-001
43942074.000	-8.616632e-001	-5.078899e-001
43948068.000	-8.616622e-001	-5.077949e-001
43954062.000	-8.616467e-001	-5.077134e-001
43960056.000	-8.617075e-001	-5.076457e-001
43966050.000	-8.617568e-001	-5.076337e-001
43972044.000	-8.617416e-001	-5.075295e-001
43978038.000	-8.618411e-001	-5.075322e-001
43984032.000	-8.618061e-001	-5.073999e-001
43990026.000	-8.618769e-001	-5.073243e-001
43996020.000	-8.618932e-001	-5.073147e-001
44002014.000	-8.620123e-001	-5.073057e-001
44008008.000	-8.620175e-001	-5.071973e-001
44014002.000	-8.620528e-001	-5.071929e-001
44019996.000	-8.620392e-001	-5.070778e-001
44025990.000	-8.621023e-001	-5.070943e-001
44031984.000	-8.621785e-001	-5.070240e-001
44037978.000	-8.621577e-001	-5.069604e-001
44043972.000	-8.622227e-001	-5.069050e-001
44049966.000	-8.622573e-001	-5.068495e-001
44055960.000	-8.623123e-001	-5.067531e-001
44061954.000	-8.623020e-001	-5.066460e-001
44067948.000	-8.623092e-001	-5.066473e-001
44073942.000	-8.624250e-001	-5.066041e-001
44079936.000	-8.623938e-001	-5.064828e-001
44085930.000	-8.624404e-001	-5.064943e-001
44091924.000	-8.624657e-001	-5.063566e-001
44097918.000	-8.625101e-001	-5.063182e-001
44103912.000	-8.625517e-001	-5.063048e-001
44109906.000	-8.625970e-001	-5.061941e-001
44115900.000	-8.626021e-001	-5.061723e-001
44121894.000	-8.626351e-001	-5.061129e-001
44127888.000	-8.626843e-001	-5.059928e-001
44133882.000	-8.627340e-001	-5.060140e-001
44139876.000	-8.627449e-001	-5.059512e-001
44145870.000	-8.627876e-001	-5.059213e-001
44151864.000	-8.628189e-001	-5.058303e-001
44157858.000	-8.628411e-001	-5.057640e-001
44163852.000	-8.628674e-001	-5.057136e-001
44169846.000	-8.629160e-001	-5.056551e-001
44175840.000	-8.629414e-001	-5.056217e-001
44181834.000	-8.629846e-001	-5.055497e-001
44187828.000	-8.630404e-001	-5.054780e-001
44193822.000	-8.630285e-001	-5.054420e-001
44199816.000	-8.630972e-001	-5.053562e-001
44205810.000	-8.630764e-001	-5.052856e-001
44211804.000	-8.631391e-001	-5.052488e-001
44217798.000	-8.631937e-001	-5.052294e-001
44223792.000	-8.632281e-001	-5.051164e-001
44229786.000	-8.632363e-001	-5.050284e-001
44235780.000	-8.633329e-001	-5.050028e-001
44241774.000	-8.633224e-001	-5.049504e-001
44247768.000	-8.633484e-001	-5.048638e-001
44253762.000	-8.633991e-001	-5.048001e-001
44259756.000	-8.633693e-001	-5.047584e-001
44265750.000	-8.634702e-001	-5.047082e-001
44271744.000	-8.634988e-001	-5.046865e-001
44277738.000	-8.635078e-001	-5.046207e-001
44283732.000	-8.635436e-001	-5.044919e-001
44289726.000	-8.636175e-001	-5.045320e-001
44295720.000	-8.637018e-001	-5.044545e-001
44301714.000	-8.637038e-001	-5.044000e-001
44307708.000	-8.636866e-001	-5.043188e-001
44313702.000	-8.637063e-001	-5.042549e-001
44319696.000	-8.637922e-001	-5.042430e-001
44325690.000	-8.637556e-001	-5.041417e-001
44331684.000	-8.638564e-001	-5.040958e-001
44337678.000	-8.638726e-001	-5.040772e-001
44343672.000	-8.638906e-001	-5.039873e-001
44349666.000	-8.639643e-001	-5.039788e-001
44355660.000	-8.639740e-001	-5.038064e-001
44361654.000	-8.639955e-001	-5.037515e-001
44367648.000	-8.639975e-001	-5.037357e-001
44373642.000	-8.640951e-001	-5.036794e-001
44379636.000	-8.640743e-001	-5.036334e-001
44385630.000	-8.641215e-001	-5.035940e-001
44391624.000	-8.640732e-001	-5.034935e-001
44397618.000	-8.642063e-001	-5.034044e-001
44403612.000	-8.641753e-001	-5.034223e-001
44409606.000	-8.642755e-001	-5.032997e-001
44415600.000	-8.642735e-001	-5.032826e-001
44421594.000	-8.643138e-001	-5.032738e-001
44427588.000	-8.643564e-001	-5.031542e-001
44433582.000	-8.644137e-001	-5.031144e-001
44439576.000	-8.644289e-001	-5.030482e-001
44445570.000	-8.644265e-001	-5.030040e-001
44451564.000	-8.645168e-001	-5.029567e-001
44457558.000	-8.645655e-001	-5.029383e-001
44463552.000	-8.645418e-001	-5.028451e-001
44469546.000	-8.645767e-001	-5.027760e-001
44475540.000	-8.646360e-001	-5.026797e-001
44481534.000	-8.646622e-001	-5.026409e-001
44487528.000	-8.646598e-001	-5.025631e-001
44493522.000	-8.647329e-001	-5.024847e-001
44499516.000	-8.647398e-001	-5.025173e-001
44505510.000	-8.647814e-001	-5.024292e-001
44511504.000	-8.648364e-001	-5.023339e-001
44517498.000	-8.648701e-001	-5.023064e-001
44523492.000	-8.648881e-001	-5.022390e-001
44529486.000	-8.649396e-001	-5.021740e-001
44535480.000	-8.649311e-001	-5.021409e-001
44541474.000	-8.649331e-001	-5.020634e-001
44547468.000	-8.649980e-001	-5.019923e-001
44553462.000	-8.650355e-001	-5.019154e-001
44559456.000	-8.650651e-001	-5.019319e-001
44565450.000	-8.650895e-001	-5.017910e-001
44571444.000	-8.651619e-001	-5.017987e-001
44577438.000	-8.651503e-001	-5.017270e-001
44583432.000	-8.651873e-001	-5.017024e-001
44589426.000	-8.652429e-001	-5.016006e-001
44595420.000	-8.652719e-001	-5.015564e-001
44601414.000	-8.652771e-001	-5.014983e-001
44607408.000	-8.653337e-001	-5.014186e-001
44613402.000	-8.653859e-001	-5.014046e-001
44619396.000	-8.654273e-001	-5.013683e-001
44625390.000	-8.654233e-001	-5.012905e-001
44631384.000	-8.654773e-001	-5.012300e-001
44637378.000	-8.655074e-001	-5.011664e-001
44643372.000	-8.655347e-001	-5.011418e-001
44649366.000	-8.655842e-001	-5.010161e-001
44655360.000	-8.656210e-001	-5.009879e-001
44661354.000	-8.655890e-001	-5.008598e-001
44667348.000	-8.656315e-001	-5.008764e-001
44673342.000	-8.656915e-001	-5.008055e-001
44679336.000	-8.657322e-001	-5.007611e-001
44685330.000	-8.657741e-001	-5.007195e-001
44691324.000	-8.658277e-001	-5.006093e-001
44697318.000	-8.658609e-001	-5.006044e-001
44703312.000	-8.658135e-001	-5.004887e-001
44709306.000	-8.658744e-001	-5.004398e-001
44715300.000	-8.658994e-001	-5.003695e-001
44721294.000	-8.659920e-001	-5.003472e-001
44727288.000	-8.659665e-001	-5.002885e-001
44733282.000	-8.660165e-001	-5.002429e-001
44739276.000	-8.660135e-001	-5.001657e-001
44745270.000	-8.661390e-001	-5.001529e-001
44751264.000	-8.661308e-001	-5.000729e-001
44757258.000	-8.661693e-001	-5.000198e-001
44763252.000	-8.661324e-001	-4.999585e-001
44769246.000	-8.661847e-001	-4.999614e-001
44775240.000	-8.662110e-001	-4.998155e-001
44781234.000	-8.662486e-001	-4.997934e-001
44787228.000	-8.662917e-001	-4.996940e-001
44793222.000	-8.663038e-001	-4.996357e-001
44799216.000	-8.663358e-001	-4.995968e-001
44805210.000	-8.664144e-001	-4.995208e-001
44811204.000	-8.664457e-001	-4.994840e-001
44817198.000	-8.664511e-001	-4.994554e-001
44823192.000	-8.665000e-001	-4.993540e-001
44829186.000	-8.665151e-001	-4.993296e-001
44835180.000	-8.665864e-001	-4.993083e-001
44841174.000	-8.666288e-001	-4.992614e-001
44847168.000	-8.666009e-001	-4.991244e-001
44853162.000	-8.666539e-001	-4.990659e-001
44859156.000	-8.666871e-001	-4.990261e-001
44865150.000	-8.667100e-001	-4.989842e-001
44871144.000	-8.667250e-001	-4.989275e-001
44877138.000	-8.667791e-001	-4.988369e-001
44883132.000	-8.668421e-001	-4.987534e-001
44889126.000	-8.667960e-001	-4.987815e-001
44895120.000	-8.668524e-001	-4.986936e-001
44901114.000	-8.669228e-001	-4.986869e-001
44907108.000	-8.669206e-001	-4.985720e-001
44913102.000	-8.669463e-001	-4.985411e-001
44919096.000	-8.670019e-001	-4.984963e-001
44925090.000	-8.670438e-001	-4.984495e-001
44931084.000	-8.670568e-001	-4.983900e-001
44937078.000	-8.670583e-001	-4.983047e-001
44943072.000	-8.671354e-001	-4.982239e-001
44949066.000	-8.671681e-001	-4.981856e-001
44955060.000	-8.671451e-001	-4.981075e-001
44961054.000	-8.672066e-001	-4.981072e-001
44967048.000	-8.672823e-001	-4.980486e-001
44973042.000	-8.672989e-001	-4.979186e-001
44979036.000	-8.673014e-001	-4.978733e-001
44985030.000	-8.673860e-001	-4.978288e-001
44991024.000	-8.673870e-001	-4.977845e-001
44997018.000	-8.674169e-001	-4.977535e-001
45003012.000	-8.675141e-001	-4.977170e-001
45009006.000	-8.674760e-001	-4.976447e-001
45015000.000	-8.675132e-001	-4.975463e-001
45020994.000	-8.674909e-001	-4.975045e-001
45026988.000	-8.675509e-001	-4.974541e-001
45032982.000	-8.676262e-001	-4.973866e-001
45038976.000	-8.676585e-001	-4.973113e-001
45044970.000	-8.676687e-001	-4.972729e-001
45050964.000	-8.676898e-001	-4.972133e-001
45056958.000	-8.677507e-001	-4.971794e-001
45062952.000	-8.677874e-001	-4.970835e-001
45068946.000	-8.677595e-001	-4.970612e-001
45074940.000	-8.678409e-001	-4.969383e-001
45080934.000	-8.678454e-001	-4.969077e-001
45086928.000	-8.678767e-001	-4.968941e-001
45092922.000	-8.679041e-001	-4.968189e-001
45098916.000	-8.679506e-001	-4.967830e-001
45104910.000	-8.679979e-001	-4.967125e-001
45110904.000	-8.680359e-001	-4.966074e-001
45116898.000	-8.680778e-001	-4.965895e-001
45122892.000	-8.680891e-001	-4.965606e-001
45128886.000	-8.681918e-001	-4.964766e-001
45134880.000	-8.681635e-001	-4.964164e-001
45140874.000	-8.682181e-001	-4.963795e-001
45146868.000	-8.682403e-001	-4.963277e-001
45152862.000	-8.682530e-001	-4.962435e-001
45158856.000	-8.682628e-001	-4.962101e-001
45164850.000	-8.683375e-001	-4.961741e-001
45170844.000	-8.683419e-001	-4.961077e-001
45176838.000	-8.683744e-001	-4.960209e-001
45182832.000	-8.684197e-001	-4.959651e-001
45188826.000	-8.684375e-001	-4.959345e-001
45194820.000	-8.684757e-001	-4.959068e-001
45200814.000	-8.684646e-001	-4.958189e-001
45206808.000	-8.685125e-001	-4.957852e-001
45212802.000	-8.685910e-001	-4.957054e-001
45218796.000	-8.685647e-001	-4.956293e-001
45224790.000	-8.685941e-001	-4.955403e-001
45230784.000	-8.686042e-001	-4.954818e-001
45236778.000	-8.686329e-001	-4.954467e-001
45242772.000	-8.686893e-001	-4.953602e-001
45248766.000	-8.686952e-001	-4.953345e-001
45254760.000	-8.687664e-001	-4.953057e-001
45260754.000	-8.687771e-001	-4.951888e-001
45266748.000	-8.688777e-001	-4.951826e-001
45272742.000	-8.688898e-001	-4.951593e-001
45278736.000	-8.688593e-001	-4.950517e-001
45284730.000	-8.689230e-001	-4.950405e-001
45290724.000	-8.689498e-001	-4.949687e-001
45296718.000	-8.690041e-001	-4.948685e-001
45302712.000	-8.690214e-001	-4.948664e-001
45308706.000	-8.690685e-001	-4.948370e-001
45314700.000	-8.691014e-001	-4.947597e-001
45320694.000	-8.691160e-001	-4.947563e-001
45326688.000	-8.691380e-001	-4.946241e-001
45332682.000	-8.691916e-001	-4.946060e-001
45338676.000	-8.692069e-001	-4.945552e-001
45344670.000	-8.692503e-001	-4.944539e-001
45350664.000	-8.692494e-001	-4.944290e-001
45356658.000	-8.692854e-001	-4.943478e-001
45362652.000	-8.693482e-001	-4.943362e-001
45368646.000	-8.693678e-001	-4.943002e-001
45374640.000	-8.694261e-001	-4.941792e-001
45380634.000	-8.694824e-001	-4.942091e-001
45386628.000	-8.694441e-001	-4.941172e-001
45392622.000	-8.694517e-001	-4.940428e-001
45398616.000	-8.695359e-001	-4.939934e-001
45404610.000	-8.695499e-001	-4.938734e-001
45410604.000	-8.695800e-001	-4.938590e-001
45416598.000	-8.696807e-001	-4.938626e-001
45422592.000	-8.696461e-001	-4.937514e-001
45428586.000	-8.697337e-001	-4.936876e-001
45434580.000	-8.697142e-001	-4.936495e-001
45440574.000	-8.697384e-001	-4.935828e-001
45446568.000	-8.698210e-001	-4.935625e-001
45452562.000	-8.697976e-001	-4.934790e-001
45458556.000	-8.698672e-001	-4.934385e-001
45464550.000	-8.698774e-001	-4.934217e-001
45470544.000	-8.699204e-001	-4.933153e-001
45476538.000	-8.699662e-001	-4.932393e-001
45482532.000	-8.699955e-001	-4.932055e-001
45488526.000	-8.700248e-001	-4.931613e-001
45494520.000	-8.700375e-001	-4.930679e-001
45500514.000	-8.700848e-001	-4.930676e-001
45506508.000	-8.700678e-001	-4.930029e-001
45512502.000	-8.701035e-001	-4.928839e-001
45518496.000	-8.701675e-001	-4.928543e-001
45524490.000	-8.702119e-001	-4.928526e-001
45530484.000	-8.702422e-001	-4.928286e-001
45536478.000	-8.702966e-001	-4.927228e-001
45542472.000	-8.703764e-001	-4.927252e-001
45548466.000	-8.703474e-001	-4.925752e-001
45554460.000	-8.703483e-001	-4.925503e-001
45560454.000	-8.703855e-001	-4.925030e-001
45566448.000	-8.704599e-001	-4.924881e-001
45572442.000	-8.704168e-001	-4.923919e-001
45578436.000	-8.705342e-001	-4.922973e-001
45584430.000	-8.705037e-001	-4.922666e-001
45590424.000	-8.705458e-001	-4.922257e-001
45596418.000	-8.705587e-001	-4.921224e-001
45602412.000	-8.706049e-001	-4.920930e-001
45608406.000	-8.706092e-001	-4.920240e-001
45614400.000	-8.706787e-001	-4.919965e-001
45620394.000	-8.706689e-001	-4.918848e-001
45626388.000	-8.707474e-001	-4.918934e-001
45632382.000	-8.707436e-001	-4.918524e-001
45638376.000	-8.707833e-001	-4.917783e-001
45644370.000	-8.708174e-001	-4.917021e-001
45650364.000	-8.708394e-001	-4.916280e-001
45656358.000	-8.708838e-001	-4.915856e-001
45662352.000	-8.709382e-001	-4.915606e-001
45668346.000	-8.709411e-001	-4.915164e-001
45674340.000	-8.709499e-001	-4.914223e-001
45680334.000	-8.710060e-001	-4.913939e-001
45686328.000	-8.710333e-001	-4.913915e-001
45692322.000	-8.710595e-001	-4.912975e-001
45698316.000	-8.710835e-001	-4.912267e-001
45704310.000	-8.711182e-001	-4.911876e-001
45710304.000	-8.711254e-001	-4.911457e-001
45716298.000	-8.711671e-001	-4.910902e-001
45722292.000	-8.711994e-001	-4.910259e-001
45728286.000	-8.712363e-001	-4.909702e-001
45734280.000	-8.712765e-001	-4.908352e-001
45740274.000	-8.712683e-001	-4.908573e-001
45746268.000	-8.713353e-001	-4.908119e-001
45752262.000	-8.713493e-001	-4.907358e-001
45758256.000	-8.713734e-001	-4.906652e-001
45764250.000	-8.713976e-001	-4.906167e-001
45770244.000	-8.714476e-001	-4.905571e-001
45776238.000	-8.714983e-001	-4.905123e-001
45782232.000	-8.715231e-001	-4.904414e-001
45788226.000	-8.715234e-001	-4.904074e-001
45794220.000	-8.715733e-001	-4.903157e-001
45800214.000	-8.716076e-001	-4.903065e-001
45806208.000	-8.716267e-001	-4.902373e-001
45812202.000	-8.716443e-001	-4.901530e-001
45818196.000	-8.716572e-001	-4.901127e-001
45824190.000	-8.716910e-001	-4.900767e-001
45830184.000	-8.717252e-001	-4.899768e-001
45836178.000	-8.717794e-001	-4.899558e-001
45842172.000	-8.718211e-001	-4.899441e-001
45848166.000	-8.718827e-001	-4.898272e-001
45854160.000	-8.718856e-001	-4.897965e-001
45860154.000	-8.719247e-001	-4.897876e-001
45866148.000	-8.719677e-001	-4.897057e-001
45872142.000	-8.719394e-001	-4.896208e-001
45878136.000	-8.719829e-001	-4.895946e-001
45884130.000	-8.719786e-001	-4.895224e-001
45890124.000	-8.720695e-001	-4.894834e-001
45896118.000	-8.720770e-001	-4.894056e-001
45902112.000	-8.721161e-001	-4.893687e-001
45908106.000	-8.721385e-001	-4.893269e-001
45914100.000	-8.721914e-001	-4.893187e-001
45920094.000	-8.721997e-001	-4.892301e-001
45926088.000	-8.722830e-001	-4.891562e-001
45932082.000	-8.722368e-001	-4.891515e-001
45938076.000	-8.723241e-001	-4.890682e-001
45944070.000	-8.722926e-001	-4.889886e-001
45950064.000	-8.723567e-001	-4.889625e-001
45956058.000	-8.723754e-001	-4.888737e-001
45962052.000	-8.724195e-001	-4.888344e-001
45968046.000	-8.724712e-001	-4.887689e-001
45974040.000	-8.724753e-001	-4.886795e-001
45980034.000	-8.724723e-001	-4.885990e-001
45986028.000	-8.725035e-001	-4.886394e-001
45992022.000	-8.725704e-001	-4.885719e-001
45998016.000	-8.726069e-001	-4.885078e-001
46004010.000	-8.726393e-001	-4.884797e-001
46010004.000	-8.726310e-001	-4.883660e-001
46015998.000	-8.726560e-001	-4.883709e-001
46021992.000	-8.727287e-001	-4.883184e-001
46027986.000	-8.727872e-001	-4.881912e-001
46033980.000	-8.727608e-001	-4.881332e-001
46039974.000	-8.727910e-001	-4.880644e-001
46045968.000	-8.728353e-001	-4.880645e-001
46051962.000	-8.728319e-001	-4.880181e-001
46057956.000	-8.728632e-001	-4.879128e-001
46063950.000	-8.729399e-001	-4.878790e-001
46069944.000	-8.728814e-001	-4.877864e-001
46075938.000	-8.729611e-001	-4.877383e-001
46081932.000	-8.730048e-001	-4.876995e-001
46087926.000	-8.729798e-001	-4.876036e-001
46093920.000	-8.730946e-001	-4.876140e-001
46099914.000	-8.730897e-001	-4.875549e-001
46105908.000	-8.731080e-001	-4.875239e-001
46111902.000	-8.731414e-001	-4.874892e-001
46117896.000	-8.731758e-001	-4.873696e-001
46123890.000	-8.732007e-001	-4.873527e-001
46129884.000	-8.732360e-001	-4.873053e-001
46135878.000	-8.732823e-001	-4.872366e-001
46141872.000	-8.733279e-001	-4.871871e-001
46147866.000	-8.733245e-001	-4.871375e-001
46153860.000	-8.733596e-001	-4.870201e-001
46159854.000	-8.733513e-001	-4.870065e-001
46165848.000	-8.734178e-001	-4.869654e-001
46171842.000	-8.734185e-001	-4.868973e-001
46177836.000	-8.734401e-001	-4.868707e-001
46183830.000	-8.734859e-001	-4.868157e-001
46189824.000	-8.735293e-001	-4.867281e-001
46195818.000	-8.735511e-001	-4.866927e-001
46201812.000	-8.735896e-001	-4.866443e-001
46207806.000	-8.736004e-001	-4.865585e-001
46213800.000	-8.736529e-001	-4.865247e-001
46219794.000	-8.737103e-001	-4.864426e-001
46225788.000	-8.737030e-001	-4.863876e-001
46231782.000	-8.737271e-001	-4.863606e-001
46237776.000	-8.737790e-001	-4.862688e-001
46243770.000	-8.737974e-001	-4.862615e-001
46249764.000	-8.738418e-001	-4.861556e-001
46255758.000	-8.738596e-001	-4.861348e-001
46261752.000	-8.739385e-001	-4.861391e-001
46267746.000	-8.739190e-001	-4.860694e-001
46273740.000	-8.739130e-001	-4.859766e-001
46279734.000	-8.739945e-001	-4.859226e-001
46285728.000	-8.740313e-001	-4.859314e-001
46291722.000	-8.740167e-001	-4.858195e-001
46297716.000	-8.740702e-001	-4.857744e-001
46303710.000	-8.740844e-001	-4.857366e-001
46309704.000	-8.740738e-001	-4.855918e-001
46315698.000	-8.741614e-001	-4.856145e-001
46321692.000	-8.741813e-001	-4.855412e-001
46327686.000	-8.742352e-001	-4.854983e-001
46333680.000	-8.741701e-001	-4.854497e-001
46339674.000	-8.742782e-001	-4.854010e-001
46345668.000	-8.743229e-001	-4.853007e-001
46351662.000	-8.743005e-001	-4.852642e-001
46357656.000	-8.743447e-001	-4.852068e-001
46363650.000	-8.743738e-001	-4.851907e-001
46369644.000	-8.743776e-001	-4.851471e-001
46375638.000	-8.744756e-001	-4.850658e-001
46381632.000	-8.744276e-001	-4.849875e-001
46387626.000	-8.744729e-001	-4.850056e-001
46393620.000	-8.745209e-001	-4.849235e-001
46399614.000	-8.745169e-001	-4.848403e-001
46405608.000	-8.745900e-001	-4.848052e-001
46411602.000	-8.745806e-001	-4.847072e-001
46417596.000	-8.746553e-001	-4.847203e-001
46423590.000	-8.746412e-001	-4.846268e-001
46429584.000	-8.747049e-001	-4.846009e-001
46435578.000	-8.747295e-001	-4.845588e-001
46441572.000	-8.747763e-001	-4.844737e-001
46447566.000	-8.748185e-001	-4.843836e-001
46453560.000	-8.748285e-001	-4.843159e-001
46459554.000	-8.748389e-001	-4.843225e-001
46465548.000	-8.748488e-001	-4.842539e-001
46471542.000	-8.749283e-001	-4.842062e-001
46477536.000	-8.748776e-001	-4.841673e-001
46483530.000	-8.749541e-001	-4.840850e-001
46489524.000	-8.749839e-001	-4.840326e-001
46495518.000	-8.749935e-001	-4.839847e-001
46501512.000	-8.750418e-001	-4.839039e-001
46507506.000	-8.750688e-001	-4.838797e-001
46513500.000	-8.750417e-001	-4.838101e-001
46519494.000	-8.751142e-001	-4.837934e-001
46525488.000	-8.751692e-001	-4.837186e-001
46531482.000	-8.752041e-001	-4.836240e-001
46537476.000	-8.752327e-001	-4.835729e-001
46543470.000	-8.752395e-001	-4.835664e-001
46549464.000	-8.752454e-001	-4.834513e-001
46555458.000	-8.753245e-001	-4.833999e-001
46561452.000	-8.753212e-001	-4.834171e-001
46567446.000	-8.753685e-001	-4.833486e-001
46573440.000	-8.753784e-001	-4.833510e-001
46579434.000	-8.754238e-001	-4.832303e-001
46585428.000	-8.754268e-001	-4.831517e-001
46591422.000	-8.754686e-001	-4.831531e-001
46597416.000	-8.755368e-001	-4.830757e-001
46603410.000	-8.754827e-001	-4.830529e-001
46609404.000	-8.755211e-001	-4.829718e-001
46615398.000	-8.755464e-001	-4.829291e-001
46621392.000	-8.756064e-001	-4.828136e-001
46627386.000	-8.756375e-001	-4.828175e-001
46633380.000	-8.756888e-001	-4.827427e-001
46639374.000	-8.757020e-001	-4.827232e-001
46645368.000	-8.757219e-001	-4.826272e-001
46651362.000	-8.757483e-001	-4.825954e-001
46657356.000	-8.757748e-001	-4.825249e-001
46663350.000	-8.758080e-001	-4.824622e-001
46669344.000	-8.758278e-001	-4.823925e-001
46675338.000	-8.758497e-001	-4.823926e-001
46681332.000	-8.758910e-001	-4.822984e-001
46687326.000	-8.759378e-001	-4.823202e-001
46693320.000	-8.759949e-001	-4.822637e-001
46699314.000	-8.759726e-001	-4.821706e-001
46705308.000	-8.760295e-001	-4.821240e-001
46711302.000	-8.760622e-001	-4.821036e-001
46717296.000	-8.761166e-001	-4.820618e-001
46723290.000	-8.761525e-001	-4.819840e-001
46729284.000	-8.761678e-001	-4.819081e-001
46735278.000	-8.761552e-001	-4.818664e-001
46741272.000	-8.762001e-001	-4.818008e-001
46747266.000	-8.762630e-001	-4.817909e-001
46753260.000	-8.762249e-001	-4.816873e-001
46759254.000	-8.762425e-001	-4.816280e-001
46765248.000	-8.763130e-001	-4.815769e-001
46771242.000	-8.762986e-001	-4.815469e-001
46777236.000	-8.763482e-001	-4.814890e-001
46783230.000	-8.764151e-001	-4.814405e-001
46789224.000	-8.764054e-001	-4.813435e-001
46795218.000	-8.764431e-001	-4.813526e-001
46801212.000	-8.764636e-001	-4.812870e-001
46807206.000	-8.764904e-001	-4.812266e-001
46813200.000	-8.765302e-001	-4.811381e-001
46819194.000	-8.765515e-001	-4.811490e-001
46825188.000	-8.765792e-001	-4.810359e-001
46831182.000	-8.766361e-001	-4.810112e-001
46837176.000	-8.766689e-001	-4.809588e-001
46843170.000	-8.766440e-001	-4.809075e-001
46849164.000	-8.766557e-001	-4.808434e-001
46855158.000	-8.767761e-001	-4.808210e-001
46861152.000	-8.767995e-001	-4.807435e-001
46867146.000	-8.767874e-001	-4.806775e-001
46873140.000	-8.768263e-001	-4.806507e-001
46879134.000	-8.768700e-001	-4.806656e-001
46885128.000	-8.768755e-001	-4.805163e-001
46891122.000	-8.769264e-001	-4.804943e-001
46897116.000	-8.769702e-001	-4.804406e-001
46903110.000	-8.770046e-001	-4.804139e-001
46909104.000	-8.770022e-001	-4.802623e-001
46915098.000	-8.770058e-001	-4.803034e-001
46921092.000	-8.770162e-001	-4.802063e-001
46927086.000	-8.770846e-001	-4.801665e-001
46933080.000	-8.770844e-001	-4.801656e-001
46939074.000	-8.770922e-001	-4.801261e-001
46945068.000	-8.771506e-001	-4.800178e-001
46951062.000	-8.772168e-001	-4.799572e-001
46957056.000	-8.772697e-001	-4.799721e-001
46963050.000	-8.772238e-001	-4.798648e-001
46969044.000	-8.772849e-001	-4.798150e-001
46975038.000	-8.773022e-001	-4.797295e-001
46981032.000	-8.773084e-001	-4.797539e-001
46987026.000	-8.773760e-001	-4.796640e-001
46993020.000	-8.773679e-001	-4.796440e-001
46999014.000	-8.774345e-001	-4.795454e-001
47005008.000	-8.774457e-001	-4.795137e-001
47011002.000	-8.774492e-001	-4.794452e-001
47016996.000	-8.774799e-001	-4.793902e-001
47022990.000	-8.775657e-001	-4.793791e-001
47028984.000	-8.775306e-001	-4.792663e-001
47034978.000	-8.776006e-001	-4.792410e-001
47040972.000	-8.776346e-001	-4.792101e-001
47046966.000	-8.776582e-001	-4.791262e-001
47052960.000	-8.776319e-001	-4.790157e-001
47058954.000	-8.776819e-001	-4.790227e-001
47064948.000	-8.777253e-001	-4.789486e-001
47070942.000	-8.777743e-001	-4.789316e-001
47076936.000	-8.777678e-001	-4.788762e-001
47082930.000	-8.777731e-001	-4.787955e-001
47088924.000	-8.778176e-001	-4.787542e-001
47094918.000	-8.778537e-001	-4.786789e-001
47100912.000	-8.778552e-001	-4.786303e-001
47106906.000	-8.779389e-001	-4.785854e-001
47112900.000	-8.779230e-001	-4.785213e-001
47118894.000	-8.779906e-001	-4.784880e-001
47124888.000	-8.779657e-001	-4.784060e-001
47130882.000	-8.780579e-001	-4.784200e-001
47136876.000	-8.780669e-001	-4.783265e-001
47142870.000	-8.781168e-001	-4.782960e-001
47148864.000	-8.781377e-001	-4.782551e-001
47154858.000	-8.781639e-001	-4.781883e-001
47160852.000	-8.781782e-001	-4.781507e-001
47166846.000	-8.782184e-001	-4.780857e-001
47172840.000	-8.782241e-001	-4.780523e-001
47178834.000	-8.781998e-001	-4.779781e-001
47184828.000	-8.782514e-001	-4.779257e-001
47190822.000	-8.783221e-001	-4.778522e-001
47196816.000	-8.783076e-001	-4.778235e-001
47202810.000	-8.783429e-001	-4.778265e-001
47208804.000	-8.783907e-001	-4.776900e-001
47214798.000	-8.783859e-001	-4.776797e-001
47220792.000	-8.784600e-001	-4.776614e-001
47226786.000	-8.784971e-001	-4.775181e-001
47232780.000	-8.784726e-001	-4.775295e-001
47238774.000	-8.785089e-001	-4.774236e-001
47244768.000	-8.785343e-001	-4.773842e-001
47250762.000	-8.785715e-001	-4.773048e-001
47256756.000	-8.786287e-001	-4.772730e-001
47262750.000	-8.786272e-001	-4.772864e-001
47268744.000	-8.786715e-001	-4.772215e-001
47274738.000	-8.786976e-001	-4.771288e-001
47280732.000	-8.787395e-001	-4.771283e-001
47286726.000	-8.787569e-001	-4.770386e-001
47292720.000	-8.788137e-001	-4.769803e-001
47298714.000	-8.788138e-001	-4.769170e-001
47304708.000	-8.788411e-001	-4.769070e-001
47310702.000	-8.788594e-001	-4.768491e-001
47316696.000	-8.789208e-001	-4.767712e-001
47322690.000	-8.788948e-001	-4.767222e-001
47328684.000	-8.789733e-001	-4.766790e-001
47334678.000	-8.790222e-001	-4.766107e-001
47340672.000	-8.789581e-001	-4.765737e-001
47346666.000	-8.790264e-001	-4.765229e-001
47352660.000	-8.790404e-001	-4.764452e-001
47358654.000	-8.790636e-001	-4.763294e-001
47364648.000	-8.791774e-001	-4.763465e-001
47370642.000	-8.790854e-001	-4.762723e-001
47376636.000	-8.791546e-001	-4.762494e-001
47382630.000	-8.791454e-001	-4.761908e-001
47388624.000	-8.792021e-001	-4.761131e-001
47394618.000	-8.792326e-001	-4.760691e-001
47400612.000	-8.792495e-001	-4.760033e-001
47406606.000	-8.792626e-001	-4.759490e-001
47412600.000	-8.792993e-001	-4.759194e-001
47418594.000	-8.793425e-001	-4.758830e-001
47424588.000	-8.793856e-001	-4.758439e-001
47430582.000	-8.793605e-001	-4.758046e-001
47436576.000	-8.794528e-001	-4.757302e-001
47442570.000	-8.795017e-001	-4.756879e-001
47448564.000	-8.795183e-001	-4.756733e-001
47454558.000	-8.794633e-001	-4.755836e-001
47460552.000	-8.795509e-001	-4.755027e-001
47466546.000	-8.795291e-001	-4.755363e-001
47472540.000	-8.796350e-001	-4.753993e-001
47478534.000	-8.795945e-001	-4.753724e-001
47484528.000	-8.796153e-001	-4.753062e-001
47490522.000	-8.796253e-001	-4.752573e-001
47496516.000	-8.797092e-001	-4.752447e-001
47502510.000	-8.797066e-001	-4.751207e-001
47508504.000	-8.797185e-001	-4.751242e-001
47514498.000	-8.798098e-001	-4.751227e-001
47520492.000	-8.798145e-001	-4.749960e-001
47526486.000	-8.798504e-001	-4.749649e-001
47532480.000	-8.798733e-001	-4.749173e-001
47538474.000	-8.798902e-001	-4.748752e-001
47544468.000	-8.799254e-001	-4.748113e-001
47550462.000	-8.799354e-001	-4.747392e-001
47556456.000	-8.799563e-001	-4.747301e-001
47562450.000	-8.800020e-001	-4.746818e-001
47568444.000	-8.800533e-001	-4.746665e-001
47574438.000	-8.800479e-001	-4.745515e-001
47580432.000	-8.801028e-001	-4.744874e-001
47586426.000	-8.801333e-001	-4.744849e-001
47592420.000	-8.801491e-001	-4.743874e-001
47598414.000	-8.801857e-001	-4.744057e-001
47604408.000	-8.802217e-001	-4.743071e-001
47610402.000	-8.802239e-001	-4.742528e-001
47616396.000	-8.803102e-001	-4.742042e-001
47622390.000	-8.802834e-001	-4.741303e-001
47628384.000	-8.803220e-001	-4.741280e-001
47634378.000	-8.803656e-001	-4.740185e-001
47640372.000	-8.803588e-001	-4.739752e-001
47646366.000	-8.803741e-001	-4.739381e-001
47652360.000	-8.803757e-001	-4.739083e-001
47658354.000	-8.804601e-001	-4.738480e-001
47664348.000	-8.804654e-001	-4.737755e-001
47670342.000	-8.805075e-001	-4.737584e-001
47676336.000	-8.805456e-001	-4.737234e-001
47682330.000	-8.805457e-001	-4.736298e-001
47688324.000	-8.805918e-001	-4.736073e-001
47694318.000	-8.806234e-001	-4.735190e-001
47700312.000	-8.806652e-001	-4.734743e-001
47706306.000	-8.806446e-001	-4.734464e-001
47712300.000	-8.806433e-001	-4.733292e-001
47718294.000	-8.806962e-001	-4.733320e-001
47724288.000	-8.807131e-001	-4.732150e-001
47730282.000	-8.807581e-001	-4.732392e-001
47736276.000	-8.807563e-001	-4.731792e-001
47742270.000	-8.808228e-001	-4.731047e-001
47748264.000	-8.808684e-001	-4.730222e-001
47754258.000	-8.808820e-001	-4.730466e-001
47760252.000	-8.808967e-001	-4.729436e-001
47766246.000	-8.809268e-001	-4.729742e-001
47772240.000	-8.809098e-001	-4.728507e-001
47778234.000	-8.809745e-001	-4.728518e-001
47784228.000	-8.809899e-001	-4.727417e-001
47790222.000	-8.810242e-001	-4.727096e-001
47796216.000	-8.810731e-001	-4.726760e-001
47802210.000	-8.811183e-001	-4.726776e-001
47808204.000	-8.810872e-001	-4.725125e-001
47814198.000	-8.810757e-001	-4.725202e-001
47820192.000	-8.811522e-001	-4.724401e-001
47826186.000	-8.812342e-001	-4.724263e-001
47832180.000	-8.811951e-001	-4.723268e-001
47838174.000	-8.812813e-001	-4.723803e-001
47844168.000	-8.812998e-001	-4.723163e-001
47850162.000	-8.812776e-001	-4.722353e-001
47856156.000	-8.813583e-001	-4.721771e-001
47862150.000	-8.813832e-001	-4.721128e-001
47868144.000	-8.813813e-001	-4.720598e-001
47874138.000	-8.814004e-001	-4.719837e-001
47880132.000	-8.813983e-001	-4.719432e-001
47886126.000	-8.814591e-001	-4.719094e-001
47892120.000	-8.814692e-001	-4.718242e-001
47898114.000	-8.815369e-001	-4.718254e-001
47904108.000	-8.815575e-001	-4.717684e-001
47910102.000	-8.815705e-001	-4.716553e-001
47916096.000	-8.815941e-001	-4.716774e-001
47922090.000	-8.816264e-001	-4.716078e-001
47928084.000	-8.816188e-001	-4.715399e-001
47934078.000	-8.816403e-001	-4.714838e-001
47940072.000	-8.817143e-001	-4.714719e-001
47946066.000	-8.817321e-001	-4.713876e-001
47952060.000	-8.817378e-001	-4.713689e-001
47958054.000	-8.818221e-001	-4.712869e-001
47964048.000	-8.818688e-001	-4.712834e-001
47970042.000	-8.818549e-001	-4.711816e-001
47976036.000	-8.819253e-001	-4.711766e-001
47982030.000	-8.818861e-001	-4.710827e-001
47988024.000	-8.819071e-001	-4.710400e-001
47994018.000	-8.818853e-001	-4.710036e-001
48000012.000	-8.819475e-001	-4.708856e-001
48006006.000	-8.819631e-001	-4.709215e-001
48012000.000	-8.819585e-001	-4.708470e-001
48017994.000	-8.820332e-001	-4.707613e-001
48023988.000	-8.820702e-001	-4.707147e-001
48029982.000	-8.821039e-001	-4.706919e-001
48035976.000	-8.820961e-001	-4.706228e-001
48041970.000	-8.821564e-001	-4.705834e-001
48047964.000	-8.821893e-001	-4.705945e-001
48053958.000	-8.822572e-001	-4.705023e-001
48059952.000	-8.822239e-001	-4.704850e-001
48065946.000	-8.822680e-001	-4.704125e-001
48071940.000	-8.823000e-001	-4.703605e-001
48077934.000	-8.823230e-001	-4.703294e-001
48083928.000	-8.822848e-001	-4.701856e-001
48089922.000	-8.824037e-001	-4.701657e-001
48095916.000	-8.823874e-001	-4.701026e-001
48101910.000	-8.823665e-001	-4.700767e-001
48107904.000	-8.824224e-001	-4.700309e-001
48113898.000	-8.824561e-001	-4.699893e-001
48119892.000	-8.824892e-001	-4.699455e-001
48125886.000	-8.825224e-001	-4.699444e-001
48131880.000	-8.825369e-001	-4.697827e-001
48137874.000	-8.825779e-001	-4.697583e-001
48143868.000	-8.825682e-001	-4.696809e-001
48149862.000	-8.826451e-001	-4.696421e-001
48155856.000	-8.826352e-001	-4.695747e-001
48161850.000	-8.826699e-001	-4.695851e-001
48167844.000	-8.826750e-001	-4.695466e-001
48173838.000	-8.827568e-001	-4.694875e-001
48179832.000	-8.827339e-001	-4.694330e-001
48185826.000	-8.827804e-001	-4.693938e-001
48191820.000	-8.828326e-001	-4.693139e-001
48197814.000	-8.828472e-001	-4.692933e-001
48203808.000	-8.828348e-001	-4.691968e-001
48209802.000	-8.828984e-001	-4.691699e-001
48215796.000	-8.829238e-001	-4.691449e-001
48221790.000	-8.829048e-001	-4.690696e-001
48227784.000	-8.830345e-001	-4.690537e-001
48233778.000	-8.830131e-001	-4.689490e-001
48239772.000	-8.830626e-001	-4.689155e-001
48245766.000	-8.830347e-001	-4.688820e-001
48251760.000	-8.830879e-001	-4.688090e-001
48257754.000	-8.830709e-001	-4.687613e-001
48263748.000	-8.830709e-001	-4.686963e-001
48269742.000	-8.831178e-001	-4.686393e-001
48275736.000	-8.831985e-001	-4.686167e-001
48281730.000	-8.831842e-001	-4.685733e-001
48287724.000	-8.832120e-001	-4.685749e-001
48293718.000	-8.832310e-001	-4.684678e-001
48299712.000	-8.833073e-001	-4.683989e-001
48305706.000	-8.832824e-001	-4.684152e-001
48311700.000	-8.832866e-001	-4.683161e-001
48317694.000	-8.833128e-001	-4.682792e-001
48323688.000	-8.833595e-001	-4.682129e-001
48329682.000	-8.834037e-001	-4.682232e-001
48335676.000	-8.834539e-001	-4.680954e-001
48341670.000	-8.834657e-001	-4.680750e-001
48347664.000	-8.835016e-001	-4.680204e-001
48353658.000	-8.835203e-001	-4.680124e-001
48359652.000	-8.835376e-001	-4.679116e-001
48365646.000	-8.836088e-001	-4.678793e-001
48371640.000	-8.835663e-001	-4.678160e-001
48377634.000	-8.836060e-001	-4.677993e-001
48383628.000	-8.836297e-001	-4.677538e-001
48389622.000	-8.836924e-001	-4.676560e-001
48395616.000	-8.836666e-001	-4.676079e-001
48401610.000	-8.837392e-001	-4.675736e-001
48407604.000	-8.837534e-001	-4.675579e-001
48413598.000	-8.837750e-001	-4.675017e-001
48419592.000	-8.838194e-001	-4.674510e-001
48425586.000	-8.837983e-001	-4.673681e-001
48431580.000	-8.838260e-001	-4.673244e-001
48437574.000	-8.838709e-001	-4.672548e-001
48443568.000	-8.838018e-001	-4.671839e-001
48449562.000	-8.839260e-001	-4.672034e-001
48455556.000	-8.839649e-001	-4.671291e-001
48461550.000	-8.839685e-001	-4.670440e-001
48467544.000	-8.839561e-001	-4.670021e-001
48473538.000	-8.840246e-001	-4.669893e-001
48479532.000	-8.840860e-001	-4.669644e-001
48485526.000	-8.840856e-001	-4.668568e-001
48491520.000	-8.841096e-001	-4.668327e-001
48497514.000	-8.841470e-001	-4.667587e-001
48503508.000	-8.841281e-001	-4.666883e-001
48509502.000	-8.841963e-001	-4.666746e-001
48515496.000	-8.842444e-001	-4.665908e-001
48521490.000	-8.842263e-001	-4.665474e-001
48527484.000	-8.842389e-001	-4.665156e-001
48533478.000	-8.842805e-001	-4.664493e-001
48539472.000	-8.843146e-001	-4.664469e-001
48545466.000	-8.843893e-001	-4.664283e-001
48551460.000	-8.843837e-001	-4.663397e-001
48557454.000	-8.843758e-001	-4.662896e-001
48563448.000	-8.844087e-001	-4.662368e-001
48569442.000	-8.844610e-001	-4.661937e-001
48575436.000	-8.844874e-001	-4.661465e-001
48581430.000	-8.845395e-001	-4.661026e-001
48587424.000	-8.845310e-001	-4.660529e-001
48593418.000	-8.845412e-001	-4.659939e-001
48599412.000	-8.845639e-001	-4.659424e-001
48605406.000	-8.846031e-001	-4.658770e-001
48611400.000	-8.846461e-001	-4.658241e-001
48617394.000	-8.846315e-001	-4.658050e-001
48623388.000	-8.846857e-001	-4.657652e-001
48629382.000	-8.847479e-001	-4.657346e-001
48635376.000	-8.847790e-001	-4.656504e-001
48641370.000	-8.847166e-001	-4.655779e-001
48647364.000	-8.847932e-001	-4.655120e-001
48653358.000	-8.848258e-001	-4.655214e-001
48659352.000	-8.848214e-001	-4.654730e-001
48665346.000	-8.848828e-001	-4.654053e-001
48671340.000	-8.848252e-001	-4.652872e-001
48677334.000	-8.849308e-001	-4.653103e-001
48683328.000	-8.849065e-001	-4.652375e-001
48689322.000	-8.849776e-001	-4.652150e-001
48695316.000	-8.849808e-001	-4.651551e-001
48701310.000	-8.850210e-001	-4.651484e-001
48707304.000	-8.850534e-001	-4.650524e-001
48713298.000	-8.850725e-001	-4.649562e-001
48719292.000	-8.850255e-001	-4.649434e-001
48725286.000	-8.851313e-001	-4.649032e-001
48731280.000	-8.851104e-001	-4.647980e-001
48737274.000	-8.851285e-001	-4.647962e-001
48743268.000	-8.851919e-001	-4.647585e-001
48749262.000	-8.852394e-001	-4.647149e-001
48755256.000	-8.852261e-001	-4.646506e-001
48761250.000	-8.852459e-001	-4.646719e-001
48767244.000	-8.852828e-001	-4.645745e-001
48773238.000	-8.853256e-001	-4.645185e-001
48779232.000	-8.853048e-001	-4.644659e-001
48785226.000	-8.853449e-001	-4.644124e-001
48791220.000	-8.854319e-001	-4.643830e-001
48797214.000	-8.854219e-001	-4.643081e-001
48803208.000	-8.854480e-001	-4.642519e-001
48809202.000	-8.854769e-001	-4.642145e-001
48815196.000	-8.854569e-001	-4.641582e-001
48821190.000	-8.854184e-001	-4.640932e-001
48827184.000	-8.855621e-001	-4.640596e-001
48833178.000	-8.855737e-001	-4.640193e-001
48839172.000	-8.856197e-001	-4.639800e-001
48845166.000	-8.856177e-001	-4.639654e-001
48851160.000	-8.857071e-001	-4.638850e-001
48857154.000	-8.856843e-001	-4.638539e-001
48863148.000	-8.856605e-001	-4.637142e-001
48869142.000	-8.857199e-001	-4.636435e-001
48875136.000	-8.857029e-001	-4.636205e-001
48881130.000	-8.857248e-001	-4.635446e-001
48887124.000	-8.857816e-001	-4.635251e-001
48893118.000	-8.858636e-001	-4.634922e-001
48899112.000	-8.858053e-001	-4.634795e-001
48905106.000	-8.858731e-001	-4.634291e-001
48911100.000	-8.858634e-001	-4.633538e-001
48917094.000	-8.858711e-001	-4.632887e-001
48923088.000	-8.859239e-001	-4.632582e-001
48929082.000	-8.859653e-001	-4.631890e-001
48935076.000	-8.860203e-001	-4.631638e-001
48941070.000	-8.859772e-001	-4.630695e-001
48947064.000	-8.860414e-001	-4.630554e-001
48953058.000	-8.860547e-001	-4.630248e-001
48959052.000	-8.860906e-001	-4.629231e-001
48965046.000	-8.861426e-001	-4.629090e-001
48971040.000	-8.861396e-001	-4.628804e-001
48977034.000	-8.862125e-001	-4.628754e-001
48983028.000	-8.861999e-001	-4.627572e-001
48989022.000	-8.862153e-001	-4.627412e-001
48995016.000	-8.862193e-001	-4.626741e-001
49001010.000	-8.863055e-001	-4.627362e-001
49007004.000	-8.862874e-001	-4.625725e-001
49012998.000	-8.863275e-001	-4.625485e-001
49018992.000	-8.863552e-001	-4.624779e-001
49024986.000	-8.863670e-001	-4.624658e-001
49030980.000	-8.864148e-001	-4.624511e-001
49036974.000	-8.864618e-001	-4.623770e-001
49042968.000	-8.864333e-001	-4.622598e-001
49048962.000	-8.864763e-001	-4.622361e-001
49054956.000	-8.864823e-001	-4.621697e-001
49060950.000	-8.865123e-001	-4.621697e-001
49066944.000	-8.865330e-001	-4.620886e-001
49072938.000	-8.865935e-001	-4.620415e-001
49078932.000	-8.865974e-001	-4.619897e-001
49084926.000	-8.866703e-001	-4.619364e-001
49090920.000	-8.866321e-001	-4.618886e-001
49096914.000	-8.867267e-001	-4.619116e-001
49102908.000	-8.866568e-001	-4.617846e-001
49108902.000	-8.867321e-001	-4.617729e-001
49114896.000	-8.867660e-001	-4.617165e-001
49120890.000	-8.867585e-001	-4.616497e-001
49126884.000	-8.867805e-001	-4.615794e-001
49132878.000	-8.868027e-001	-4.615380e-001
49138872.000	-8.868447e-001	-4.614818e-001
49144866.000	-8.868456e-001	-4.614289e-001
49150860.000	-8.869058e-001	-4.614061e-001
49156854.000	-8.869105e-001	-4.613439e-001
49162848.000	-8.869471e-001	-4.612934e-001
49168842.000	-8.869997e-001	-4.613051e-001
49174836.000	-8.869657e-001	-4.612216e-001
49180830.000	-8.869986e-001	-4.611748e-001
49186824.000	-8.869831e-001	-4.611343e-001
49192818.000	-8.870569e-001	-4.610447e-001
49198812.000	-8.871168e-001	-4.610474e-001
49204806.000	-8.871064e-001	-4.609529e-001
49210800.000	-8.871677e-001	-4.608768e-001
49216794.000	-8.871785e-001	-4.608724e-001
49222788.000	-8.871835e-001	-4.608442e-001
49228782.000	-8.872237e-001	-4.607797e-001
49234776.000	-8.872582e-001	-4.607673e-001
49240770.000	-8.872385e-001	-4.606768e-001
49246764.000	-8.872949e-001	-4.607031e-001
49252758.000	-8.873301e-001	-4.606152e-001
49258752.000	-8.873562e-001	-4.605340e-001
49264746.000	-8.873561e-001	-4.604988e-001
49270740.000	-8.874648e-001	-4.604690e-001
49276734.000	-8.873994e-001	-4.603859e-001
49282728.000	-8.874453e-001	-4.603320e-001
49288722.000	-8.874654e-001	-4.602964e-001
49294716.000	-8.874621e-001	-4.602692e-001
49300710.000	-8.874914e-001	-4.601646e-001
49306704.000	-8.875346e-001	-4.601321e-001
49312698.000	-8.875849e-001	-4.601315e-001
49318692.000	-8.876111e-001	-4.600970e-001
49324686.000	-8.876055e-001	-4.600287e-001
49330680.000	-8.876505e-001	-4.599863e-001
49336674.000	-8.876916e-001	-4.599383e-001
49342668.000	-8.877305e-001	-4.598843e-001
49348662.000	-8.877306e-001	-4.598403e-001
49354656.000	-8.877828e-001	-4.597743e-001
49360650.000	-8.877731e-001	-4.597486e-001
49366644.000	-8.877906e-001	-4.596556e-001
49372638.000	-8.878107e-001	-4.596225e-001
49378632.000	-8.878699e-001	-4.596001e-001
49384626.000	-8.878854e-001	-4.595391e-001
49390620.000	-8.879118e-001	-4.594566e-001
49396614.000	-8.879019e-001	-4.594350e-001
49402608.000	-8.879059e-001	-4.593577e-001
49408602.000	-8.879967e-001	-4.593463e-001
49414596.000	-8.880090e-001	-4.592803e-001
49420590.000	-8.879984e-001	-4.592454e-001
49426584.000	-8.880438e-001	-4.591871e-001
49432578.000	-8.880970e-001	-4.591592e-001
49438572.000	-8.880517e-001	-4.590984e-001
49444566.000	-8.881109e-001	-4.590878e-001
49450560.000	-8.881002e-001	-4.589870e-001
49456554.000	-8.881754e-001	-4.589485e-001
49462548.000	-8.882312e-001	-4.588969e-001
49468542.000	-8.881969e-001	-4.588533e-001
49474536.000	-8.882441e-001	-4.588117e-001
49480530.000	-8.882674e-001	-4.587234e-001
49486524.000	-8.882679e-001	-4.586997e-001
49492518.000	-8.882367e-001	-4.585692e-001
49498512.000	-8.883408e-001	-4.585850e-001
49504506.000	-8.883556e-001	-4.585770e-001
49510500.000	-8.884034e-001	-4.585080e-001
49516494.000	-8.883998e-001	-4.584308e-001
49522488.000	-8.884094e-001	-4.584479e-001
49528482.000	-8.884449e-001	-4.583020e-001
49534476.000	-8.884760e-001	-4.583352e-001
49540470.000	-8.884982e-001	-4.582489e-001
49546464.000	-8.885253e-001	-4.582632e-001
49552458.000	-8.885214e-001	-4.582120e-001
49558452.000	-8.885692e-001	-4.581434e-001
49564446.000	-8.886338e-001	-4.581102e-001
49570440.000	-8.886339e-001	-4.580877e-001
49576434.000	-8.886613e-001	-4.579821e-001
49582428.000	-8.886613e-001	-4.579131e-001
49588422.000	-8.887048e-001	-4.578965e-001
49594416.000	-8.886914e-001	-4.578503e-001
49600410.000	-8.887357e-001	-4.578143e-001
49606404.000	-8.887608e-001	-4.577286e-001
49612398.000	-8.887378e-001	-4.577371e-001
49618392.000	-8.887920e-001	-4.576414e-001
49624386.000	-8.888135e-001	-4.575798e-001
49630380.000	-8.888510e-001	-4.575699e-001
49636374.000	-8.888750e-001	-4.575434e-001
49642368.000	-8.888787e-001	-4.574342e-001
49648362.000	-8.888949e-001	-4.574194e-001
49654356.000	-8.889709e-001	-4.573472e-001
49660350.000	-8.889894e-001	-4.573263e-001
49666344.000	-8.889798e-001	-4.572477e-001
49672338.000	-8.890306e-001	-4.572160e-001
49678332.000	-8.890888e-001	-4.571742e-001
49684326.000	-8.890800e-001	-4.571024e-001
49690320.000	-8.891502e-001	-4.570532e-001
49696314.000	-8.891584e-001	-4.570407e-001
49702308.000	-8.891286e-001	-4.570129e-001
49708302.000	-8.892113e-001	-4.569753e-001
49714296.000	-8.891771e-001	-4.568338e-001
49720290.000	-8.892581e-001	-4.568420e-001
49726284.000	-8.892024e-001	-4.567518e-001
49732278.000	-8.893124e-001	-4.567426e-001
49738272.000	-8.892925e-001	-4.567091e-001
49744266.000	-8.893460e-001	-4.566536e-001
49750260.000	-8.893958e-001	-4.565977e-001
49756254.000	-8.893566e-001	-4.565713e-001
49762248.000	-8.893960e-001	-4.565388e-001
49768242.000	-8.894083e-001	-4.565306e-001
49774236.000	-8.894816e-001	-4.564124e-001
49780230.000	-8.894872e-001	-4.564141e-001
49786224.000	-8.895286e-001	-4.563377e-001
49792218.000	-8.894899e-001	-4.562738e-001
49798212.000	-8.895909e-001	-4.562345e-001
49804206.000	-8.895858e-001	-4.561955e-001
49810200.000	-8.895957e-001	-4.561102e-001
49816194.000	-8.896546e-001	-4.560453e-001
49822188.000	-8.896468e-001	-4.560588e-001
49828182.000	-8.896737e-001	-4.560062e-001
49834176.000	-8.896760e-001	-4.559390e-001
49840170.000	-8.896653e-001	-4.559352e-001
49846164.000	-8.897741e-001	-4.558404e-001
49852158.000	-8.897939e-001	-4.557875e-001
49858152.000	-8.897776e-001	-4.557396e-001
49864146.000	-8.897952e-001	-4.556992e-001
49870140.000	-8.897766e-001	-4.556196e-001
49876134.000	-8.899107e-001	-4.556354e-001
49882128.000	-8.898769e-001	-4.555578e-001
49888122.000	-8.899454e-001	-4.555547e-001
49894116.000	-8.899053e-001	-4.554901e-001
49900110.000	-8.899791e-001	-4.554583e-001
49906104.000	-8.899950e-001	-4.553949e-001
49912098.000	-8.899811e-001	-4.553341e-001
49918092.000	-8.900052e-001	-4.552544e-001
49924086.000	-8.900845e-001	-4.552111e-001
49930080.000	-8.900634e-001	-4.551857e-001
49936074.000	-8.901240e-001	-4.551790e-001
49942068.000	-8.900892e-001	-4.551037e-001
49948062.000	-8.901733e-001	-4.550396e-001
49954056.000	-8.901688e-001	-4.549999e-001
49960050.000	-8.901808e-001	-4.549569e-001
49966044.000	-8.901968e-001	-4.549253e-001
49972038.000	-8.902821e-001	-4.548240e-001
49978032.000	-8.902021e-001	-4.547642e-001
49984026.000	-8.903201e-001	-4.548043e-001
49990020.000	-8.902846e-001	-4.547022e-001
49996014.000	-8.902523e-001	-4.546013e-001
50002008.000	-8.903275e-001	-4.545662e-001
50008002.000	-8.903217e-001	-4.545689e-001
50013996.000	-8.903331e-001	-4.544854e-001
50019990.000	-8.904315e-001	-4.544208e-001
50025984.000	-8.904285e-001	-4.544030e-001
50031978.000	-8.904094e-001	-4.543394e-001
50037972.000	-8.904615e-001	-4.542857e-001
50043966.000	-8.904575e-001	-4.542632e-001
50049960.000	-8.905208e-001	-4.542113e-001
50055954.000	-8.905336e-001	-4.541121e-001
50061948.000	-8.905519e-001	-4.541191e-001
50067942.000	-8.905826e-001	-4.541241e-001
50073936.000	-8.906063e-001	-4.540389e-001
50079930.000	-8.906670e-001	-4.539272e-001
50085924.000	-8.906475e-001	-4.539233e-001
50091918.000	-8.906935e-001	-4.538315e-001
50097912.000	-8.906939e-001	-4.538386e-001
50103906.000	-8.907313e-001	-4.537807e-001
50109900.000	-8.907568e-001	-4.537295e-001
50115894.000	-8.908026e-001	-4.536816e-001
50121888.000	-8.908181e-001	-4.536523e-001
50127882.000	-8.907894e-001	-4.536187e-001
50133876.000	-8.908489e-001	-4.534976e-001
50139870.000	-8.909113e-001	-4.534850e-001
50145864.000	-8.908956e-001	-4.534976e-001
50151858.000	-8.909275e-001	-4.533720e-001
50157852.000	-8.909790e-001	-4.533593e-001
50163846.000	-8.909325e-001	-4.533581e-001
50169840.000	-8.909648e-001	-4.532649e-001
50175834.000	-8.909899e-001	-4.532291e-001
50181828.000	-8.911212e-001	-4.531900e-001
50187822.000	-8.910954e-001	-4.531414e-001
50193816.000	-8.910975e-001	-4.531001e-001
50199810.000	-8.911199e-001	-4.530812e-001
50205804.000	-8.911289e-001	-4.529754e-001
50211798.000	-8.911906e-001	-4.529463e-001
50217792.000	-8.911821e-001	-4.528876e-001
50223786.000	-8.911444e-001	-4.528385e-001
50229780.000	-8.912160e-001	-4.528325e-001
50235774.000	-8.912528e-001	-4.527378e-001
50241768.000	-8.912697e-001	-4.526566e-001
50247762.000	-8.912725e-001	-4.525871e-001
50253756.000	-8.913042e-001	-4.526121e-001
50259750.000	-8.913110e-001	-4.525226e-001
50265744.000	-8.913546e-001	-4.524910e-001
50271738.000	-8.913356e-001	-4.524718e-001
50277732.000	-8.914147e-001	-4.524287e-001
50283726.000	-8.914471e-001	-4.523968e-001
50289720.000	-8.914789e-001	-4.522981e-001
50295714.000	-8.914581e-001	-4.522132e-001
50301708.000	-8.914978e-001	-4.522212e-001
50307702.000	-8.914637e-001	-4.521365e-001
50313696.000	-8.915258e-001	-4.520801e-001
50319690.000	-8.915422e-001	-4.520715e-001
50325684.000	-8.915531e-001	-4.520841e-001
50331678.000	-8.916149e-001	-4.520168e-001
50337672.000	-8.916283e-001	-4.519416e-001
50343666.000	-8.916308e-001	-4.518565e-001
50349660.000	-8.916827e-001	-4.518619e-001
50355654.000	-8.916550e-001	-4.517796e-001
50361648.000	-8.917490e-001	-4.517583e-001
50367642.000	-8.917430e-001	-4.516903e-001
50373636.000	-8.917549e-001	-4.516759e-001
50379630.000	-8.917712e-001	-4.515583e-001
50385624.000	-8.917447e-001	-4.515119e-001
50391618.000	-8.918124e-001	-4.514487e-001
50397612.000	-8.918701e-001	-4.514755e-001
50403606.000	-8.918443e-001	-4.513979e-001
50409600.000	-8.918976e-001	-4.513387e-001
50415594.000	-8.918789e-001	-4.513009e-001
50421588.000	-8.919392e-001	-4.512498e-001
50427582.000	-8.919260e-001	-4.511890e-001
50433576.000	-8.919496e-001	-4.511731e-001
50439570.000	-8.919991e-001	-4.510799e-001
50445564.000	-8.920389e-001	-4.510901e-001
50451558.000	-8.920012e-001	-4.510422e-001
50457552.000	-8.920959e-001	-4.510203e-001
50463546.000	-8.920627e-001	-4.509686e-001
50469540.000	-8.921248e-001	-4.508971e-001
50475534.000	-8.921226e-001	-4.508867e-001
50481528.000	-8.921932e-001	-4.507820e-001
50487522.000	-8.921860e-001	-4.507789e-001
50493516.000	-8.921670e-001	-4.506997e-001
50499510.000	-8.922097e-001	-4.506586e-001
50505504.000	-8.922155e-001	-4.505651e-001
50511498.000	-8.922914e-001	-4.505212e-001
50517492.000	-8.922872e-001	-4.505270e-001
50523486.000	-8.922880e-001	-4.504565e-001
50529480.000	-8.923690e-001	-4.504221e-001
50535474.000	-8.923582e-001	-4.503997e-001
50541468.000	-8.923786e-001	-4.503216e-001
50547462.000	-8.923992e-001	-4.503102e-001
50553456.000	-8.924830e-001	-4.502577e-001
50559450.000	-8.924818e-001	-4.502044e-001
50565444.000	-8.924777e-001	-4.501339e-001
50571438.000	-8.924986e-001	-4.500974e-001
50577432.000	-8.925235e-001	-4.500452e-001
50583426.000	-8.925390e-001	-4.499798e-001
50589420.000	-8.925766e-001	-4.499519e-001
50595414.000	-8.925625e-001	-4.499107e-001
50601408.000	-8.926202e-001	-4.498740e-001
50607402.000	-8.926263e-001	-4.498201e-001
50613396.000	-8.926732e-001	-4.497581e-001
50619390.000	-8.926778e-001	-4.497144e-001
50625384.000	-8.926891e-001	-4.496469e-001
50631378.000	-8.927364e-001	-4.496781e-001
50637372.000	-8.927645e-001	-4.496092e-001
50643366.000	-8.927585e-001	-4.495875e-001
50649360.000	-8.927940e-001	-4.494899e-001
50655354.000	-8.928154e-001	-4.494961e-001
50661348.000	-8.928417e-001	-4.494148e-001
50667342.000	-8.928527e-001	-4.493479e-001
50673336.000	-8.929080e-001	-4.492902e-001
50679330.000	-8.929011e-001	-4.492433e-001
50685324.000	-8.929591e-001	-4.492019e-001
50691318.000	-8.929552e-001	-4.491785e-001
50697312.000	-8.929930e-001	-4.490651e-001
50703306.000	-8.930057e-001	-4.490197e-001
50709300.000	-8.930317e-001	-4.490644e-001
50715294.000	-8.930345e-001	-4.490513e-001
50721288.000	-8.931265e-001	-4.489599e-001
50727282.000	-8.930713e-001	-4.489065e-001
50733276.000	-8.930720e-001	-4.488116e-001
50739270.000	-8.931310e-001	-4.487891e-001
50745264.000	-8.931553e-001	-4.487762e-001
50751258.000	-8.931773e-001	-4.486985e-001
50757252.000	-8.931849e-001	-4.486318e-001
50763246.000	-8.932247e-001	-4.486582e-001
50769240.000	-8.932390e-001	-4.485641e-001
50775234.000	-8.932767e-001	-4.485479e-001
50781228.000	-8.933152e-001	-4.484741e-001
50787222.000	-8.933850e-001	-4.484256e-001
50793216.000	-8.933177e-001	-4.483799e-001
50799210.000	-8.933322e-001	-4.483306e-001
50805204.000	-8.934146e-001	-4.483132e-001
50811198.000	-8.933693e-001	-4.482053e-001
50817192.000	-8.934581e-001	-4.482223e-001
50823186.000	-8.934400e-001	-4.481599e-001
50829180.000	-8.934347e-001	-4.481039e-001
50835174.000	-8.934923e-001	-4.480399e-001
50841168.000	-8.935040e-001	-4.479814e-001
50847162.000	-8.935088e-001	-4.479418e-001
50853156.000	-8.935407e-001	-4.478664e-001
50859150.000	-8.935830e-001	-4.478375e-001
50865144.000	-8.935485e-001	-4.477943e-001
50871138.000	-8.936446e-001	-4.478332e-001
50877132.000	-8.936638e-001	-4.477532e-001
50883126.000	-8.936570e-001	-4.477383e-001
50889120.000	-8.936935e-001	-4.476309e-001
50895114.000	-8.937357e-001	-4.476084e-001
50901108.000	-8.937009e-001	-4.475347e-001
50907102.000	-8.937184e-001	-4.474527e-001
50913096.000	-8.937808e-001	-4.474480e-001
50919090.000	-8.938112e-001	-4.473892e-001
50925084.000	-8.938448e-001	-4.473508e-001
50931078.000	-8.938145e-001	-4.473431e-001
50937072.000	-8.938623e-001	-4.472812e-001
50943066.000	-8.938910e-001	-4.471882e-001
50949060.000	-8.938960e-001	-4.471669e-001
50955054.000	-8.939024e-001	-4.471433e-001
50961048.000	-8.939238e-001	-4.470983e-001
50967042.000	-8.940023e-001	-4.470735e-001
50973036.000	-8.940128e-001	-4.470186e-001
50979030.000	-8.939909e-001	-4.468903e-001
50985024.000	-8.939913e-001	-4.468864e-001
50991018.000	-8.939947e-001	-4.468150e-001
50997012.000	-8.940570e-001	-4.468123e-001
51003006.000	-8.940716e-001	-4.467586e-001
51009000.000	-8.940960e-001	-4.467301e-001
51014994.000	-8.941097e-001	-4.466950e-001
51020988.000	-8.941567e-001	-4.466115e-001
51026982.000	-8.941718e-001	-4.465449e-001
51032976.000	-8.942226e-001	-4.465578e-001
51038970.000	-8.942380e-001	-4.464946e-001
51044964.000	-8.942896e-001	-4.464619e-001
51050958.000	-8.942827e-001	-4.463793e-001
51056952.000	-8.942961e-001	-4.463512e-001
51062946.000	-8.943104e-001	-4.463162e-001
51068940.000	-8.943411e-001	-4.463237e-001
51074934.000	-8.943782e-001	-4.461594e-001
51080928.000	-8.944029e-001	-4.462208e-001
51086922.000	-8.944357e-001	-4.461232e-001
51092916.000	-8.944694e-001	-4.460651e-001
51098910.000	-8.944043e-001	-4.460749e-001
51104904.000	-8.944791e-001	-4.459518e-001
51110898.000	-8.944974e-001	-4.459521e-001
51116892.000	-8.945004e-001	-4.458950e-001
51122886.000	-8.945547e-001	-4.458720e-001
51128880.000	-8.945632e-001	-4.457680e-001
51134874.000	-8.945991e-001	-4.457882e-001
51140868.000	-8.945731e-001	-4.457301e-001
51146862.000	-8.946004e-001	-4.456635e-001
51152856.000	-8.946531e-001	-4.456386e-001
51158850.000	-8.946995e-001	-4.455684e-001
51164844.000	-8.946750e-001	-4.455304e-001
51170838.000	-8.947055e-001	-4.454562e-001
51176832.000	-8.947414e-001	-4.454287e-001
51182826.000	-8.947384e-001	-4.453729e-001
51188820.000	-8.947314e-001	-4.453465e-001
51194814.000	-8.948258e-001	-4.453539e-001
51200808.000	-8.948239e-001	-4.452895e-001
51206802.000	-8.948273e-001	-4.451786e-001
51212796.000	-8.948233e-001	-4.451895e-001
51218790.000	-8.949185e-001	-4.450910e-001
51224784.000	-8.949162e-001	-4.451218e-001
51230778.000	-8.949649e-001	-4.450488e-001
51236772.000	-8.949407e-001	-4.449880e-001
51242766.000	-8.949762e-001	-4.449384e-001
51248760.000	-8.950302e-001	-4.449664e-001
51254754.000	-8.949875e-001	-4.448461e-001
51260748.000	-8.950669e-001	-4.448374e-001
51266742.000	-8.950764e-001	-4.447637e-001
51272736.000	-8.951028e-001	-4.447106e-001
51278730.000	-8.951356e-001	-4.446515e-001
51284724.000	-8.951799e-001	-4.446354e-001
51290718.000	-8.951793e-001	-4.446189e-001
51296712.000	-8.951999e-001	-4.445449e-001
51302706.000	-8.952019e-001	-4.445385e-001
51308700.000	-8.952308e-001	-4.444975e-001
51314694.000	-8.952928e-001	-4.444461e-001
51320688.000	-8.952489e-001	-4.443404e-001
51326682.000	-8.952682e-001	-4.443550e-001
51332676.000	-8.952867e-001	-4.442843e-001
51338670.000	-8.953416e-001	-4.442445e-001
51344664.000	-8.953867e-001	-4.441669e-001
51350658.000	-8.953490e-001	-4.441756e-001
51356652.000	-8.954223e-001	-4.441078e-001
51362646.000	-8.954062e-001	-4.440429e-001
51368640.000	-8.954411e-001	-4.440100e-001
51374634.000	-8.954800e-001	-4.439493e-001
51380628.000	-8.954801e-001	-4.438769e-001
51386622.000	-8.955088e-001	-4.438640e-001
51392616.000	-8.954932e-001	-4.438030e-001
51398610.000	-8.954691e-001	-4.438076e-001
51404604.000	-8.955506e-001	-4.436873e-001
51410598.000	-8.955844e-001	-4.436738e-001
51416592.000	-8.955629e-001	-4.436521e-001
51422586.000	-8.956258e-001	-4.435911e-001
51428580.000	-8.955952e-001	-4.435909e-001
51434574.000	-8.956746e-001	-4.435692e-001
51440568.000	-8.957206e-001	-4.434468e-001
51446562.000	-8.956675e-001	-4.433926e-001
51452556.000	-8.957631e-001	-4.433638e-001
51458550.000	-8.957457e-001	-4.432943e-001
51464544.000	-8.958040e-001	-4.432848e-001
51470538.000	-8.957933e-001	-4.431871e-001
51476532.000	-8.958655e-001	-4.432457e-001
51482526.000	-8.958793e-001	-4.431647e-001
51488520.000	-8.958559e-001	-4.430751e-001
51494514.000	-8.959476e-001	-4.430521e-001
51500508.000	-8.959212e-001	-4.430721e-001
51506502.000	-8.959805e-001	-4.430185e-001
51512496.000	-8.960042e-001	-4.428944e-001
51518490.000	-8.959683e-001	-4.428949e-001
51524484.000	-8.959904e-001	-4.428304e-001
51530478.000	-8.960345e-001	-4.428318e-001
51536472.000	-8.961034e-001	-4.427877e-001
51542466.000	-8.960752e-001	-4.426892e-001
51548460.000	-8.960658e-001	-4.426295e-001
51554454.000	-8.961225e-001	-4.426244e-001
51560448.000	-8.960643e-001	-4.425177e-001
51566442.000	-8.961350e-001	-4.425394e-001
51572436.000	-8.961753e-001	-4.424875e-001
51578430.000	-8.961694e-001	-4.423949e-001
51584424.000	-8.961840e-001	-4.423849e-001
51590418.000	-8.962294e-001	-4.423145e-001
51596412.000	-8.962681e-001	-4.422981e-001
51602406.000	-8.962819e-001	-4.422409e-001
51608400.000	-8.962781e-001	-4.422126e-001
51614394.000	-8.963531e-001	-4.421256e-001
51620388.000	-8.963702e-001	-4.421402e-001
51626382.000	-8.964018e-001	-4.420650e-001
51632376.000	-8.963910e-001	-4.419956e-001
51638370.000	-8.963979e-001	-4.419869e-001
51644364.000	-8.964343e-001	-4.419441e-001
51650358.000	-8.964763e-001	-4.418737e-001
51656352.000	-8.964628e-001	-4.418662e-001
51662346.000	-8.965030e-001	-4.418043e-001
51668340.000	-8.965147e-001	-4.417340e-001
51674334.000	-8.965347e-001	-4.417291e-001
51680328.000	-8.965479e-001	-4.416785e-001
51686322.000	-8.966202e-001	-4.416364e-001
51692316.000	-8.965882e-001	-4.415665e-001
51698310.000	-8.966398e-001	-4.415244e-001
51704304.000	-8.966066e-001	-4.414653e-001
51710298.000	-8.966171e-001	-4.414911e-001
51716292.000	-8.966945e-001	-4.413741e-001
51722286.000	-8.967411e-001	-4.413440e-001
51728280.000	-8.967920e-001	-4.413404e-001
51734274.000	-8.967599e-001	-4.412599e-001
51740268.000	-8.967793e-001	-4.412396e-001
51746262.000	-8.967976e-001	-4.411911e-001
51752256.000	-8.968313e-001	-4.411278e-001
51758250.000	-8.968240e-001	-4.410620e-001
51764244.000	-8.968460e-001	-4.410375e-001
51770238.000	-8.969074e-001	-4.410269e-001
51776232.000	-8.969032e-001	-4.409598e-001
51782226.000	-8.969253e-001	-4.408710e-001
51788220.000	-8.969869e-001	-4.408248e-001
51794214.000	-8.969991e-001	-4.408291e-001
51800208.000	-8.969884e-001	-4.407665e-001
51806202.000	-8.970175e-001	-4.407485e-001
51812196.000	-8.970353e-001	-4.406984e-001
51818190.000	-8.970916e-001	-4.406598e-001
51824184.000	-8.970505e-001	-4.405273e-001
51830178.000	-8.971100e-001	-4.405517e-001
51836172.000	-8.970750e-001	-4.404931e-001
51842166.000	-8.971420e-001	-4.404452e-001
51848160.000	-8.971698e-001	-4.403822e-001
51854154.000	-8.971336e-001	-4.403563e-001
51860148.000	-8.971586e-001	-4.403158e-001
51866142.000	-8.971970e-001	-4.402572e-001
51872136.000	-8.972391e-001	-4.402397e-001
51878130.000	-8.972762e-001	-4.402330e-001
51884124.000	-8.972889e-001	-4.401467e-001
51890118.000	-8.972916e-001	-4.400947e-001
51896112.000	-8.973226e-001	-4.400632e-001
51902106.000	-8.973121e-001	-4.400197e-001
51908100.000	-8.973679e-001	-4.399519e-001
51914094.000	-8.974037e-001	-4.399322e-001
51920088.000	-8.973881e-001	-4.399155e-001
51926082.000	-8.974438e-001	-4.398589e-001
51932076.000	-8.974338e-001	-4.397732e-001
51938070.000	-8.974920e-001	-4.397420e-001
51944064.000	-8.974951e-001	-4.397370e-001
51950058.000	-8.975551e-001	-4.396864e-001
51956052.000	-8.975316e-001	-4.396299e-001
51962046.000	-8.976058e-001	-4.395614e-001
51968040.000	-8.975762e-001	-4.395197e-001
51974034.000	-8.975885e-001	-4.395506e-001
51980028.000	-8.976011e-001	-4.394664e-001
51986022.000	-8.976420e-001	-4.393776e-001
51992016.000	-8.976649e-001	-4.393204e-001
51998010.000	-8.976959e-001	-4.393146e-001
52004004.000	-8.977326e-001	-4.392949e-001
52009998.000	-8.977127e-001	-4.392342e-001
52015992.000	-8.977598e-001	-4.391504e-001
52021986.000	-8.977611e-001	-4.391173e-001
52027980.000	-8.977570e-001	-4.391409e-001
52033974.000	-8.978268e-001	-4.390601e-001
52039968.000	-8.978679e-001	-4.390162e-001
52045962.000	-8.978376e-001	-4.389968e-001
52051956.000	-8.979312e-001	-4.389207e-001
52057950.000	-8.978713e-001	-4.388285e-001
52063944.000	-8.978735e-001	-4.387873e-001
52069938.000	-8.979238e-001	-4.387568e-001
52075932.000	-8.979460e-001	-4.387200e-001
52081926.000	-8.979588e-001	-4.386990e-001
52087920.000	-8.980070e-001	-4.386509e-001
52093914.000	-8.980291e-001	-4.386358e-001
52099908.000	-8.980234e-001	-4.385688e-001
52105902.000	-8.980641e-001	-4.385010e-001
52111896.000	-8.980631e-001	-4.384673e-001
52117890.000	-8.981236e-001	-4.384655e-001
52123884.000	-8.981246e-001	-4.384046e-001
52129878.000	-8.981437e-001	-4.382947e-001
52135872.000	-8.981468e-001	-4.383064e-001
52141866.000	-8.981589e-001	-4.382105e-001
52147860.000	-8.982163e-001	-4.381781e-001
52153854.000	-8.982367e-001	-4.382029e-001
52159848.000	-8.982683e-001	-4.381203e-001
52165842.000	-8.982558e-001	-4.380840e-001
52171836.000	-8.982790e-001	-4.380470e-001
52177830.000	-8.983395e-001	-4.379842e-001
52183824.000	-8.983142e-001	-4.379779e-001
52189818.000	-8.983093e-001	-4.379140e-001
52195812.000	-8.983695e-001	-4.378044e-001
52201806.000	-8.983707e-001	-4.378289e-001
52207800.000	-8.983877e-001	-4.377450e-001
52213794.000	-8.984005e-001	-4.376977e-001
52219788.000	-8.984880e-001	-4.376740e-001
52225782.000	-8.984572e-001	-4.376744e-001
52231776.000	-8.984777e-001	-4.376161e-001
52237770.000	-8.985128e-001	-4.375995e-001
52243764.000	-8.985300e-001	-4.374509e-001
52249758.000	-8.985619e-001	-4.374655e-001
52255752.000	-8.985700e-001	-4.374090e-001
52261746.000	-8.985921e-001	-4.373225e-001
52267740.000	-8.986333e-001	-4.372934e-001
52273734.000	-8.986285e-001	-4.372822e-001
52279728.000	-8.986428e-001	-4.372315e-001
52285722.000	-8.986712e-001	-4.371538e-001
52291716.000	-8.986964e-001	-4.371970e-001
52297710.000	-8.987261e-001	-4.371545e-001
52303704.000	-8.987694e-001	-4.370555e-001
52309698.000	-8.987925e-001	-4.370168e-001
52315692.000	-8.987763e-001	-4.369357e-001
52321686.000	-8.987908e-001	-4.369766e-001
52327680.000	-8.988508e-001	-4.369052e-001
52333674.000	-8.988727e-001	-4.368313e-001
52339668.000	-8.989169e-001	-4.367977e-001
52345662.000	-8.988739e-001	-4.367614e-001
52351656.000	-8.988585e-001	-4.367050e-001
52357650.000	-8.989393e-001	-4.366657e-001
52363644.000	-8.989378e-001	-4.366133e-001
52369638.000	-8.989620e-001	-4.366118e-001
52375632.000	-8.990191e-001	-4.365348e-001
52381626.000	-8.989734e-001	-4.365227e-001
52387620.000	-8.990074e-001	-4.364353e-001
52393614.000	-8.990651e-001	-4.364068e-001
52399608.000	-8.990952e-001	-4.364063e-001
52405602.000	-8.990845e-001	-4.362981e-001
52411596.000	-8.991369e-001	-4.362373e-001
52417590.000	-8.991405e-001	-4.362396e-001
52423584.000	-8.992013e-001	-4.361999e-001
52429578.000	-8.991742e-001	-4.360543e-001
52435572.000	-8.991633e-001	-4.360854e-001
52441566.000	-8.991938e-001	-4.360351e-001
52447560.000	-8.992494e-001	-4.360307e-001
52453554.000	-8.992460e-001	-4.359874e-001
52459548.000	-8.992941e-001	-4.359566e-001
52465542.000	-8.992894e-001	-4.358988e-001
52471536.000	-8.992872e-001	-4.358884e-001
52477530.000	-8.993367e-001	-4.357893e-001
52483524.000	-8.993879e-001	-4.357452e-001
52489518.000	-8.993395e-001	-4.357000e-001
52495512.000	-8.993947e-001	-4.356650e-001
52501506.000	-8.993562e-001	-4.356362e-001
52507500.000	-8.994298e-001	-4.355375e-001
52513494.000	-8.994630e-001	-4.355608e-001
52519488.000	-8.994699e-001	-4.354667e-001
52525482.000	-8.995059e-001	-4.354301e-001
52531476.000	-8.995349e-001	-4.353977e-001
52537470.000	-8.995138e-001	-4.353533e-001
52543464.000	-8.995360e-001	-4.353248e-001
52549458.000	-8.995833e-001	-4.352882e-001
52555452.000	-8.995725e-001	-4.352099e-001
52561446.000	-8.996317e-001	-4.352222e-001
52567440.000	-8.996100e-001	-4.351414e-001
52573434.000	-8.996510e-001	-4.351289e-001
52579428.000	-8.996742e-001	-4.349989e-001
52585422.000	-8.997214e-001	-4.350155e-001
52591416.000	-8.997044e-001	-4.349784e-001
52597410.000	-8.997095e-001	-4.349537e-001
52603404.000	-8.997199e-001	-4.348925e-001
52609398.000	-8.997844e-001	-4.348240e-001
52615392.000	-8.998174e-001	-4.348176e-001
52621386.000	-8.998796e-001	-4.347654e-001
52627380.000	-8.999023e-001	-4.347086e-001
52633374.000	-8.998383e-001	-4.347162e-001
52639368.000	-8.998689e-001	-4.346201e-001
52645362.000	-8.998645e-001	-4.345441e-001
52651356.000	-8.998942e-001	-4.344965e-001
52657350.000	-8.999584e-001	-4.344664e-001
52663344.000	-8.999795e-001	-4.344349e-001
52669338.000	-8.999739e-001	-4.344044e-001
52675332.000	-9.000448e-001	-4.343907e-001
52681326.000	-9.000072e-001	-4.343244e-001
52687320.000	-9.000948e-001	-4.342965e-001
52693314.000	-9.001011e-001	-4.342544e-001
52699308.000	-9.000628e-001	-4.341746e-001
52705302.000	-9.000958e-001	-4.341786e-001
52711296.000	-9.001112e-001	-4.341274e-001
52717290.000	-9.001622e-001	-4.340835e-001
52723284.000	-9.001568e-001	-4.339788e-001
52729278.000	-9.001844e-001	-4.339730e-001
52735272.000	-9.001970e-001	-4.339034e-001
52741266.000	-9.002767e-001	-4.338410e-001
52747260.000	-9.002342e-001	-4.338284e-001
52753254.000	-9.003087e-001	-4.337565e-001
52759248.000	-9.002620e-001	-4.337236e-001
52765242.000	-9.003318e-001	-4.337436e-001
52771236.000	-9.003608e-001	-4.337282e-001
52777230.000	-9.004106e-001	-4.336088e-001
52783224.000	-9.003297e-001	-4.335411e-001
52789218.000	-9.003380e-001	-4.335028e-001
52795212.000	-9.003683e-001	-4.334970e-001
52801206.000	-9.004280e-001	-4.334365e-001
52807200.000	-9.005000e-001	-4.334470e-001
52813194.000	-9.004057e-001	-4.333699e-001
52819188.000	-9.005093e-001	-4.333063e-001
52825182.000	-9.005223e-001	-4.332410e-001
52831176.000	-9.005248e-001	-4.332411e-001
52837170.000	-9.005284e-001	-4.332020e-001
52843164.000	-9.005973e-001	-4.332139e-001
52849158.000	-9.006100e-001	-4.330905e-001
52855152.000	-9.005967e-001	-4.330025e-001
52861146.000	-9.006266e-001	-4.330269e-001
52867140.000	-9.006327e-001	-4.329400e-001
52873134.000	-9.006611e-001	-4.329559e-001
52879128.000	-9.007219e-001	-4.328871e-001
52885122.000	-9.007287e-001	-4.328394e-001
52891116.000	-9.007565e-001	-4.328049e-001
52897110.000	-9.007471e-001	-4.327237e-001
52903104.000	-9.007992e-001	-4.327009e-001
52909098.000	-9.007331e-001	-4.326477e-001
52915092.000	-9.008496e-001	-4.326514e-001
52921086.000	-9.008128e-001	-4.325633e-001
52927080.000	-9.008246e-001	-4.325698e-001
52933074.000	-9.008553e-001	-4.324763e-001
52939068.000	-9.009195e-001	-4.324745e-001
52945062.000	-9.008996e-001	-4.324352e-001
52951056.000	-9.009265e-001	-4.323658e-001
52957050.000	-9.009452e-001	-4.323174e-001
52963044.000	-9.009757e-001	-4.322847e-001
52969038.000	-9.009587e-001	-4.322598e-001
52975032.000	-9.010035e-001	-4.322253e-001
52981026.000	-9.010696e-001	-4.321554e-001
52987020.000	-9.010855e-001	-4.321283e-001
52993014.000	-9.010904e-001	-4.321420e-001
52999008.000	-9.011080e-001	-4.320293e-001
53005002.000	-9.011203e-001	-4.320109e-001
53010996.000	-9.011389e-001	-4.319604e-001
53016990.000	-9.011413e-001	-4.318742e-001
53022984.000	-9.011254e-001	-4.318487e-001
53028978.000	-9.011750e-001	-4.318078e-001
53034972.000	-9.011795e-001	-4.317338e-001
53040966.000	-9.012059e-001	-4.317244e-001
53046960.000	-9.012534e-001	-4.316861e-001
53052954.000	-9.012663e-001	-4.316314e-001
53058948.000	-9.012519e-001	-4.315822e-001
53064942.000	-9.012802e-001	-4.315523e-001
53070936.000	-9.013698e-001	-4.314968e-001
53076930.000	-9.013523e-001	-4.314860e-001
53082924.000	-9.013971e-001	-4.314513e-001
53088918.000	-9.014006e-001	-4.313874e-001
53094912.000	-9.013787e-001	-4.313211e-001
53100906.000	-9.014247e-001	-4.313201e-001
53106900.000	-9.014072e-001	-4.312853e-001
53112894.000	-9.014705e-001	-4.312785e-001
53118888.000	-9.014907e-001	-4.311525e-001
53124882.000	-9.015068e-001	-4.310994e-001
53130876.000	-9.014654e-001	-4.310506e-001
53136870.000	-9.015723e-001	-4.310821e-001
53142864.000	-9.015200e-001	-4.309581e-001
53148858.000	-9.015847e-001	-4.309466e-001
53154852.000	-9.015732e-001	-4.308955e-001
53160846.000	-9.016490e-001	-4.309048e-001
53166840.000	-9.016202e-001	-4.308275e-001
53172834.000	-9.016665e-001	-4.307597e-001
53178828.000	-9.016714e-001	-4.307372e-001
53184822.000	-9.016514e-001	-4.307118e-001
53190816.000	-9.017010e-001	-4.306396e-001
53196810.000	-9.017345e-001	-4.306109e-001
53202804.000	-9.017335e-001	-4.305325e-001
53208798.000	-9.017809e-001	-4.305493e-001
53214792.000	-9.018105e-001	-4.304947e-001
53220786.000	-9.017967e-001	-4.304117e-001
53226780.000	-9.018599e-001	-4.303738e-001
53232774.000	-9.018433e-001	-4.303810e-001
53238768.000	-9.018538e-001	-4.303542e-001
53244762.000	-9.019372e-001	-4.303053e-001
53250756.000	-9.019515e-001	-4.302797e-001
53256750.000	-9.019498e-001	-4.302351e-001
53262744.000	-9.018964e-001	-4.301668e-001
53268738.000	-9.019914e-001	-4.301351e-001
53274732.000	-9.019887e-001	-4.300662e-001
53280726.000	-9.020015e-001	-4.299832e-001
53286720.000	-9.020151e-001	-4.299771e-001
53292714.000	-9.020807e-001	-4.299453e-001
53298708.000	-9.020738e-001	-4.298706e-001
53304702.000	-9.021089e-001	-4.299034e-001
53310696.000	-9.021511e-001	-4.298272e-001
53316690.000	-9.021662e-001	-4.298389e-001
53322684.000	-9.021541e-001	-4.297266e-001
53328678.000	-9.021530e-001	-4.297409e-001
53334672.000	-9.022250e-001	-4.296909e-001
53340666.000	-9.021585e-001	-4.295966e-001
53346660.000	-9.021914e-001	-4.295743e-001
53352654.000	-9.021896e-001	-4.294904e-001
53358648.000	-9.022646e-001	-4.294468e-001
53364642.000	-9.022735e-001	-4.293821e-001
53370636.000	-9.023023e-001	-4.293428e-001
53376630.000	-9.023230e-001	-4.293801e-001
53382624.000	-9.023792e-001	-4.293567e-001
53388618.000	-9.023578e-001	-4.292796e-001
53394612.000	-9.024395e-001	-4.292221e-001
53400606.000	-9.024631e-001	-4.292120e-001
53406600.000	-9.024623e-001	-4.291768e-001
53412594.000	-9.024335e-001	-4.290879e-001
53418588.000	-9.024742e-001	-4.290391e-001
53424582.000	-9.024769e-001	-4.290400e-001
53430576.000	-9.025187e-001	-4.290326e-001
53436570.000	-9.025063e-001	-4.289123e-001
53442564.000	-9.025459e-001	-4.289368e-001
53448558.000	-9.025962e-001	-4.288456e-001
53454552.000	-9.026194e-001	-4.288544e-001
53460546.000	-9.026044e-001	-4.287577e-001
53466540.000	-9.026137e-001	-4.287244e-001
53472534.000	-9.026388e-001	-4.287311e-001
53478528.000	-9.026923e-001	-4.286774e-001
53484522.000	-9.026716e-001	-4.286363e-001
53490516.000	-9.027237e-001	-4.285582e-001
53496510.000	-9.027305e-001	-4.285067e-001
53502504.000	-9.027538e-001	-4.284979e-001
53508498.000	-9.027652e-001	-4.284218e-001
53514492.000	-9.027338e-001	-4.283991e-001
53520486.000	-9.028318e-001	-4.283449e-001
53526480.000	-9.027851e-001	-4.283046e-001
53532474.000	-9.028127e-001	-4.282313e-001
53538468.000	-9.028435e-001	-4.281886e-001
53544462.000	-9.028857e-001	-4.282028e-001
53550456.000	-9.029315e-001	-4.281111e-001
53556450.000	-9.028751e-001	-4.280509e-001
53562444.000	-9.028750e-001	-4.280568e-001
53568438.000	-9.029919e-001	-4.280261e-001
53574432.000	-9.029746e-001	-4.279649e-001
53580426.000	-9.030609e-001	-4.279502e-001
53586420.000	-9.030089e-001	-4.279166e-001
53592414.000	-9.030170e-001	-4.278593e-001
53598408.000	-9.030672e-001	-4.277808e-001
53604402.000	-9.030615e-001	-4.277428e-001
53610396.000	-9.030761e-001	-4.277179e-001
53616390.000	-9.031174e-001	-4.277253e-001
53622384.000	-9.031383e-001	-4.276177e-001
53628378.000	-9.031712e-001	-4.276354e-001
53634372.000	-9.031890e-001	-4.275663e-001
53640366.000	-9.031736e-001	-4.275174e-001
53646360.000	-9.031974e-001	-4.275152e-001
53652354.000	-9.032449e-001	-4.274543e-001
53658348.000	-9.032348e-001	-4.273499e-001
53664342.000	-9.032445e-001	-4.273028e-001
53670336.000	-9.032645e-001	-4.272675e-001
53676330.000	-9.032289e-001	-4.272473e-001
53682324.000	-9.032956e-001	-4.272433e-001
53688318.000	-9.033460e-001	-4.271895e-001
53694312.000	-9.033357e-001	-4.271235e-001
53700306.000	-9.033359e-001	-4.271189e-001
53706300.000	-9.033773e-001	-4.270185e-001
53712294.000	-9.033512e-001	-4.269796e-001
53718288.000	-9.034093e-001	-4.269462e-001
53724282.000	-9.034449e-001	-4.268568e-001
53730276.000	-9.034866e-001	-4.269182e-001
53736270.000	-9.034844e-001	-4.268594e-001
53742264.000	-9.034958e-001	-4.268240e-001
53748258.000	-9.035044e-001	-4.267516e-001
53754252.000	-9.035606e-001	-4.267111e-001
53760246.000	-9.035556e-001	-4.266630e-001
53766240.000	-9.035655e-001	-4.266288e-001
53772234.000	-9.035418e-001	-4.265524e-001
53778228.000	-9.035944e-001	-4.265303e-001
53784222.000	-9.036310e-001	-4.264789e-001
53790216.000	-9.036520e-001	-4.264438e-001
53796210.000	-9.036959e-001	-4.264094e-001
53802204.000	-9.037227e-001	-4.263723e-001
53808198.000	-9.037309e-001	-4.263259e-001
53814192.000	-9.037329e-001	-4.263061e-001
53820186.000	-9.037905e-001	-4.262384e-001
53826180.000	-9.037394e-001	-4.262040e-001
53832174.000	-9.038322e-001	-4.262087e-001
53838168.000	-9.037834e-001	-4.261297e-001
53844162.000	-9.037959e-001	-4.260745e-001
53850156.000	-9.038568e-001	-4.260505e-001
53856150.000	-9.038567e-001	-4.259467e-001
53862144.000	-9.038877e-001	-4.259552e-001
53868138.000	-9.039343e-001	-4.259370e-001
53874132.000	-9.039620e-001	-4.259237e-001
53880126.000	-9.039506e-001	-4.258464e-001
53886120.000	-9.039780e-001	-4.258332e-001
53892114.000	-9.039698e-001	-4.257406e-001
53898108.000	-9.040100e-001	-4.256819e-001
53904102.000	-9.039897e-001	-4.256522e-001
53910096.000	-9.040494e-001	-4.256208e-001
53916090.000	-9.040662e-001	-4.255669e-001
53922084.000	-9.040455e-001	-4.255238e-001
53928078.000	-9.041209e-001	-4.254949e-001
53934072.000	-9.041549e-001	-4.254415e-001
53940066.000	-9.040902e-001	-4.254383e-001
53946060.000	-9.041240e-001	-4.253930e-001
53952054.000	-9.041559e-001	-4.253489e-001
53958048.000	-9.042043e-001	-4.252974e-001
53964042.000	-9.042129e-001	-4.252614e-001
53970036.000	-9.042217e-001	-4.251577e-001
53976030.000	-9.042533e-001	-4.251998e-001
53982024.000	-9.042980e-001	-4.251655e-001
53988018.000	-9.042884e-001	-4.250884e-001
53994012.000	-9.042608e-001	-4.250512e-001
54000006.000	-9.043494e-001	-4.250046e-001
54006000.000	-9.043199e-001	-4.249987e-001
54011994.000	-9.043237e-001	-4.249583e-001
54017988.000	-9.044234e-001	-4.249512e-001
54023982.000	-9.044207e-001	-4.248619e-001
54029976.000	-9.044580e-001	-4.248178e-001
54035970.000	-9.044592e-001	-4.247891e-001
54041964.000	-9.044950e-001	-4.247325e-001
54047958.000	-9.044679e-001	-4.247049e-001
54053952.000	-9.044848e-001	-4.246160e-001
54059946.000	-9.045199e-001	-4.246202e-001
54065940.000	-9.045705e-001	-4.245570e-001
54071934.000	-9.045748e-001	-4.245629e-001
54077928.000	-9.046281e-001	-4.245085e-001
54083922.000	-9.046045e-001	-4.244761e-001
54089916.000	-9.046334e-001	-4.244140e-001
54095910.000	-9.046534e-001	-4.243981e-001
54101904.000	-9.047005e-001	-4.243494e-001
54107898.000	-9.047435e-001	-4.243072e-001
54113892.000	-9.046980e-001	-4.242469e-001
54119886.000	-9.047416e-001	-4.241673e-001
54125880.000	-9.047310e-001	-4.241916e-001
54131874.000	-9.047705e-001	-4.241206e-001
54137868.000	-9.047979e-001	-4.240931e-001
54143862.000	-9.048053e-001	-4.240690e-001
54149856.000	-9.048309e-001	-4.239742e-001
54155850.000	-9.048377e-001	-4.239432e-001
54161844.000	-9.048780e-001	-4.239555e-001
54167838.000	-9.048983e-001	-4.239298e-001
54173832.000	-9.049382e-001	-4.239170e-001
54179826.000	-9.049129e-001	-4.238216e-001
54185820.000	-9.049199e-001	-4.236923e-001
54191814.000	-9.049068e-001	-4.236808e-001
54197808.000	-9.049900e-001	-4.236600e-001
54203802.000	-9.050092e-001	-4.236035e-001
54209796.000	-9.050036e-001	-4.235639e-001
54215790.000	-9.050159e-001	-4.235441e-001
54221784.000	-9.050340e-001	-4.234571e-001
54227778.000	-9.050979e-001	-4.234596e-001
54233772.000	-9.050202e-001	-4.234029e-001
54239766.000	-9.051228e-001	-4.233718e-001
54245760.000	-9.051612e-001	-4.233091e-001
54251754.000	-9.051348e-001	-4.233162e-001
54257748.000	-9.051712e-001	-4.232487e-001
54263742.000	-9.051748e-001	-4.232187e-001
54269736.000	-9.051571e-001	-4.231663e-001
54275730.000	-9.051328e-001	-4.231265e-001
54281724.000	-9.052157e-001	-4.231058e-001
54287718.000	-9.052275e-001	-4.230127e-001
54293712.000	-9.052693e-001	-4.230218e-001
54299706.000	-9.052596e-001	-4.229202e-001
54305700.000	-9.052531e-001	-4.229128e-001
54311694.000	-9.053421e-001	-4.228971e-001
54317688.000	-9.053474e-001	-4.228699e-001
54323682.000	-9.053434e-001	-4.228416e-001
54329676.000	-9.053796e-001	-4.227437e-001
54335670.000	-9.053883e-001	-4.227597e-001
54341664.000	-9.053841e-001	-4.226609e-001
54347658.000	-9.054227e-001	-4.226310e-001
54353652.000	-9.054269e-001	-4.226216e-001
54359646.000	-9.054642e-001	-4.225192e-001
54365640.000	-9.054471e-001	-4.224843e-001
54371634.000	-9.054721e-001	-4.224446e-001
54377628.000	-9.054959e-001	-4.223954e-001
54383622.000	-9.055640e-001	-4.223737e-001
54389616.000	-9.055356e-001	-4.223362e-001
54395610.000	-9.055943e-001	-4.223063e-001
54401604.000	-9.056480e-001	-4.222832e-001
54407598.000	-9.056169e-001	-4.222493e-001
54413592.000	-9.055933e-001	-4.221670e-001
54419586.000	-9.056394e-001	-4.221827e-001
54425580.000	-9.056330e-001	-4.220676e-001
54431574.000	-9.056851e-001	-4.220586e-001
54437568.000	-9.056636e-001	-4.220214e-001
54443562.000	-9.057108e-001	-4.219911e-001
54449556.000	-9.057464e-001	-4.219667e-001
54455550.000	-9.058004e-001	-4.219807e-001
54461544.000	-9.057348e-001	-4.218650e-001
54467538.000	-9.057976e-001	-4.217860e-001
54473532.000	-9.058004e-001	-4.217414e-001
54479526.000	-9.058447e-001	-4.217360e-001
54485520.000	-9.058554e-001	-4.217372e-001
54491514.000	-9.059312e-001	-4.216405e-001
54497508.000	-9.059062e-001	-4.216033e-001
54503502.000	-9.059239e-001	-4.216199e-001
54509496.000	-9.059247e-001	-4.215300e-001
54515490.000	-9.059204e-001	-4.215142e-001
54521484.000	-9.059608e-001	-4.214998e-001
54527478.000	-9.060086e-001	-4.214399e-001
54533472.000	-9.060828e-001	-4.214067e-001
54539466.000	-9.060272e-001	-4.213332e-001
54545460.000	-9.060221e-001	-4.212917e-001
54551454.000	-9.060693e-001	-4.212578e-001
54557448.000	-9.060483e-001	-4.212122e-001
54563442.000	-9.061066e-001	-4.211754e-001
54569436.000	-9.061369e-001	-4.211068e-001
54575430.000	-9.061449e-001	-4.211041e-001
54581424.000	-9.061614e-001	-4.210338e-001
54587418.000	-9.061429e-001	-4.210217e-001
54593412.000	-9.061666e-001	-4.209921e-001
54599406.000	-9.061724e-001	-4.208723e-001
54605400.000	-9.062173e-001	-4.208684e-001
54611394.000	-9.062167e-001	-4.208077e-001
54617388.000	-9.063077e-001	-4.207894e-001
54623382.000	-9.062749e-001	-4.207467e-001
54629376.000	-9.062709e-001	-4.207537e-001
54635370.000	-9.062805e-001	-4.207066e-001
54641364.000	-9.062938e-001	-4.206455e-001
54647358.000	-9.063085e-001	-4.205629e-001
54653352.000	-9.063760e-001	-4.205683e-001
54659346.000	-9.063679e-001	-4.205050e-001
54665340.000	-9.063569e-001	-4.204309e-001
54671334.000	-9.064662e-001	-4.204027e-001
54677328.000	-9.064310e-001	-4.204256e-001
54683322.000	-9.064469e-001	-4.203365e-001
54689316.000	-9.064827e-001	-4.203256e-001
54695310.000	-9.064638e-001	-4.202707e-001
54701304.000	-9.064843e-001	-4.202198e-001
54707298.000	-9.065446e-001	-4.201941e-001
54713292.000	-9.065774e-001	-4.201516e-001
54719286.000	-9.066037e-001	-4.201168e-001
54725280.000	-9.065651e-001	-4.200852e-001
54731274.000	-9.066171e-001	-4.200171e-001
54737268.000	-9.065884e-001	-4.200172e-001
54743262.000	-9.066432e-001	-4.199431e-001
54749256.000	-9.066571e-001	-4.199424e-001
54755250.000	-9.066843e-001	-4.198594e-001
54761244.000	-9.066385e-001	-4.198160e-001
54767238.000	-9.066955e-001	-4.197535e-001
54773232.000	-9.067217e-001	-4.197005e-001
54779226.000	-9.067276e-001	-4.196949e-001
54785220.000	-9.067141e-001	-4.196879e-001
54791214.000	-9.067724e-001	-4.196212e-001
54797208.000	-9.067866e-001	-4.195741e-001
54803202.000	-9.068453e-001	-4.195422e-001
54809196.000	-9.068053e-001	-4.194335e-001
54815190.000	-9.068152e-001	-4.194744e-001
54821184.000	-9.068870e-001	-4.194026e-001
54827178.000	-9.069034e-001	-4.194086e-001
54833172.000	-9.069452e-001	-4.193828e-001
54839166.000	-9.068867e-001	-4.192994e-001
54845160.000	-9.069041e-001	-4.192437e-001
54851154.000	-9.069369e-001	-4.192348e-001
54857148.000	-9.068713e-001	-4.191652e-001
54863142.000	-9.069632e-001	-4.191190e-001
54869136.000	-9.069809e-001	-4.190976e-001
54875130.000	-9.069871e-001	-4.190735e-001
54881124.000	-9.070000e-001	-4.190005e-001
54887118.000	-9.070163e-001	-4.189441e-001
54893112.000	-9.070047e-001	-4.188664e-001
54899106.000	-9.071108e-001	-4.189362e-001
54905100.000	-9.070537e-001	-4.187876e-001
54911094.000	-9.070863e-001	-4.187513e-001
54917088.000	-9.071131e-001	-4.187272e-001
54923082.000	-9.071386e-001	-4.187373e-001
54929076.000	-9.071339e-001	-4.186883e-001
54935070.000	-9.071662e-001	-4.186026e-001
54941064.000	-9.072098e-001	-4.185461e-001
54947058.000	-9.071984e-001	-4.185432e-001
54953052.000	-9.072129e-001	-4.185157e-001
54959046.000	-9.072226e-001	-4.184821e-001
54965040.000	-9.072450e-001	-4.184112e-001
54971034.000	-9.072621e-001	-4.183836e-001
54977028.000	-9.073490e-001	-4.183762e-001
54983022.000	-9.073968e-001	-4.183568e-001
54989016.000	-9.073164e-001	-4.182777e-001
54995010.000	-9.073742e-001	-4.182592e-001
55001004.000	-9.073724e-001	-4.181801e-001
55006998.000	-9.074094e-001	-4.181400e-001
55012992.000	-9.073879e-001	-4.181106e-001
55018986.000	-9.073954e-001	-4.180819e-001
55024980.000	-9.074529e-001	-4.180725e-001
55030974.000	-9.074147e-001	-4.180068e-001
55036968.000	-9.074239e-001	-4.179385e-001
55042962.000	-9.074980e-001	-4.179044e-001
55048956.000	-9.075267e-001	-4.178981e-001
55054950.000	-9.075757e-001	-4.178198e-001
55060944.000	-9.075928e-001	-4.177815e-001
55066938.000	-9.076008e-001	-4.177529e-001
55072932.000	-9.075936e-001	-4.177402e-001
55078926.000	-9.076025e-001	-4.176423e-001
55084920.000	-9.076218e-001	-4.176392e-001
55090914.000	-9.076530e-001	-4.176385e-001
55096908.000	-9.076389e-001	-4.175471e-001
55102902.000	-9.076582e-001	-4.175209e-001
55108896.000	-9.077387e-001	-4.174542e-001
55114890.000	-9.077232e-001	-4.174930e-001
55120884.000	-9.077402e-001	-4.174317e-001
55126878.000	-9.078075e-001	-4.173741e-001
55132872.000	-9.078226e-001	-4.173181e-001
55138866.000	-9.077997e-001	-4.172881e-001
55144860.000	-9.078095e-001	-4.172604e-001
55150854.000	-9.078574e-001	-4.172436e-001
55156848.000	-9.078943e-001	-4.171651e-001
55162842.000	-9.078521e-001	-4.171760e-001
55168836.000	-9.078791e-001	-4.171038e-001
55174830.000	-9.079282e-001	-4.170380e-001
55180824.000	-9.079401e-001	-4.170312e-001
55186818.000	-9.079653e-001	-4.169934e-001
55192812.000	-9.079822e-001	-4.169409e-001
55198806.000	-9.079608e-001	-4.168871e-001
55204800.000	-9.079369e-001	-4.168416e-001
55210794.000	-9.080278e-001	-4.168455e-001
55216788.000	-9.080241e-001	-4.167747e-001
55222782.000	-9.080641e-001	-4.167650e-001
55228776.000	-9.080488e-001	-4.166822e-001
55234770.000	-9.080818e-001	-4.166909e-001
55240764.000	-9.081134e-001	-4.166129e-001
55246758.000	-9.081434e-001	-4.165293e-001
55252752.000	-9.081151e-001	-4.165609e-001
55258746.000	-9.081309e-001	-4.165154e-001
55264740.000	-9.081760e-001	-4.164451e-001
55270734.000	-9.082017e-001	-4.164752e-001
55276728.000	-9.082351e-001	-4.164015e-001
55282722.000	-9.082245e-001	-4.163667e-001
55288716.000	-9.082546e-001	-4.163064e-001
55294710.000	-9.082364e-001	-4.162853e-001
55300704.000	-9.082658e-001	-4.162275e-001
55306698.000	-9.082846e-001	-4.161192e-001
55312692.000	-9.083052e-001	-4.161496e-001
55318686.000	-9.083204e-001	-4.161028e-001
55324680.000	-9.083158e-001	-4.160630e-001
55330674.000	-9.083692e-001	-4.160372e-001
55336668.000	-9.083633e-001	-4.160208e-001
55342662.000	-9.083958e-001	-4.159353e-001
55348656.000	-9.084238e-001	-4.158867e-001
55354650.000	-9.084448e-001	-4.158818e-001
55360644.000	-9.084645e-001	-4.158011e-001
55366638.000	-9.085092e-001	-4.157921e-001
55372632.000	-9.084742e-001	-4.157557e-001
55378626.000	-9.085219e-001	-4.157378e-001
55384620.000	-9.085269e-001	-4.156947e-001
55390614.000	-9.085362e-001	-4.155867e-001
55396608.000	-9.085404e-001	-4.155546e-001
55402602.000	-9.085678e-001	-4.155559e-001
55408596.000	-9.086416e-001	-4.154914e-001
55414590.000	-9.085918e-001	-4.154808e-001
55420584.000	-9.086417e-001	-4.154525e-001
55426578.000	-9.086404e-001	-4.153804e-001
55432572.000	-9.086640e-001	-4.153879e-001
55438566.000	-9.086767e-001	-4.153366e-001
55444560.000	-9.087097e-001	-4.152957e-001
55450554.000	-9.087264e-001	-4.152215e-001
55456548.000	-9.087690e-001	-4.151969e-001
55462542.000	-9.087856e-001	-4.151710e-001
55468536.000	-9.087764e-001	-4.151040e-001
55474530.000	-9.087993e-001	-4.150369e-001
55480524.000	-9.088219e-001	-4.150671e-001
55486518.000	-9.088210e-001	-4.150411e-001
55492512.000	-9.088710e-001	-4.149343e-001
55498506.000	-9.088263e-001	-4.149136e-001
55504500.000	-9.088650e-001	-4.149131e-001
55510494.000	-9.089155e-001	-4.148710e-001
55516488.000	-9.089337e-001	-4.148264e-001
55522482.000	-9.089752e-001	-4.147895e-001
55528476.000	-9.089422e-001	-4.147023e-001
55534470.000	-9.089877e-001	-4.147120e-001
55540464.000	-9.089723e-001	-4.146273e-001
55546458.000	-9.090021e-001	-4.146013e-001
55552452.000	-9.089872e-001	-4.145783e-001
55558446.000	-9.090022e-001	-4.145249e-001
55564440.000	-9.090743e-001	-4.144929e-001
55570434.000	-9.090726e-001	-4.144397e-001
55576428.000	-9.090877e-001	-4.144135e-001
55582422.000	-9.091349e-001	-4.143891e-001
55588416.000	-9.091126e-001	-4.143126e-001
55594410.000	-9.091457e-001	-4.143119e-001
55600404.000	-9.091801e-001	-4.142546e-001
55606398.000	-9.091440e-001	-4.142320e-001
55612392.000	-9.091984e-001	-4.142153e-001
55618386.000	-9.091807e-001	-4.141416e-001
55624380.000	-9.092142e-001	-4.141046e-001
55630374.000	-9.092609e-001	-4.140534e-001
55636368.000	-9.092606e-001	-4.140387e-001
55642362.000	-9.093050e-001	-4.139774e-001
55648356.000	-9.093222e-001	-4.140126e-001
55654350.000	-9.092803e-001	-4.138660e-001
55660344.000	-9.093142e-001	-4.138079e-001
55666338.000	-9.093299e-001	-4.138474e-001
55672332.000	-9.093521e-001	-4.138002e-001
55678326.000	-9.093551e-001	-4.137625e-001
55684320.000	-9.093865e-001	-4.136892e-001
55690314.000	-9.094486e-001	-4.136980e-001
55696308.000	-9.094530e-001	-4.136521e-001
55702302.000	-9.094072e-001	-4.135888e-001
55708296.000	-9.094995e-001	-4.135844e-001
55714290.000	-9.094883e-001	-4.135298e-001
55720284.000	-9.095272e-001	-4.135165e-001
55726278.000	-9.095741e-001	-4.134439e-001
55732272.000	-9.096149e-001	-4.134429e-001
55738266.000	-9.095693e-001	-4.134108e-001
55744260.000	-9.095804e-001	-4.133516e-001
55750254.000	-9.095670e-001	-4.132693e-001
55756248.000	-9.096150e-001	-4.132599e-001
55762242.000	-9.095938e-001	-4.131729e-001
55768236.000	-9.096385e-001	-4.131345e-001
55774230.000	-9.096551e-001	-4.131068e-001
55780224.000	-9.097088e-001	-4.130545e-001
55786218.000	-9.096577e-001	-4.130753e-001
55792212.000	-9.096912e-001	-4.129661e-001
55798206.000	-9.097487e-001	-4.129859e-001
55804200.000	-9.097608e-001	-4.129243e-001
55810194.000	-9.097628e-001	-4.128769e-001
55816188.000	-9.098120e-001	-4.128946e-001
55822182.000	-9.098131e-001	-4.128148e-001
55828176.000	-9.097965e-001	-4.127297e-001
55834170.000	-9.098507e-001	-4.127342e-001
55840164.000	-9.098846e-001	-4.127279e-001
55846158.000	-9.098785e-001	-4.126756e-001
55852152.000	-9.098866e-001	-4.126488e-001
55858146.000	-9.098459e-001	-4.125659e-001
55864140.000	-9.098905e-001	-4.124991e-001
55870134.000	-9.099385e-001	-4.124912e-001
55876128.000	-9.099060e-001	-4.123991e-001
55882122.000	-9.099158e-001	-4.123569e-001
55888116.000	-9.099882e-001	-4.124024e-001
55894110.000	-9.099789e-001	-4.123187e-001
55900104.000	-9.100216e-001	-4.123361e-001
55906098.000	-9.100522e-001	-4.122264e-001
55912092.000	-9.100184e-001	-4.122466e-001
55918086.000	-9.100412e-001	-4.121399e-001
55924080.000	-9.100621e-001	-4.121289e-001
55930074.000	-9.100225e-001	-4.120433e-001
55936068.000	-9.100916e-001	-4.120951e-001
55942062.000	-9.100604e-001	-4.120271e-001
55948056.000	-9.101077e-001	-4.119990e-001
55954050.000	-9.101688e-001	-4.119591e-001
55960044.000	-9.102027e-001	-4.119129e-001
55966038.000	-9.101618e-001	-4.119333e-001
55972032.000	-9.102122e-001	-4.118673e-001
55978026.000	-9.102108e-001	-4.117800e-001
55984020.000	-9.102359e-001	-4.117037e-001
55990014.000	-9.102122e-001	-4.116728e-001
55996008.000	-9.102613e-001	-4.116795e-001
56002002.000	-9.102801e-001	-4.116163e-001
56007996.000	-9.102959e-001	-4.115917e-001
56013990.000	-9.102898e-001	-4.115366e-001
56019984.000	-9.103766e-001	-4.115262e-001
56025978.000	-9.103707e-001	-4.114774e-001
56031972.000	-9.103391e-001	-4.113898e-001
56037966.000	-9.103551e-001	-4.114059e-001
56043960.000	-9.104589e-001	-4.113892e-001
56049954.000	-9.104111e-001	-4.113071e-001
56055948.000	-9.104258e-001	-4.112730e-001
56061942.000	-9.104570e-001	-4.112626e-001
56067936.000	-9.104750e-001	-4.111869e-001
56073930.000	-9.105078e-001	-4.111621e-001
56079924.000	-9.104917e-001	-4.110978e-001
56085918.000	-9.105422e-001	-4.111051e-001
56091912.000	-9.105307e-001	-4.110327e-001
56097906.000	-9.105298e-001	-4.110706e-001
56103900.000	-9.105711e-001	-4.109507e-001
56109894.000	-9.105674e-001	-4.109136e-001
56115888.000	-9.106070e-001	-4.108812e-001
56121882.000	-9.106469e-001	-4.108662e-001
56127876.000	-9.106722e-001	-4.108224e-001
56133870.000	-9.106714e-001	-4.107520e-001
56139864.000	-9.106580e-001	-4.107310e-001
56145858.000	-9.107009e-001	-4.107448e-001
56151852.000	-9.107305e-001	-4.106964e-001
56157846.000	-9.107856e-001	-4.106443e-001
56163840.000	-9.107524e-001	-4.106368e-001
56169834.000	-9.107607e-001	-4.105137e-001
56175828.000	-9.108207e-001	-4.105100e-001
56181822.000	-9.107912e-001	-4.104698e-001
56187816.000	-9.107953e-001	-4.104424e-001
56193810.000	-9.108357e-001	-4.103802e-001
56199804.000	-9.108845e-001	-4.104006e-001
56205798.000	-9.108961e-001	-4.103445e-001
56211792.000	-9.108933e-001	-4.102853e-001
56217786.000	-9.109475e-001	-4.102560e-001
56223780.000	-9.109136e-001	-4.101948e-001
56229774.000	-9.110059e-001	-4.101946e-001
56235768.000	-9.109447e-001	-4.101305e-001
56241762.000	-9.110008e-001	-4.101074e-001
56247756.000	-9.109880e-001	-4.100980e-001
56253750.000	-9.110397e-001	-4.100456e-001
56259744.000	-9.110942e-001	-4.100071e-001
56265738.000	-9.110791e-001	-4.099724e-001
56271732.000	-9.110922e-001	-4.099072e-001
56277726.000	-9.110668e-001	-4.098441e-001
56283720.000	-9.110567e-001	-4.098068e-001
56289714.000	-9.111072e-001	-4.098323e-001
56295708.000	-9.111705e-001	-4.097815e-001
56301702.000	-9.111689e-001	-4.097194e-001
56307696.000	-9.111928e-001	-4.096838e-001
56313690.000	-9.111659e-001	-4.096628e-001
56319684.000	-9.112099e-001	-4.096372e-001
56325678.000	-9.111996e-001	-4.095609e-001
56331672.000	-9.112907e-001	-4.095283e-001
56337666.000	-9.112937e-001	-4.094788e-001
56343660.000	-9.112870e-001	-4.094482e-001
56349654.000	-9.112585e-001	-4.093995e-001
56355648.000	-9.112971e-001	-4.093387e-001
56361642.000	-9.112793e-001	-4.092896e-001
56367636.000	-9.113310e-001	-4.092932e-001
56373630.000	-9.113524e-001	-4.092387e-001
56379624.000	-9.113957e-001	-4.092862e-001
56385618.000	-9.114439e-001	-4.091830e-001
56391612.000	-9.114069e-001	-4.091335e-001
56397606.000	-9.113759e-001	-4.090860e-001
56403600.000	-9.113730e-001	-4.090603e-001
56409594.000	-9.114208e-001	-4.089477e-001
56415588.000	-9.114122e-001	-4.089473e-001
56421582.000	-9.115106e-001	-4.089306e-001
56427576.000	-9.114884e-001	-4.089345e-001
56433570.000	-9.114988e-001	-4.088566e-001
56439564.000	-9.114958e-001	-4.088184e-001
56445558.000	-9.115527e-001	-4.088145e-001
56451552.000	-9.115580e-001	-4.087986e-001
56457546.000	-9.115576e-001	-4.087219e-001
56463540.000	-9.116034e-001	-4.086391e-001
56469534.000	-9.116063e-001	-4.086754e-001
56475528.000	-9.115856e-001	-4.085822e-001
56481522.000	-9.116276e-001	-4.085482e-001
56487516.000	-9.116326e-001	-4.085237e-001
56493510.000	-9.116590e-001	-4.084174e-001
56499504.000	-9.116748e-001	-4.084586e-001
56505498.000	-9.116447e-001	-4.083794e-001
56511492.000	-9.116989e-001	-4.083387e-001
56517486.000	-9.116958e-001	-4.082628e-001
56523480.000	-9.117372e-001	-4.082674e-001
56529474.000	-9.117672e-001	-4.082265e-001
56535468.000	-9.117903e-001	-4.082382e-001
56541462.000	-9.117614e-001	-4.082232e-001
56547456.000	-9.118279e-001	-4.081440e-001
56553450.000	-9.118015e-001	-4.081032e-001
56559444.000	-9.118025e-001	-4.080323e-001
56565438.000	-9.118037e-001	-4.080061e-001
56571432.000	-9.118560e-001	-4.079341e-001
56577426.000	-9.118765e-001	-4.079281e-001
56583420.000	-9.118989e-001	-4.078904e-001
56589414.000	-9.118796e-001	-4.078523e-001
56595408.000	-9.118921e-001	-4.078280e-001
56601402.000	-9.119318e-001	-4.077620e-001
56607396.000	-9.120003e-001	-4.077529e-001
56613390.000	-9.120032e-001	-4.077450e-001
56619384.000	-9.119694e-001	-4.076384e-001
56625378.000	-9.119872e-001	-4.076039e-001
56631372.000	-9.120149e-001	-4.075905e-001
56637366.000	-9.120489e-001	-4.075718e-001
56643360.000	-9.120750e-001	-4.075397e-001
56649354.000	-9.121588e-001	-4.075647e-001
56655348.000	-9.120879e-001	-4.074750e-001
56661342.000	-9.121369e-001	-4.074354e-001
56667336.000	-9.121177e-001	-4.073908e-001
56673330.000	-9.121454e-001	-4.073518e-001
56679324.000	-9.121765e-001	-4.073356e-001
56685318.000	-9.121661e-001	-4.072287e-001
56691312.000	-9.121800e-001	-4.072320e-001
56697306.000	-9.122187e-001	-4.071878e-001
56703300.000	-9.122831e-001	-4.071483e-001
56709294.000	-9.123127e-001	-4.071246e-001
56715288.000	-9.123126e-001	-4.070712e-001
56721282.000	-9.122722e-001	-4.070638e-001
56727276.000	-9.122676e-001	-4.069915e-001
56733270.000	-9.123509e-001	-4.069801e-001
56739264.000	-9.123401e-001	-4.068902e-001
56745258.000	-9.123655e-001	-4.068993e-001
56751252.000	-9.123874e-001	-4.068628e-001
56757246.000	-9.123796e-001	-4.068120e-001
56763240.000	-9.123716e-001	-4.067438e-001
56769234.000	-9.124315e-001	-4.067449e-001
56775228.000	-9.124122e-001	-4.066838e-001
56781222.000	-9.123954e-001	-4.066033e-001
56787216.000	-9.125078e-001	-4.066250e-001
56793210.000	-9.124913e-001	-4.066097e-001
56799204.000	-9.125332e-001	-4.065640e-001
56805198.000	-9.125144e-001	-4.065183e-001
56811192.000	-9.125890e-001	-4.064983e-001
56817186.000	-9.125533e-001	-4.064460e-001
56823180.000	-9.125692e-001	-4.063783e-001
56829174.000	-9.126266e-001	-4.063419e-001
56835168.000	-9.125524e-001	-4.062899e-001
56841162.000	-9.125707e-001	-4.062323e-001
56847156.000	-9.126315e-001	-4.062539e-001
56853150.000	-9.126378e-001	-4.062171e-001
56859144.000	-9.126440e-001	-4.061269e-001
56865138.000	-9.126305e-001	-4.060603e-001
56871132.000	-9.126879e-001	-4.060945e-001
56877126.000	-9.126794e-001	-4.060446e-001
56883120.000	-9.127092e-001	-4.059692e-001
56889114.000	-9.127242e-001	-4.059475e-001
56895108.000	-9.127269e-001	-4.058953e-001
56901102.000	-9.127162e-001	-4.058653e-001
56907096.000	-9.127915e-001	-4.058539e-001
56913090.000	-9.127941e-001	-4.057717e-001
56919084.000	-9.128069e-001	-4.057882e-001
56925078.000	-9.128032e-001	-4.057678e-001
56931072.000	-9.128335e-001	-4.057006e-001
56937066.000	-9.127633e-001	-4.056482e-001
56943060.000	-9.128834e-001	-4.056320e-001
56949054.000	-9.128608e-001	-4.055226e-001
56955048.000	-9.129245e-001	-4.055124e-001
56961042.000	-9.129246e-001	-4.054966e-001
56967036.000	-9.129516e-001	-4.054218e-001
56973030.000	-9.129299e-001	-4.054215e-001
56979024.000	-9.129719e-001	-4.053667e-001
56985018.000	-9.129819e-001	-4.053373e-001
56991012.000	-9.130188e-001	-4.052924e-001
56997006.000	-9.130143e-001	-4.052723e-001
57003000.000	-9.130237e-001	-4.052580e-001
57008994.000	-9.130763e-001	-4.051680e-001
57014988.000	-9.130698e-001	-4.051502e-001
57020982.000	-9.130333e-001	-4.051271e-001
57026976.000	-9.130726e-001	-4.051009e-001
57032970.000	-9.131328e-001	-4.050700e-001
57038964.000	-9.131276e-001	-4.049940e-001
57044958.000	-9.131115e-001	-4.049353e-001
57050952.000	-9.131122e-001	-4.048880e-001
57056946.000	-9.131634e-001	-4.048913e-001
57062940.000	-9.131919e-001	-4.048775e-001
57068934.000	-9.132107e-001	-4.048213e-001
57074928.000	-9.131986e-001	-4.047448e-001
57080922.000	-9.133008e-001	-4.047293e-001
57086916.000	-9.133023e-001	-4.046969e-001
57092910.000	-9.132678e-001	-4.046384e-001
57098904.000	-9.132998e-001	-4.045972e-001
57104898.000	-9.133150e-001	-4.046125e-001
57110892.000	-9.133135e-001	-4.045201e-001
57116886.000	-9.133774e-001	-4.045643e-001
57122880.000	-9.133704e-001	-4.044848e-001
57128874.000	-9.133126e-001	-4.044454e-001
57134868.000	-9.134189e-001	-4.043886e-001
57140862.000	-9.133961e-001	-4.043911e-001
57146856.000	-9.134108e-001	-4.043129e-001
57152850.000	-9.134498e-001	-4.042814e-001
57158844.000	-9.134588e-001	-4.042625e-001
57164838.000	-9.134303e-001	-4.041799e-001
57170832.000	-9.134965e-001	-4.041506e-001
57176826.000	-9.134905e-001	-4.041535e-001
57182820.000	-9.134955e-001	-4.041065e-001
57188814.000	-9.135553e-001	-4.041240e-001
57194808.000	-9.135460e-001	-4.040601e-001
57200802.000	-9.135769e-001	-4.040232e-001
57206796.000	-9.135928e-001	-4.039465e-001
57212790.000	-9.135937e-001	-4.039475e-001
57218784.000	-9.136150e-001	-4.039126e-001
57224778.000	-9.136362e-001	-4.038219e-001
57230772.000	-9.136034e-001	-4.037852e-001
57236766.000	-9.136380e-001	-4.037566e-001
57242760.000	-9.136770e-001	-4.037557e-001
57248754.000	-9.137074e-001	-4.036401e-001
57254748.000	-9.136841e-001	-4.036420e-001
57260742.000	-9.137488e-001	-4.036752e-001
57266736.000	-9.137639e-001	-4.035835e-001
57272730.000	-9.137866e-001	-4.035418e-001
57278724.000	-9.137553e-001	-4.035655e-001
57284718.000	-9.138075e-001	-4.034858e-001
57290712.000	-9.138096e-001	-4.034382e-001
57296706.000	-9.138079e-001	-4.033999e-001
57302700.000	-9.138394e-001	-4.033507e-001
57308694.000	-9.138253e-001	-4.032953e-001
57314688.000	-9.138314e-001	-4.032604e-001
57320682.000	-9.138262e-001	-4.032612e-001
57326676.000	-9.138782e-001	-4.032026e-001
57332670.000	-9.138990e-001	-4.031685e-001
57338664.000	-9.139344e-001	-4.031645e-001
57344658.000	-9.139732e-001	-4.031282e-001
57350652.000	-9.139940e-001	-4.030635e-001
57356646.000	-9.140070e-001	-4.030132e-001
57362640.000	-9.139760e-001	-4.029571e-001
57368634.000	-9.139682e-001	-4.029519e-001
57374628.000	-9.140481e-001	-4.029082e-001
57380622.000	-9.139874e-001	-4.028472e-001
57386616.000	-9.140389e-001	-4.028372e-001
57392610.000	-9.140642e-001	-4.028114e-001
57398604.000	-9.140777e-001	-4.027842e-001
57404598.000	-9.141181e-001	-4.027985e-001
57410592.000	-9.141182e-001	-4.026995e-001
57416586.000	-9.141678e-001	-4.026701e-001
57422580.000	-9.141871e-001	-4.026433e-001
57428574.000	-9.141088e-001	-4.025483e-001
57434568.000	-9.142288e-001	-4.025811e-001
57440562.000	-9.141782e-001	-4.025168e-001
57446556.000	-9.141802e-001	-4.025079e-001
57452550.000	-9.142006e-001	-4.024090e-001
57458544.000	-9.142273e-001	-4.024169e-001
57464538.000	-9.142228e-001	-4.023197e-001
57470532.000	-9.142612e-001	-4.023263e-001
57476526.000	-9.142516e-001	-4.022919e-001
57482520.000	-9.143236e-001	-4.022606e-001
57488514.000	-9.143123e-001	-4.022323e-001
57494508.000	-9.143289e-001	-4.021976e-001
57500502.000	-9.143968e-001	-4.021231e-001
57506496.000	-9.143774e-001	-4.021128e-001
57512490.000	-9.144129e-001	-4.021248e-001
57518484.000	-9.144074e-001	-4.020137e-001
57524478.000	-9.144678e-001	-4.019921e-001
57530472.000	-9.144303e-001	-4.019322e-001
57536466.000	-9.144619e-001	-4.019548e-001
57542460.000	-9.144738e-001	-4.018828e-001
57548454.000	-9.144636e-001	-4.018514e-001
57554448.000	-9.145284e-001	-4.018236e-001
57560442.000	-9.145391e-001	-4.017526e-001
57566436.000	-9.145938e-001	-4.017432e-001
57572430.000	-9.145961e-001	-4.017465e-001
57578424.000	-9.145771e-001	-4.016899e-001
57584418.000	-9.146428e-001	-4.016552e-001
57590412.000	-9.146183e-001	-4.016246e-001
57596406.000	-9.146026e-001	-4.015547e-001
57602400.000	-9.146208e-001	-4.015427e-001
57608394.000	-9.146520e-001	-4.014968e-001
57614388.000	-9.146251e-001	-4.015010e-001
57620382.000	-9.146872e-001	-4.014468e-001
57626376.000	-9.147509e-001	-4.014034e-001
57632370.000	-9.146969e-001	-4.013520e-001
57638364.000	-9.146981e-001	-4.012886e-001
57644358.000	-9.147443e-001	-4.012589e-001
57650352.000	-9.148123e-001	-4.012758e-001
57656346.000	-9.147886e-001	-4.011653e-001
57662340.000	-9.147941e-001	-4.011672e-001
57668334.000	-9.147943e-001	-4.011454e-001
57674328.000	-9.148641e-001	-4.010944e-001
57680322.000	-9.148981e-001	-4.011068e-001
57686316.000	-9.148684e-001	-4.010059e-001
57692310.000	-9.148600e-001	-4.009644e-001
57698304.000	-9.148908e-001	-4.009846e-001
57704298.000	-9.149322e-001	-4.009009e-001
57710292.000	-9.149215e-001	-4.008773e-001
57716286.000	-9.149538e-001	-4.008413e-001
57722280.000	-9.149283e-001	-4.007764e-001
57728274.000	-9.149648e-001	-4.007635e-001
57734268.000	-9.149698e-001	-4.007281e-001
57740262.000	-9.149820e-001	-4.006619e-001
57746256.000	-9.150138e-001	-4.006490e-001
57752250.000	-9.150057e-001	-4.006201e-001
57758244.000	-9.150483e-001	-4.006016e-001
57764238.000	-9.150733e-001	-4.005384e-001
57770232.000	-9.150828e-001	-4.004952e-001
57776226.000	-9.150701e-001	-4.004791e-001
57782220.000	-9.150435e-001	-4.004180e-001
57788214.000	-9.150526e-001	-4.003949e-001
57794208.000	-9.151260e-001	-4.003691e-001
57800202.000	-9.151615e-001	-4.003194e-001
57806196.000	-9.150993e-001	-4.002326e-001
57812190.000	-9.151694e-001	-4.002248e-001
57818184.000	-9.152273e-001	-4.001715e-001
57824178.000	-9.151630e-001	-4.001398e-001
57830172.000	-9.152158e-001	-4.000922e-001
57836166.000	-9.152175e-001	-4.000676e-001
57842160.000	-9.152844e-001	-4.000177e-001
57848154.000	-9.152961e-001	-4.000768e-001
57854148.000	-9.152875e-001	-4.000019e-001
57860142.000	-9.152881e-001	-3.999536e-001
57866136.000	-9.152682e-001	-3.999334e-001
57872130.000	-9.153551e-001	-3.998723e-001
57878124.000	-9.153671e-001	-3.998691e-001
57884118.000	-9.153525e-001	-3.997839e-001
57890112.000	-9.153643e-001	-3.998210e-001
57896106.000	-9.153968e-001	-3.997130e-001
57902100.000	-9.154104e-001	-3.996954e-001
57908094.000	-9.154403e-001	-3.996780e-001
57914088.000	-9.154112e-001	-3.996092e-001
57920082.000	-9.154368e-001	-3.996013e-001
57926076.000	-9.154783e-001	-3.995646e-001
57932070.000	-9.154989e-001	-3.994988e-001
57938064.000	-9.154996e-001	-3.994924e-001
57944058.000	-9.155196e-001	-3.994368e-001
57950052.000	-9.155019e-001	-3.993829e-001
57956046.000	-9.155758e-001	-3.993397e-001
57962040.000	-9.155363e-001	-3.993077e-001
57968034.000	-9.155489e-001	-3.993094e-001
57974028.000	-9.155892e-001	-3.992467e-001
57980022.000	-9.155647e-001	-3.991883e-001
57986016.000	-9.156105e-001	-3.991708e-001
57992010.000	-9.156504e-001	-3.991691e-001
57998004.000	-9.156080e-001	-3.991337e-001
58003998.000	-9.156863e-001	-3.990807e-001
58009992.000	-9.156707e-001	-3.990816e-001
58015986.000	-9.157168e-001	-3.989839e-001
58021980.000	-9.157298e-001	-3.989414e-001
58027974.000	-9.157270e-001	-3.989176e-001
58033968.000	-9.157466e-001	-3.988643e-001
58039962.000	-9.157045e-001	-3.988462e-001
58045956.000	-9.158044e-001	-3.988129e-001
58051950.000	-9.158388e-001	-3.987461e-001
58057944.000	-9.158415e-001	-3.987683e-001
58063938.000	-9.158092e-001	-3.986894e-001
58069932.000	-9.158089e-001	-3.986766e-001
58075926.000	-9.158516e-001	-3.986134e-001
58081920.000	-9.158449e-001	-3.986272e-001
58087914.000	-9.159134e-001	-3.985646e-001
58093908.000	-9.158737e-001	-3.985169e-001
58099902.000	-9.159062e-001	-3.984701e-001
58105896.000	-9.158620e-001	-3.984987e-001
58111890.000	-9.159320e-001	-3.984032e-001
58117884.000	-9.159791e-001	-3.984453e-001
58123878.000	-9.160031e-001	-3.984014e-001
58129872.000	-9.160408e-001	-3.983644e-001
58135866.000	-9.159865e-001	-3.982553e-001
58141860.000	-9.160086e-001	-3.982228e-001
58147854.000	-9.160171e-001	-3.982109e-001
58153848.000	-9.160626e-001	-3.981596e-001
58159842.000	-9.160308e-001	-3.981099e-001
58165836.000	-9.161011e-001	-3.980736e-001
58171830.000	-9.161305e-001	-3.980744e-001
58177824.000	-9.161541e-001	-3.980713e-001
58183818.000	-9.161319e-001	-3.979945e-001
58189812.000	-9.161644e-001	-3.979442e-001
58195806.000	-9.161680e-001	-3.979050e-001
58201800.000	-9.161658e-001	-3.978820e-001
58207794.000	-9.161899e-001	-3.978614e-001
58213788.000	-9.162019e-001	-3.978258e-001
58219782.000	-9.162361e-001	-3.978004e-001
58225776.000	-9.162186e-001	-3.977811e-001
58231770.000	-9.162068e-001	-3.976628e-001
58237764.000	-9.163108e-001	-3.976576e-001
58243758.000	-9.163062e-001	-3.976246e-001
58249752.000	-9.163014e-001	-3.976418e-001
58255746.000	-9.163131e-001	-3.976052e-001
58261740.000	-9.163819e-001	-3.975602e-001
58267734.000	-9.163134e-001	-3.974849e-001
58273728.000	-9.163173e-001	-3.974197e-001
58279722.000	-9.163850e-001	-3.974225e-001
58285716.000	-9.163788e-001	-3.973889e-001
58291710.000	-9.164161e-001	-3.973246e-001
58297704.000	-9.164079e-001	-3.972980e-001
58303698.000	-9.164822e-001	-3.972654e-001
58309692.000	-9.164563e-001	-3.972174e-001
58315686.000	-9.164600e-001	-3.972043e-001
58321680.000	-9.164833e-001	-3.971857e-001
58327674.000	-9.164869e-001	-3.971524e-001
58333668.000	-9.164714e-001	-3.970944e-001
58339662.000	-9.165497e-001	-3.970586e-001
58345656.000	-9.165175e-001	-3.970367e-001
58351650.000	-9.164992e-001	-3.969600e-001
58357644.000	-9.165308e-001	-3.969167e-001
58363638.000	-9.165692e-001	-3.969339e-001
58369632.000	-9.166411e-001	-3.968546e-001
58375626.000	-9.165938e-001	-3.968123e-001
58381620.000	-9.165956e-001	-3.967808e-001
58387614.000	-9.166559e-001	-3.967784e-001
58393608.000	-9.166024e-001	-3.967279e-001
58399602.000	-9.167078e-001	-3.967120e-001
58405596.000	-9.166676e-001	-3.966502e-001
58411590.000	-9.166889e-001	-3.966112e-001
58417584.000	-9.167007e-001	-3.965970e-001
58423578.000	-9.166961e-001	-3.965576e-001
58429572.000	-9.167363e-001	-3.965216e-001
58435566.000	-9.167531e-001	-3.964432e-001
58441560.000	-9.167867e-001	-3.964775e-001
58447554.000	-9.168174e-001	-3.964334e-001
58453548.000	-9.168494e-001	-3.964042e-001
58459542.000	-9.168463e-001	-3.963140e-001
58465536.000	-9.168854e-001	-3.962942e-001
58471530.000	-9.168707e-001	-3.962829e-001
58477524.000	-9.168335e-001	-3.962302e-001
58483518.000	-9.169384e-001	-3.962361e-001
58489512.000	-9.168802e-001	-3.961443e-001
58495506.000	-9.169160e-001	-3.961130e-001
58501500.000	-9.169457e-001	-3.960399e-001
58507494.000	-9.169231e-001	-3.960053e-001
58513488.000	-9.169131e-001	-3.959899e-001
58519482.000	-9.169907e-001	-3.959811e-001
58525476.000	-9.170134e-001	-3.958754e-001
58531470.000	-9.169925e-001	-3.958844e-001
58537464.000	-9.170317e-001	-3.958908e-001
58543458.000	-9.170369e-001	-3.958224e-001
58549452.000	-9.170557e-001	-3.958363e-001
58555446.000	-9.170587e-001	-3.957434e-001
58561440.000	-9.170743e-001	-3.957027e-001
58567434.000	-9.170821e-001	-3.956962e-001
58573428.000	-9.171101e-001	-3.956183e-001
58579422.000	-9.171365e-001	-3.956301e-001
58585416.000	-9.171212e-001	-3.956103e-001
58591410.000	-9.171574e-001	-3.955516e-001
58597404.000	-9.171446e-001	-3.954742e-001
58603398.000	-9.171854e-001	-3.954393e-001
58609392.000	-9.171491e-001	-3.954215e-001
58615386.000	-9.172039e-001	-3.954161e-001
58621380.000	-9.171936e-001	-3.953051e-001
58627374.000	-9.171955e-001	-3.953070e-001
58633368.000	-9.172507e-001	-3.953320e-001
58639362.000	-9.172591e-001	-3.952451e-001
58645356.000	-9.172790e-001	-3.952101e-001
58651350.000	-9.172773e-001	-3.951723e-001
58657344.000	-9.173407e-001	-3.951740e-001
58663338.000	-9.173675e-001	-3.951211e-001
58669332.000	-9.173194e-001	-3.950902e-001
58675326.000	-9.173792e-001	-3.950034e-001
58681320.000	-9.173469e-001	-3.950305e-001
58687314.000	-9.173188e-001	-3.948930e-001
58693308.000	-9.173876e-001	-3.949390e-001
58699302.000	-9.173706e-001	-3.948963e-001
58705296.000	-9.174723e-001	-3.948629e-001
58711290.000	-9.174602e-001	-3.948511e-001
58717284.000	-9.175114e-001	-3.948129e-001
58723278.000	-9.174571e-001	-3.947442e-001
58729272.000	-9.174882e-001	-3.947206e-001
58735266.000	-9.174514e-001	-3.947107e-001
58741260.000	-9.175623e-001	-3.947073e-001
58747254.000	-9.176198e-001	-3.946286e-001
58753248.000	-9.175661e-001	-3.946293e-001
58759242.000	-9.175393e-001	-3.945234e-001
58765236.000	-9.175724e-001	-3.945321e-001
58771230.000	-9.175529e-001	-3.944806e-001
58777224.000	-9.176178e-001	-3.944414e-001
58783218.000	-9.176101e-001	-3.944301e-001
58789212.000	-9.176031e-001	-3.943546e-001
58795206.000	-9.176221e-001	-3.943173e-001
58801200.000	-9.176293e-001	-3.943066e-001
58807194.000	-9.176941e-001	-3.942476e-001
58813188.000	-9.177149e-001	-3.942275e-001
58819182.000	-9.176569e-001	-3.941783e-001
58825176.000	-9.176590e-001	-3.941334e-001
58831170.000	-9.177333e-001	-3.940650e-001
58837164.000	-9.177115e-001	-3.940623e-001
58843158.000	-9.177398e-001	-3.940574e-001
58849152.000	-9.177858e-001	-3.939845e-001
58855146.000	-9.178336e-001	-3.939600e-001
58861140.000	-9.177890e-001	-3.939204e-001
58867134.000	-9.178474e-001	-3.938872e-001
58873128.000	-9.178407e-001	-3.938296e-001
58879122.000	-9.178472e-001	-3.938123e-001
58885116.000	-9.178347e-001	-3.937698e-001
58891110.000	-9.178080e-001	-3.937154e-001
58897104.000	-9.178285e-001	-3.936727e-001
58903098.000	-9.178983e-001	-3.936762e-001
58909092.000	-9.178726e-001	-3.936052e-001
58915086.000	-9.179160e-001	-3.936436e-001
58921080.000	-9.179100e-001	-3.935488e-001
58927074.000	-9.179506e-001	-3.935787e-001
58933068.000	-9.179591e-001	-3.935279e-001
58939062.000	-9.180117e-001	-3.934470e-001
58945056.000	-9.179629e-001	-3.934014e-001
58951050.000	-9.180322e-001	-3.933680e-001
58957044.000	-9.180108e-001	-3.933563e-001
58963038.000	-9.180443e-001	-3.932701e-001
58969032.000	-9.180662e-001	-3.933098e-001
58975026.000	-9.180461e-001	-3.932541e-001
58981020.000	-9.180715e-001	-3.932030e-001
58987014.000	-9.180913e-001	-3.931314e-001
58993008.000	-9.181186e-001	-3.931429e-001
58999002.000	-9.181269e-001	-3.930838e-001
59004996.000	-9.181812e-001	-3.930613e-001
59010990.000	-9.181386e-001	-3.930690e-001
59016984.000	-9.181877e-001	-3.929726e-001
59022978.000	-9.181970e-001	-3.929738e-001
59028972.000	-9.182099e-001	-3.929129e-001
59034966.000	-9.182556e-001	-3.929324e-001
59040960.000	-9.182839e-001	-3.929039e-001
59046954.000	-9.182595e-001	-3.928487e-001
59052948.000	-9.182799e-001	-3.927710e-001
59058942.000	-9.182665e-001	-3.927168e-001
59064936.000	-9.182991e-001	-3.927304e-001
59070930.000	-9.183039e-001	-3.927376e-001
59076924.000	-9.183043e-001	-3.926467e-001
59082918.000	-9.183133e-001	-3.926572e-001
59088912.000	-9.183605e-001	-3.925449e-001
59094906.000	-9.184043e-001	-3.925823e-001
59100900.000	-9.183851e-001	-3.925118e-001
59106894.000	-9.184184e-001	-3.925008e-001
59112888.000	-9.183960e-001	-3.923952e-001
59118882.000	-9.184199e-001	-3.923791e-001
59124876.000	-9.184172e-001	-3.923422e-001
59130870.000	-9.184448e-001	-3.923206e-001
59136864.000	-9.184319e-001	-3.923573e-001
59142858.000	-9.184729e-001	-3.922709e-001
59148852.000	-9.185132e-001	-3.922034e-001
59154846.000	-9.185196e-001	-3.921529e-001
59160840.000	-9.185418e-001	-3.921503e-001
59166834.000	-9.185593e-001	-3.921333e-001
59172828.000	-9.185801e-001	-3.920974e-001
59178822.000	-9.185679e-001	-3.920799e-001
59184816.000	-9.185941e-001	-3.920625e-001
59190810.000	-9.186265e-001	-3.919975e-001
59196804.000	-9.186308e-001	-3.919437e-001
59202798.000	-9.186137e-001	-3.919428e-001
59208792.000	-9.186755e-001	-3.918981e-001
59214786.000	-9.186045e-001	-3.918306e-001
59220780.000	-9.186546e-001	-3.918090e-001
59226774.000	-9.187026e-001	-3.917990e-001
59232768.000	-9.187130e-001	-3.917608e-001
59238762.000	-9.187153e-001	-3.917157e-001
59244756.000	-9.187470e-001	-3.916495e-001
59250750.000	-9.187607e-001	-3.916367e-001
59256744.000	-9.187540e-001	-3.916554e-001
59262738.000	-9.187491e-001	-3.915659e-001
59268732.000	-9.187978e-001	-3.915456e-001
59274726.000	-9.187816e-001	-3.914793e-001
59280720.000	-9.188170e-001	-3.914401e-001
59286714.000	-9.188341e-001	-3.914004e-001
59292708.000	-9.188733e-001	-3.913871e-001
59298702.000	-9.188689e-001	-3.913697e-001
59304696.000	-9.188840e-001	-3.913540e-001
59310690.000	-9.189924e-001	-3.913693e-001
59316684.000	-9.189734e-001	-3.912390e-001
59322678.000	-9.189539e-001	-3.912636e-001
59328672.000	-9.188924e-001	-3.911884e-001
59334666.000	-9.189213e-001	-3.911237e-001
59340660.000	-9.189637e-001	-3.910496e-001
59346654.000	-9.189917e-001	-3.910359e-001
59352648.000	-9.189843e-001	-3.910506e-001
59358642.000	-9.190296e-001	-3.909971e-001
59364636.000	-9.190383e-001	-3.909716e-001
59370630.000	-9.189904e-001	-3.909383e-001
59376624.000	-9.190291e-001	-3.908910e-001
59382618.000	-9.190869e-001	-3.908610e-001
59388612.000	-9.191198e-001	-3.908311e-001
59394606.000	-9.191539e-001	-3.908139e-001
59400600.000	-9.191239e-001	-3.907573e-001
59406594.000	-9.190636e-001	-3.907010e-001
59412588.000	-9.191269e-001	-3.906802e-001
59418582.000	-9.191285e-001	-3.905995e-001
59424576.000	-9.191323e-001	-3.906357e-001
59430570.000	-9.191688e-001	-3.906058e-001
59436564.000	-9.192139e-001	-3.905426e-001
59442558.000	-9.192164e-001	-3.905776e-001
59448552.000	-9.192614e-001	-3.904956e-001
59454546.000	-9.192595e-001	-3.904102e-001
59460540.000	-9.192531e-001	-3.904067e-001
59466534.000	-9.192743e-001	-3.903873e-001
59472528.000	-9.192824e-001	-3.904074e-001
59478522.000	-9.193467e-001	-3.903146e-001
59484516.000	-9.193188e-001	-3.902824e-001
59490510.000	-9.193705e-001	-3.902740e-001
59496504.000	-9.193685e-001	-3.902078e-001
59502498.000	-9.193317e-001	-3.902045e-001
59508492.000	-9.193482e-001	-3.901635e-001
59514486.000	-9.194180e-001	-3.901235e-001
59520480.000	-9.194047e-001	-3.900530e-001
59526474.000	-9.193906e-001	-3.899978e-001
59532468.000	-9.194560e-001	-3.899834e-001
59538462.000	-9.194468e-001	-3.899162e-001
59544456.000	-9.194686e-001	-3.899814e-001
59550450.000	-9.195030e-001	-3.899053e-001
59556444.000	-9.194875e-001	-3.898885e-001
59562438.000	-9.194927e-001	-3.898397e-001
59568432.000	-9.195053e-001	-3.897706e-001
59574426.000	-9.195391e-001	-3.897624e-001
59580420.000	-9.194849e-001	-3.897338e-001
59586414.000	-9.195499e-001	-3.896746e-001
59592408.000	-9.195355e-001	-3.896503e-001
59598402.000	-9.195750e-001	-3.895778e-001
59604396.000	-9.195700e-001	-3.895764e-001
59610390.000	-9.195824e-001	-3.895501e-001
59616384.000	-9.196304e-001	-3.895158e-001
59622378.000	-9.196200e-001	-3.894662e-001
59628372.000	-9.196411e-001	-3.894760e-001
59634366.000	-9.196561e-001	-3.893481e-001
59640360.000	-9.197111e-001	-3.893474e-001
59646354.000	-9.196719e-001	-3.893199e-001
59652348.000	-9.197382e-001	-3.892886e-001
59658342.000	-9.197250e-001	-3.892427e-001
59664336.000	-9.197167e-001	-3.892442e-001
59670330.000	-9.198008e-001	-3.892611e-001
59676324.000	-9.197444e-001	-3.891462e-001
59682318.000	-9.197615e-001	-3.891447e-001
59688312.000	-9.197896e-001	-3.891335e-001
59694306.000	-9.197841e-001	-3.891118e-001
59700300.000	-9.198196e-001	-3.890477e-001
59706294.000	-9.198533e-001	-3.890300e-001
59712288.000	-9.198579e-001	-3.889520e-001
59718282.000	-9.198834e-001	-3.889550e-001
59724276.000	-9.199304e-001	-3.888910e-001
59730270.000	-9.199563e-001	-3.888825e-001
59736264.000	-9.198995e-001	-3.888408e-001
59742258.000	-9.199548e-001	-3.887573e-001
59748252.000	-9.199309e-001	-3.887846e-001
59754246.000	-9.199485e-001	-3.887429e-001
59760240.000	-9.199424e-001	-3.886823e-001
59766234.000	-9.199605e-001	-3.886908e-001
59772228.000	-9.199724e-001	-3.886213e-001
59778222.000	-9.200314e-001	-3.886265e-001
59784216.000	-9.200082e-001	-3.885243e-001
59790210.000	-9.199973e-001	-3.885151e-001
59796204.000	-9.200726e-001	-3.884446e-001
59802198.000	-9.201189e-001	-3.884787e-001
59808192.000	-9.200294e-001	-3.884049e-001
59814186.000	-9.200459e-001	-3.883647e-001
59820180.000	-9.201237e-001	-3.883126e-001
59826174.000	-9.200898e-001	-3.883369e-001
59832168.000	-9.200928e-001	-3.882518e-001
59838162.000	-9.201181e-001	-3.882415e-001
59844156.000	-9.200943e-001	-3.881521e-001
59850150.000	-9.201242e-001	-3.880969e-001
59856144.000	-9.201761e-001	-3.881183e-001
59862138.000	-9.201531e-001	-3.880920e-001
59868132.000	-9.201775e-001	-3.880093e-001
59874126.000	-9.202001e-001	-3.880263e-001
59880120.000	-9.201984e-001	-3.879631e-001
59886114.000	-9.202272e-001	-3.879493e-001
59892108.000	-9.202677e-001	-3.878783e-001
59898102.000	-9.202657e-001	-3.878601e-001
59904096.000	-9.202635e-001	-3.878305e-001
59910090.000	-9.203274e-001	-3.878310e-001
59916084.000	-9.203064e-001	-3.877332e-001
59922078.000	-9.203305e-001	-3.877126e-001
59928072.000	-9.203244e-001	-3.877053e-001
59934066.000	-9.203028e-001	-3.876531e-001
59940060.000	-9.203643e-001	-3.876813e-001
59946054.000	-9.204313e-001	-3.876300e-001
59952048.000	-9.203781e-001	-3.875717e-001
59958042.000	-9.204240e-001	-3.875457e-001
59964036.000	-9.204176e-001	-3.875008e-001
59970030.000	-9.204241e-001	-3.874505e-001
59976024.000	-9.204283e-001	-3.873940e-001
59982018.000	-9.204122e-001	-3.874412e-001
59988012.000	-9.204511e-001	-3.873406e-001
59994006.000	-9.204614e-001	-3.873614e-001
60000000.000	-9.204966e-001	-3.872614e-001
