!Keysight Technologies,E5063A,MY54100949,A.07.30
!Date: Wed Dec 31 02:37:48 2025
!Data & Calibration Information:
!Freq	S11:RESPO(ON)
# Hz S RI R 50
60000.000	1.001263e+000	-1.782006e-002
65994.000	1.000923e+000	-1.984115e-002
71988.000	1.000724e+000	-2.187906e-002
77982.000	1.000743e+000	-2.366670e-002
83976.000	1.000567e+000	-2.535062e-002
89970.000	1.000465e+000	-2.717857e-002
95964.000	1.000284e+000	-2.877505e-002
101958.000	9.999386e-001	-3.078167e-002
107952.000	9.999217e-001	-3.223233e-002
113946.000	9.998421e-001	-3.390090e-002
119940.000	9.998463e-001	-3.547133e-002
125934.000	9.996204e-001	-3.731356e-002
131928.000	9.995839e-001	-3.892529e-002
137922.000	9.994550e-001	-4.082299e-002
143916.000	9.992464e-001	-4.251103e-002
149910.000	9.993123e-001	-4.417183e-002
155904.000	9.990924e-001	-4.579615e-002
161898.000	9.991455e-001	-4.758208e-002
167892.000	9.990246e-001	-4.931908e-002
173886.000	9.987419e-001	-5.090365e-002
179880.000	9.987677e-001	-5.262390e-002
185874.000	9.986787e-001	-5.428301e-002
191868.000	9.984453e-001	-5.614907e-002
197862.000	9.983517e-001	-5.773770e-002
203856.000	9.983434e-001	-5.943484e-002
209850.000	9.981742e-001	-6.124231e-002
215844.000	9.980635e-001	-6.288614e-002
221838.000	9.980301e-001	-6.446289e-002
227832.000	9.978598e-001	-6.622184e-002
233826.000	9.976255e-001	-6.801276e-002
239820.000	9.976135e-001	-6.960143e-002
245814.000	9.975067e-001	-7.123746e-002
251808.000	9.974181e-001	-7.313552e-002
257802.000	9.972249e-001	-7.482068e-002
263796.000	9.970822e-001	-7.662183e-002
269790.000	9.969731e-001	-7.835917e-002
275784.000	9.969142e-001	-7.995612e-002
281778.000	9.966399e-001	-8.182583e-002
287772.000	9.964529e-001	-8.349917e-002
293766.000	9.963728e-001	-8.512682e-002
299760.000	9.961993e-001	-8.682666e-002
305754.000	9.959144e-001	-8.852806e-002
311748.000	9.958904e-001	-9.029653e-002
317742.000	9.957283e-001	-9.194946e-002
323736.000	9.956656e-001	-9.371032e-002
329730.000	9.954147e-001	-9.553990e-002
335724.000	9.951533e-001	-9.730703e-002
341718.000	9.949611e-001	-9.891304e-002
347712.000	9.948345e-001	-1.005463e-001
353706.000	9.944157e-001	-1.023029e-001
359700.000	9.944311e-001	-1.041519e-001
365694.000	9.943258e-001	-1.057971e-001
371688.000	9.940529e-001	-1.073462e-001
377682.000	9.940386e-001	-1.091895e-001
383676.000	9.937033e-001	-1.109177e-001
389670.000	9.936531e-001	-1.125924e-001
395664.000	9.933465e-001	-1.144000e-001
401658.000	9.931433e-001	-1.159847e-001
407652.000	9.929440e-001	-1.177525e-001
413646.000	9.927103e-001	-1.195878e-001
419640.000	9.924540e-001	-1.212394e-001
425634.000	9.923162e-001	-1.229290e-001
431628.000	9.922393e-001	-1.245814e-001
437622.000	9.919840e-001	-1.263151e-001
443616.000	9.916418e-001	-1.280027e-001
449610.000	9.915484e-001	-1.297156e-001
455604.000	9.912963e-001	-1.315181e-001
461598.000	9.910820e-001	-1.331587e-001
467592.000	9.907480e-001	-1.348236e-001
473586.000	9.906104e-001	-1.366845e-001
479580.000	9.903051e-001	-1.383381e-001
485574.000	9.901497e-001	-1.400885e-001
491568.000	9.899123e-001	-1.416712e-001
497562.000	9.895885e-001	-1.434011e-001
503556.000	9.892864e-001	-1.451664e-001
509550.000	9.889238e-001	-1.466557e-001
515544.000	9.888473e-001	-1.485733e-001
521538.000	9.885443e-001	-1.501465e-001
527532.000	9.884240e-001	-1.518932e-001
533526.000	9.880577e-001	-1.535942e-001
539520.000	9.876699e-001	-1.553300e-001
545514.000	9.876035e-001	-1.570646e-001
551508.000	9.871914e-001	-1.586978e-001
557502.000	9.868639e-001	-1.603565e-001
563496.000	9.866897e-001	-1.621459e-001
569490.000	9.863244e-001	-1.638617e-001
575484.000	9.861437e-001	-1.653452e-001
581478.000	9.858329e-001	-1.672384e-001
587472.000	9.855374e-001	-1.689977e-001
593466.000	9.852507e-001	-1.706620e-001
599460.000	9.849499e-001	-1.723604e-001
605454.000	9.847192e-001	-1.739995e-001
611448.000	9.844120e-001	-1.756992e-001
617442.000	9.840389e-001	-1.774181e-001
623436.000	9.836990e-001	-1.789751e-001
629430.000	9.833793e-001	-1.809796e-001
635424.000	9.830725e-001	-1.825520e-001
641418.000	9.827525e-001	-1.841988e-001
647412.000	9.824688e-001	-1.857990e-001
653406.000	9.821038e-001	-1.875072e-001
659400.000	9.818228e-001	-1.892038e-001
665394.000	9.815251e-001	-1.910025e-001
671388.000	9.812425e-001	-1.925814e-001
677382.000	9.808613e-001	-1.942561e-001
683376.000	9.804775e-001	-1.960055e-001
689370.000	9.801588e-001	-1.976392e-001
695364.000	9.798652e-001	-1.992458e-001
701358.000	9.795725e-001	-2.009549e-001
707352.000	9.792168e-001	-2.025978e-001
713346.000	9.789257e-001	-2.044367e-001
719340.000	9.785676e-001	-2.060342e-001
725334.000	9.780868e-001	-2.077613e-001
731328.000	9.777358e-001	-2.093762e-001
737322.000	9.774792e-001	-2.111085e-001
743316.000	9.770141e-001	-2.127240e-001
749310.000	9.767551e-001	-2.145141e-001
755304.000	9.764552e-001	-2.160814e-001
761298.000	9.758985e-001	-2.178997e-001
767292.000	9.755588e-001	-2.193938e-001
773286.000	9.752049e-001	-2.211702e-001
779280.000	9.747829e-001	-2.228692e-001
785274.000	9.745241e-001	-2.244717e-001
791268.000	9.741629e-001	-2.261582e-001
797262.000	9.737187e-001	-2.278291e-001
803256.000	9.733392e-001	-2.295149e-001
809250.000	9.727833e-001	-2.311895e-001
815244.000	9.724606e-001	-2.328588e-001
821238.000	9.719541e-001	-2.345501e-001
827232.000	9.715952e-001	-2.361595e-001
833226.000	9.711822e-001	-2.378549e-001
839220.000	9.707586e-001	-2.395385e-001
845214.000	9.703583e-001	-2.411665e-001
851208.000	9.700978e-001	-2.427487e-001
857202.000	9.695982e-001	-2.444594e-001
863196.000	9.691054e-001	-2.461938e-001
869190.000	9.687184e-001	-2.476977e-001
875184.000	9.681774e-001	-2.494627e-001
881178.000	9.678360e-001	-2.511369e-001
887172.000	9.674637e-001	-2.527421e-001
893166.000	9.669298e-001	-2.543578e-001
899160.000	9.666148e-001	-2.560927e-001
905154.000	9.661697e-001	-2.576389e-001
911148.000	9.657298e-001	-2.592911e-001
917142.000	9.652517e-001	-2.609433e-001
923136.000	9.648797e-001	-2.626744e-001
929130.000	9.642718e-001	-2.642612e-001
935124.000	9.639013e-001	-2.660009e-001
941118.000	9.633857e-001	-2.674948e-001
947112.000	9.629094e-001	-2.692361e-001
953106.000	9.625085e-001	-2.706668e-001
959100.000	9.620568e-001	-2.724403e-001
965094.000	9.615251e-001	-2.740911e-001
971088.000	9.611479e-001	-2.758264e-001
977082.000	9.606630e-001	-2.773331e-001
983076.000	9.602448e-001	-2.790033e-001
989070.000	9.597226e-001	-2.805633e-001
995064.000	9.591814e-001	-2.822339e-001
1001058.000	9.587804e-001	-2.838829e-001
1007052.000	9.582645e-001	-2.855291e-001
1013046.000	9.578633e-001	-2.870403e-001
1019040.000	9.572091e-001	-2.887100e-001
1025034.000	9.567656e-001	-2.902758e-001
1031028.000	9.563550e-001	-2.919032e-001
1037022.000	9.558214e-001	-2.935258e-001
1043016.000	9.553802e-001	-2.951901e-001
1049010.000	9.548410e-001	-2.968512e-001
1055004.000	9.542334e-001	-2.983975e-001
1060998.000	9.537296e-001	-3.000518e-001
1066992.000	9.532785e-001	-3.016660e-001
1072986.000	9.528637e-001	-3.033224e-001
1078980.000	9.523410e-001	-3.048600e-001
1084974.000	9.517191e-001	-3.065652e-001
1090968.000	9.512814e-001	-3.081964e-001
1096962.000	9.505897e-001	-3.098416e-001
1102956.000	9.501012e-001	-3.113092e-001
1108950.000	9.495989e-001	-3.129784e-001
1114944.000	9.490836e-001	-3.146175e-001
1120938.000	9.486531e-001	-3.161719e-001
1126932.000	9.480377e-001	-3.176930e-001
1132926.000	9.474239e-001	-3.193734e-001
1138920.000	9.468644e-001	-3.209072e-001
1144914.000	9.463960e-001	-3.225624e-001
1150908.000	9.459933e-001	-3.242040e-001
1156902.000	9.453403e-001	-3.257485e-001
1162896.000	9.448457e-001	-3.274681e-001
1168890.000	9.443283e-001	-3.289242e-001
1174884.000	9.436869e-001	-3.304956e-001
1180878.000	9.431460e-001	-3.321146e-001
1186872.000	9.427044e-001	-3.337492e-001
1192866.000	9.419913e-001	-3.353052e-001
1198860.000	9.415021e-001	-3.369209e-001
1204854.000	9.409097e-001	-3.386141e-001
1210848.000	9.403323e-001	-3.399247e-001
1216842.000	9.397273e-001	-3.415667e-001
1222836.000	9.391856e-001	-3.432010e-001
1228830.000	9.385502e-001	-3.448743e-001
1234824.000	9.380122e-001	-3.463598e-001
1240818.000	9.373228e-001	-3.479718e-001
1246812.000	9.368667e-001	-3.495297e-001
1252806.000	9.361139e-001	-3.510920e-001
1258800.000	9.357063e-001	-3.527442e-001
1264794.000	9.350309e-001	-3.542258e-001
1270788.000	9.343992e-001	-3.557468e-001
1276782.000	9.340001e-001	-3.573331e-001
1282776.000	9.332903e-001	-3.589715e-001
1288770.000	9.326190e-001	-3.605867e-001
1294764.000	9.321215e-001	-3.620644e-001
1300758.000	9.313837e-001	-3.635782e-001
1306752.000	9.308087e-001	-3.651668e-001
1312746.000	9.301137e-001	-3.667235e-001
1318740.000	9.295698e-001	-3.682477e-001
1324734.000	9.289430e-001	-3.698932e-001
1330728.000	9.283597e-001	-3.714308e-001
1336722.000	9.277389e-001	-3.730247e-001
1342716.000	9.270856e-001	-3.746193e-001
1348710.000	9.264551e-001	-3.760699e-001
1354704.000	9.257597e-001	-3.776337e-001
1360698.000	9.252520e-001	-3.792058e-001
1366692.000	9.246412e-001	-3.807729e-001
1372686.000	9.238923e-001	-3.822304e-001
1378680.000	9.234032e-001	-3.837773e-001
1384674.000	9.226809e-001	-3.853674e-001
1390668.000	9.219899e-001	-3.869040e-001
1396662.000	9.213133e-001	-3.884205e-001
1402656.000	9.207812e-001	-3.899561e-001
1408650.000	9.200799e-001	-3.913647e-001
1414644.000	9.195601e-001	-3.929311e-001
1420638.000	9.186736e-001	-3.946217e-001
1426632.000	9.181012e-001	-3.960680e-001
1432626.000	9.175024e-001	-3.975122e-001
1438620.000	9.167130e-001	-3.990678e-001
1444614.000	9.160670e-001	-4.006655e-001
1450608.000	9.154459e-001	-4.022735e-001
1456602.000	9.148334e-001	-4.037063e-001
1462596.000	9.141444e-001	-4.051199e-001
1468590.000	9.134218e-001	-4.066987e-001
1474584.000	9.127932e-001	-4.081995e-001
1480578.000	9.119681e-001	-4.098046e-001
1486572.000	9.113617e-001	-4.113049e-001
1492566.000	9.107374e-001	-4.128263e-001
1498560.000	9.100608e-001	-4.142537e-001
1504554.000	9.094020e-001	-4.158216e-001
1510548.000	9.086586e-001	-4.173894e-001
1516542.000	9.078944e-001	-4.188452e-001
1522536.000	9.072790e-001	-4.202870e-001
1528530.000	9.065373e-001	-4.217244e-001
1534524.000	9.058279e-001	-4.233867e-001
1540518.000	9.051407e-001	-4.248397e-001
1546512.000	9.044609e-001	-4.263312e-001
1552506.000	9.038238e-001	-4.278102e-001
1558500.000	9.031142e-001	-4.292793e-001
1564494.000	9.022926e-001	-4.308244e-001
1570488.000	9.015484e-001	-4.322782e-001
1576482.000	9.008930e-001	-4.337414e-001
1582476.000	9.000683e-001	-4.352921e-001
1588470.000	8.995206e-001	-4.366623e-001
1594464.000	8.985827e-001	-4.381483e-001
1600458.000	8.980624e-001	-4.395760e-001
1606452.000	8.973795e-001	-4.411239e-001
1612446.000	8.966924e-001	-4.424894e-001
1618440.000	8.958620e-001	-4.441157e-001
1624434.000	8.949693e-001	-4.456587e-001
1630428.000	8.943521e-001	-4.470926e-001
1636422.000	8.936403e-001	-4.486102e-001
1642416.000	8.929232e-001	-4.499461e-001
1648410.000	8.921898e-001	-4.514415e-001
1654404.000	8.914230e-001	-4.528857e-001
1660398.000	8.906902e-001	-4.543679e-001
1666392.000	8.900214e-001	-4.559209e-001
1672386.000	8.891556e-001	-4.573873e-001
1678380.000	8.884680e-001	-4.587148e-001
1684374.000	8.877681e-001	-4.601843e-001
1690368.000	8.869473e-001	-4.616780e-001
1696362.000	8.862967e-001	-4.630682e-001
1702356.000	8.853540e-001	-4.646306e-001
1708350.000	8.847590e-001	-4.660646e-001
1714344.000	8.838624e-001	-4.674828e-001
1720338.000	8.831220e-001	-4.688829e-001
1726332.000	8.824311e-001	-4.702872e-001
1732326.000	8.816096e-001	-4.717435e-001
1738320.000	8.809025e-001	-4.733060e-001
1744314.000	8.800363e-001	-4.747001e-001
1750308.000	8.793910e-001	-4.762196e-001
1756302.000	8.785931e-001	-4.776956e-001
1762296.000	8.777910e-001	-4.789906e-001
1768290.000	8.769473e-001	-4.804156e-001
1774284.000	8.762358e-001	-4.818476e-001
1780278.000	8.753854e-001	-4.833028e-001
1786272.000	8.746681e-001	-4.848234e-001
1792266.000	8.737723e-001	-4.862049e-001
1798260.000	8.730809e-001	-4.876581e-001
1804254.000	8.722568e-001	-4.888964e-001
1810248.000	8.715681e-001	-4.902749e-001
1816242.000	8.707166e-001	-4.918543e-001
1822236.000	8.698782e-001	-4.932581e-001
1828230.000	8.690336e-001	-4.946135e-001
1834224.000	8.682307e-001	-4.960361e-001
1840218.000	8.675089e-001	-4.975205e-001
1846212.000	8.667322e-001	-4.988702e-001
1852206.000	8.659334e-001	-5.002559e-001
1858200.000	8.650451e-001	-5.016791e-001
1864194.000	8.642205e-001	-5.030273e-001
1870188.000	8.633920e-001	-5.044650e-001
1876182.000	8.625886e-001	-5.058175e-001
1882176.000	8.618360e-001	-5.073005e-001
1888170.000	8.608929e-001	-5.085731e-001
1894164.000	8.600623e-001	-5.100035e-001
1900158.000	8.593141e-001	-5.113660e-001
1906152.000	8.584335e-001	-5.127700e-001
1912146.000	8.576077e-001	-5.141391e-001
1918140.000	8.568238e-001	-5.155972e-001
1924134.000	8.559327e-001	-5.168698e-001
1930128.000	8.552717e-001	-5.183789e-001
1936122.000	8.543756e-001	-5.197571e-001
1942116.000	8.535518e-001	-5.210328e-001
1948110.000	8.526483e-001	-5.224815e-001
1954104.000	8.518188e-001	-5.238444e-001
1960098.000	8.509877e-001	-5.253339e-001
1966092.000	8.502326e-001	-5.265762e-001
1972086.000	8.493909e-001	-5.280339e-001
1978080.000	8.485595e-001	-5.291650e-001
1984074.000	8.476411e-001	-5.305807e-001
1990068.000	8.468696e-001	-5.320325e-001
1996062.000	8.460118e-001	-5.333111e-001
2002056.000	8.450648e-001	-5.347125e-001
2008050.000	8.441482e-001	-5.360037e-001
2014044.000	8.433413e-001	-5.374536e-001
2020038.000	8.425753e-001	-5.387301e-001
2026032.000	8.417539e-001	-5.401604e-001
2032026.000	8.407849e-001	-5.413735e-001
2038020.000	8.399571e-001	-5.428720e-001
2044014.000	8.389925e-001	-5.441042e-001
2050008.000	8.381719e-001	-5.455616e-001
2056002.000	8.373240e-001	-5.467987e-001
2061996.000	8.364226e-001	-5.482453e-001
2067990.000	8.355305e-001	-5.494455e-001
2073984.000	8.346419e-001	-5.507897e-001
2079978.000	8.338487e-001	-5.521167e-001
2085972.000	8.329634e-001	-5.535119e-001
2091966.000	8.321634e-001	-5.548815e-001
2097960.000	8.312084e-001	-5.561918e-001
2103954.000	8.302773e-001	-5.574694e-001
2109948.000	8.295102e-001	-5.588646e-001
2115942.000	8.285544e-001	-5.601029e-001
2121936.000	8.276371e-001	-5.613265e-001
2127930.000	8.266885e-001	-5.626681e-001
2133924.000	8.258053e-001	-5.640086e-001
2139918.000	8.249995e-001	-5.653503e-001
2145912.000	8.240139e-001	-5.666231e-001
2151906.000	8.231291e-001	-5.679812e-001
2157900.000	8.222560e-001	-5.692970e-001
2163894.000	8.214358e-001	-5.705369e-001
2169888.000	8.205449e-001	-5.720009e-001
2175882.000	8.196463e-001	-5.731359e-001
2181876.000	8.186714e-001	-5.744803e-001
2187870.000	8.178377e-001	-5.757295e-001
2193864.000	8.167350e-001	-5.769559e-001
2199858.000	8.159786e-001	-5.782975e-001
2205852.000	8.150421e-001	-5.796433e-001
2211846.000	8.141726e-001	-5.809205e-001
2217840.000	8.132170e-001	-5.821964e-001
2223834.000	8.122782e-001	-5.835576e-001
2229828.000	8.113547e-001	-5.847464e-001
2235822.000	8.104921e-001	-5.859726e-001
2241816.000	8.095931e-001	-5.873154e-001
2247810.000	8.085989e-001	-5.885094e-001
2253804.000	8.076299e-001	-5.897493e-001
2259798.000	8.067900e-001	-5.910143e-001
2265792.000	8.057377e-001	-5.923127e-001
2271786.000	8.048996e-001	-5.935861e-001
2277780.000	8.039142e-001	-5.949154e-001
2283774.000	8.030447e-001	-5.961064e-001
2289768.000	8.021973e-001	-5.974276e-001
2295762.000	8.011449e-001	-5.986554e-001
2301756.000	8.003848e-001	-5.998851e-001
2307750.000	7.993716e-001	-6.011281e-001
2313744.000	7.985093e-001	-6.023637e-001
2319738.000	7.974840e-001	-6.036498e-001
2325732.000	7.965655e-001	-6.049196e-001
2331726.000	7.955853e-001	-6.059998e-001
2337720.000	7.946284e-001	-6.073204e-001
2343714.000	7.936315e-001	-6.085352e-001
2349708.000	7.926859e-001	-6.098722e-001
2355702.000	7.917917e-001	-6.109954e-001
2361696.000	7.907447e-001	-6.122712e-001
2367690.000	7.899272e-001	-6.136051e-001
2373684.000	7.889940e-001	-6.147230e-001
2379678.000	7.879846e-001	-6.158831e-001
2385672.000	7.870040e-001	-6.171477e-001
2391666.000	7.860891e-001	-6.183817e-001
2397660.000	7.852352e-001	-6.196435e-001
2403654.000	7.841044e-001	-6.207553e-001
2409648.000	7.832101e-001	-6.220091e-001
2415642.000	7.822703e-001	-6.231913e-001
2421636.000	7.812641e-001	-6.243717e-001
2427630.000	7.803739e-001	-6.255411e-001
2433624.000	7.794495e-001	-6.268795e-001
2439618.000	7.783950e-001	-6.280638e-001
2445612.000	7.772714e-001	-6.291881e-001
2451606.000	7.764708e-001	-6.304613e-001
2457600.000	7.755313e-001	-6.315719e-001
2463594.000	7.745953e-001	-6.328101e-001
2469588.000	7.735449e-001	-6.339791e-001
2475582.000	7.726035e-001	-6.352998e-001
2481576.000	7.716115e-001	-6.364553e-001
2487570.000	7.706802e-001	-6.376689e-001
2493564.000	7.695166e-001	-6.388012e-001
2499558.000	7.686997e-001	-6.400455e-001
2505552.000	7.675936e-001	-6.411414e-001
2511546.000	7.667365e-001	-6.423922e-001
2517540.000	7.656462e-001	-6.435442e-001
2523534.000	7.646179e-001	-6.447173e-001
2529528.000	7.636722e-001	-6.458761e-001
2535522.000	7.627800e-001	-6.470881e-001
2541516.000	7.617500e-001	-6.482021e-001
2547510.000	7.607926e-001	-6.493471e-001
2553504.000	7.598108e-001	-6.506036e-001
2559498.000	7.588450e-001	-6.517573e-001
2565492.000	7.577926e-001	-6.527362e-001
2571486.000	7.567281e-001	-6.539322e-001
2577480.000	7.557251e-001	-6.551435e-001
2583474.000	7.547297e-001	-6.563468e-001
2589468.000	7.537473e-001	-6.574210e-001
2595462.000	7.528052e-001	-6.586512e-001
2601456.000	7.517801e-001	-6.597272e-001
2607450.000	7.507619e-001	-6.609252e-001
2613444.000	7.498018e-001	-6.620464e-001
2619438.000	7.487597e-001	-6.631867e-001
2625432.000	7.477628e-001	-6.643414e-001
2631426.000	7.468191e-001	-6.654382e-001
2637420.000	7.457394e-001	-6.665432e-001
2643414.000	7.447579e-001	-6.677397e-001
2649408.000	7.437897e-001	-6.687535e-001
2655402.000	7.427193e-001	-6.699737e-001
2661396.000	7.416441e-001	-6.711113e-001
2667390.000	7.407171e-001	-6.722867e-001
2673384.000	7.396431e-001	-6.733274e-001
2679378.000	7.386635e-001	-6.743696e-001
2685372.000	7.375568e-001	-6.755816e-001
2691366.000	7.366964e-001	-6.765916e-001
2697360.000	7.356724e-001	-6.777050e-001
2703354.000	7.345729e-001	-6.788334e-001
2709348.000	7.336990e-001	-6.799946e-001
2715342.000	7.325592e-001	-6.811366e-001
2721336.000	7.316193e-001	-6.822283e-001
2727330.000	7.303767e-001	-6.833307e-001
2733324.000	7.294037e-001	-6.844002e-001
2739318.000	7.286036e-001	-6.854598e-001
2745312.000	7.274376e-001	-6.866331e-001
2751306.000	7.263810e-001	-6.876961e-001
2757300.000	7.253689e-001	-6.887527e-001
2763294.000	7.243650e-001	-6.898611e-001
2769288.000	7.232432e-001	-6.909454e-001
2775282.000	7.223119e-001	-6.920880e-001
2781276.000	7.211531e-001	-6.932674e-001
2787270.000	7.201462e-001	-6.941844e-001
2793264.000	7.191238e-001	-6.953244e-001
2799258.000	7.180687e-001	-6.963221e-001
2805252.000	7.170797e-001	-6.974104e-001
2811246.000	7.160811e-001	-6.985009e-001
2817240.000	7.149980e-001	-6.995934e-001
2823234.000	7.139711e-001	-7.005592e-001
2829228.000	7.129497e-001	-7.016867e-001
2835222.000	7.118104e-001	-7.026212e-001
2841216.000	7.108790e-001	-7.038292e-001
2847210.000	7.097707e-001	-7.047770e-001
2853204.000	7.087042e-001	-7.058527e-001
2859198.000	7.076641e-001	-7.069560e-001
2865192.000	7.065562e-001	-7.079550e-001
2871186.000	7.055539e-001	-7.091778e-001
2877180.000	7.046014e-001	-7.100758e-001
2883174.000	7.035378e-001	-7.111627e-001
2889168.000	7.024924e-001	-7.122480e-001
2895162.000	7.013879e-001	-7.132702e-001
2901156.000	7.003808e-001	-7.142540e-001
2907150.000	6.992783e-001	-7.153728e-001
2913144.000	6.982462e-001	-7.163057e-001
2919138.000	6.972264e-001	-7.173691e-001
2925132.000	6.961441e-001	-7.183415e-001
2931126.000	6.952122e-001	-7.193681e-001
2937120.000	6.941018e-001	-7.204305e-001
2943114.000	6.930082e-001	-7.214403e-001
2949108.000	6.919795e-001	-7.225361e-001
2955102.000	6.909630e-001	-7.234796e-001
2961096.000	6.898185e-001	-7.244109e-001
2967090.000	6.887316e-001	-7.255003e-001
2973084.000	6.877368e-001	-7.265704e-001
2979078.000	6.866454e-001	-7.275675e-001
2985072.000	6.855234e-001	-7.284878e-001
2991066.000	6.845279e-001	-7.295713e-001
2997060.000	6.834533e-001	-7.305504e-001
3003054.000	6.823150e-001	-7.314703e-001
3009048.000	6.812080e-001	-7.324630e-001
3015042.000	6.802019e-001	-7.334847e-001
3021036.000	6.791079e-001	-7.344228e-001
3027030.000	6.779260e-001	-7.354370e-001
3033024.000	6.769646e-001	-7.364072e-001
3039018.000	6.759112e-001	-7.374405e-001
3045012.000	6.748375e-001	-7.384708e-001
3051006.000	6.737729e-001	-7.394479e-001
3057000.000	6.727616e-001	-7.403826e-001
3062994.000	6.715530e-001	-7.413328e-001
3068988.000	6.706022e-001	-7.424051e-001
3074982.000	6.694682e-001	-7.432436e-001
3080976.000	6.683508e-001	-7.442780e-001
3086970.000	6.673236e-001	-7.451699e-001
3092964.000	6.661936e-001	-7.462328e-001
3098958.000	6.651452e-001	-7.472739e-001
3104952.000	6.640361e-001	-7.482381e-001
3110946.000	6.629893e-001	-7.491112e-001
3116940.000	6.619493e-001	-7.501023e-001
3122934.000	6.608224e-001	-7.509908e-001
3128928.000	6.597365e-001	-7.519682e-001
3134922.000	6.586130e-001	-7.527941e-001
3140916.000	6.576818e-001	-7.538025e-001
3146910.000	6.564657e-001	-7.547878e-001
3152904.000	6.553145e-001	-7.557721e-001
3158898.000	6.544164e-001	-7.567393e-001
3164892.000	6.532956e-001	-7.576109e-001
3170886.000	6.521008e-001	-7.586142e-001
3176880.000	6.511413e-001	-7.594212e-001
3182874.000	6.500796e-001	-7.604205e-001
3188868.000	6.488796e-001	-7.613916e-001
3194862.000	6.477456e-001	-7.623002e-001
3200856.000	6.467055e-001	-7.632341e-001
3206850.000	6.457110e-001	-7.641530e-001
3212844.000	6.444955e-001	-7.649168e-001
3218838.000	6.434202e-001	-7.660910e-001
3224832.000	6.423123e-001	-7.668948e-001
3230826.000	6.413025e-001	-7.679083e-001
3236820.000	6.401196e-001	-7.688352e-001
3242814.000	6.390404e-001	-7.696297e-001
3248808.000	6.379279e-001	-7.705296e-001
3254802.000	6.369155e-001	-7.715409e-001
3260796.000	6.357867e-001	-7.724343e-001
3266790.000	6.346924e-001	-7.732099e-001
3272784.000	6.336883e-001	-7.742129e-001
3278778.000	6.324699e-001	-7.750987e-001
3284772.000	6.313719e-001	-7.758446e-001
3290766.000	6.304751e-001	-7.768137e-001
3296760.000	6.293131e-001	-7.777459e-001
3302754.000	6.281081e-001	-7.786339e-001
3308748.000	6.270246e-001	-7.795608e-001
3314742.000	6.260014e-001	-7.803978e-001
3320736.000	6.247551e-001	-7.814233e-001
3326730.000	6.237520e-001	-7.823211e-001
3332724.000	6.226124e-001	-7.831057e-001
3338718.000	6.215360e-001	-7.839997e-001
3344712.000	6.203746e-001	-7.848755e-001
3350706.000	6.193090e-001	-7.857445e-001
3356700.000	6.181494e-001	-7.865532e-001
3362694.000	6.170108e-001	-7.875129e-001
3368688.000	6.160190e-001	-7.883386e-001
3374682.000	6.148173e-001	-7.890758e-001
3380676.000	6.138448e-001	-7.901425e-001
3386670.000	6.127053e-001	-7.909621e-001
3392664.000	6.115898e-001	-7.918388e-001
3398658.000	6.103896e-001	-7.926454e-001
3404652.000	6.093481e-001	-7.935683e-001
3410646.000	6.083517e-001	-7.942856e-001
3416640.000	6.071964e-001	-7.950711e-001
3422634.000	6.060715e-001	-7.960427e-001
3428628.000	6.048789e-001	-7.968562e-001
3434622.000	6.039380e-001	-7.976903e-001
3440616.000	6.027416e-001	-7.985051e-001
3446610.000	6.016639e-001	-7.994404e-001
3452604.000	6.005153e-001	-8.002524e-001
3458598.000	5.994675e-001	-8.011328e-001
3464592.000	5.983094e-001	-8.018310e-001
3470586.000	5.972037e-001	-8.026968e-001
3476580.000	5.961024e-001	-8.035643e-001
3482574.000	5.948717e-001	-8.043849e-001
3488568.000	5.939089e-001	-8.052006e-001
3494562.000	5.927529e-001	-8.059739e-001
3500556.000	5.916339e-001	-8.068683e-001
3506550.000	5.904410e-001	-8.075937e-001
3512544.000	5.893843e-001	-8.083540e-001
3518538.000	5.882536e-001	-8.093185e-001
3524532.000	5.871401e-001	-8.101668e-001
3530526.000	5.859813e-001	-8.109034e-001
3536520.000	5.848882e-001	-8.117014e-001
3542514.000	5.837408e-001	-8.126318e-001
3548508.000	5.825712e-001	-8.134387e-001
3554502.000	5.814688e-001	-8.142119e-001
3560496.000	5.804740e-001	-8.150344e-001
3566490.000	5.793379e-001	-8.157181e-001
3572484.000	5.781320e-001	-8.165628e-001
3578478.000	5.770865e-001	-8.173499e-001
3584472.000	5.760609e-001	-8.181489e-001
3590466.000	5.748598e-001	-8.189260e-001
3596460.000	5.738170e-001	-8.196946e-001
3602454.000	5.724693e-001	-8.204791e-001
3608448.000	5.715287e-001	-8.212656e-001
3614442.000	5.704336e-001	-8.220637e-001
3620436.000	5.692990e-001	-8.228576e-001
3626430.000	5.680947e-001	-8.235883e-001
3632424.000	5.671211e-001	-8.243480e-001
3638418.000	5.658627e-001	-8.250285e-001
3644412.000	5.646756e-001	-8.258257e-001
3650406.000	5.636348e-001	-8.267049e-001
3656400.000	5.624152e-001	-8.274336e-001
3662394.000	5.613221e-001	-8.281593e-001
3668388.000	5.602513e-001	-8.289140e-001
3674382.000	5.592075e-001	-8.297109e-001
3680376.000	5.580662e-001	-8.303476e-001
3686370.000	5.569155e-001	-8.312232e-001
3692364.000	5.557665e-001	-8.318948e-001
3698358.000	5.546844e-001	-8.326083e-001
3704352.000	5.535989e-001	-8.334731e-001
3710346.000	5.523496e-001	-8.341460e-001
3716340.000	5.512370e-001	-8.349324e-001
3722334.000	5.501043e-001	-8.356440e-001
3728328.000	5.491770e-001	-8.364363e-001
3734322.000	5.479565e-001	-8.372028e-001
3740316.000	5.468730e-001	-8.377816e-001
3746310.000	5.457199e-001	-8.385892e-001
3752304.000	5.445530e-001	-8.393963e-001
3758298.000	5.435017e-001	-8.399799e-001
3764292.000	5.421954e-001	-8.406537e-001
3770286.000	5.412953e-001	-8.415766e-001
3776280.000	5.401280e-001	-8.422653e-001
3782274.000	5.389262e-001	-8.430371e-001
3788268.000	5.379340e-001	-8.437475e-001
3794262.000	5.366261e-001	-8.444718e-001
3800256.000	5.355770e-001	-8.450741e-001
3806250.000	5.344387e-001	-8.459526e-001
3812244.000	5.333501e-001	-8.466695e-001
3818238.000	5.321999e-001	-8.472952e-001
3824232.000	5.311080e-001	-8.480025e-001
3830226.000	5.298750e-001	-8.486936e-001
3836220.000	5.288390e-001	-8.493188e-001
3842214.000	5.277593e-001	-8.500602e-001
3848208.000	5.266118e-001	-8.507908e-001
3854202.000	5.255229e-001	-8.515785e-001
3860196.000	5.243917e-001	-8.523494e-001
3866190.000	5.232028e-001	-8.529292e-001
3872184.000	5.220765e-001	-8.537076e-001
3878178.000	5.209425e-001	-8.544760e-001
3884172.000	5.198394e-001	-8.551077e-001
3890166.000	5.187096e-001	-8.558220e-001
3896160.000	5.176614e-001	-8.564854e-001
3902154.000	5.165067e-001	-8.571422e-001
3908148.000	5.153720e-001	-8.576881e-001
3914142.000	5.141158e-001	-8.584377e-001
3920136.000	5.130581e-001	-8.590578e-001
3926130.000	5.118929e-001	-8.598277e-001
3932124.000	5.108470e-001	-8.605492e-001
3938118.000	5.097316e-001	-8.611937e-001
3944112.000	5.085611e-001	-8.617830e-001
3950106.000	5.074382e-001	-8.625706e-001
3956100.000	5.063210e-001	-8.630979e-001
3962094.000	5.051178e-001	-8.636079e-001
3968088.000	5.039937e-001	-8.644004e-001
3974082.000	5.029191e-001	-8.650308e-001
3980076.000	5.017354e-001	-8.657348e-001
3986070.000	5.005226e-001	-8.664390e-001
3992064.000	4.996367e-001	-8.669238e-001
3998058.000	4.983012e-001	-8.677915e-001
4004052.000	4.973009e-001	-8.683924e-001
4010046.000	4.961001e-001	-8.690972e-001
4016040.000	4.949028e-001	-8.696498e-001
4022034.000	4.938842e-001	-8.702884e-001
4028028.000	4.927409e-001	-8.709131e-001
4034022.000	4.916747e-001	-8.716748e-001
4040016.000	4.905216e-001	-8.723065e-001
4046010.000	4.892853e-001	-8.728828e-001
4052004.000	4.882314e-001	-8.735190e-001
4057998.000	4.869909e-001	-8.741006e-001
4063992.000	4.860546e-001	-8.748222e-001
4069986.000	4.848708e-001	-8.754647e-001
4075980.000	4.837389e-001	-8.759576e-001
4081974.000	4.826374e-001	-8.765418e-001
4087968.000	4.815162e-001	-8.772517e-001
4093962.000	4.803894e-001	-8.778392e-001
4099956.000	4.792028e-001	-8.784640e-001
4105950.000	4.781477e-001	-8.790309e-001
4111944.000	4.769658e-001	-8.796672e-001
4117938.000	4.758199e-001	-8.802204e-001
4123932.000	4.747560e-001	-8.808374e-001
4129926.000	4.736041e-001	-8.815008e-001
4135920.000	4.723580e-001	-8.820942e-001
4141914.000	4.712945e-001	-8.825963e-001
4147908.000	4.702025e-001	-8.834312e-001
4153902.000	4.690860e-001	-8.838792e-001
4159896.000	4.678042e-001	-8.844749e-001
4165890.000	4.668141e-001	-8.850605e-001
4171884.000	4.657066e-001	-8.857380e-001
4177878.000	4.645061e-001	-8.863620e-001
4183872.000	4.635078e-001	-8.869659e-001
4189866.000	4.622670e-001	-8.874613e-001
4195860.000	4.611413e-001	-8.880109e-001
4201854.000	4.599433e-001	-8.886965e-001
4207848.000	4.589176e-001	-8.891610e-001
4213842.000	4.576991e-001	-8.898548e-001
4219836.000	4.566314e-001	-8.904099e-001
4225830.000	4.555997e-001	-8.908956e-001
4231824.000	4.544178e-001	-8.915239e-001
4237818.000	4.533331e-001	-8.921757e-001
4243812.000	4.522302e-001	-8.928195e-001
4249806.000	4.511927e-001	-8.933832e-001
4255800.000	4.500599e-001	-8.938910e-001
4261794.000	4.489887e-001	-8.945001e-001
4267788.000	4.478856e-001	-8.950791e-001
4273782.000	4.467271e-001	-8.956510e-001
4279776.000	4.454874e-001	-8.961355e-001
4285770.000	4.445369e-001	-8.967341e-001
4291764.000	4.432802e-001	-8.973677e-001
4297758.000	4.420863e-001	-8.979336e-001
4303752.000	4.410836e-001	-8.984440e-001
4309746.000	4.398942e-001	-8.990281e-001
4315740.000	4.388181e-001	-8.995364e-001
4321734.000	4.376443e-001	-9.000615e-001
4327728.000	4.365119e-001	-9.005446e-001
4333722.000	4.354608e-001	-9.011489e-001
4339716.000	4.342976e-001	-9.016710e-001
4345710.000	4.332762e-001	-9.021358e-001
4351704.000	4.319610e-001	-9.027312e-001
4357698.000	4.308942e-001	-9.033145e-001
4363692.000	4.298714e-001	-9.038717e-001
4369686.000	4.287692e-001	-9.045139e-001
4375680.000	4.276037e-001	-9.048537e-001
4381674.000	4.263892e-001	-9.054713e-001
4387668.000	4.253887e-001	-9.059290e-001
4393662.000	4.242874e-001	-9.064424e-001
4399656.000	4.231487e-001	-9.069719e-001
4405650.000	4.219728e-001	-9.074626e-001
4411644.000	4.208987e-001	-9.080749e-001
4417638.000	4.197514e-001	-9.085549e-001
4423632.000	4.187057e-001	-9.090690e-001
4429626.000	4.174837e-001	-9.096430e-001
4435620.000	4.163654e-001	-9.101006e-001
4441614.000	4.152813e-001	-9.107316e-001
4447608.000	4.141618e-001	-9.111696e-001
4453602.000	4.131445e-001	-9.117390e-001
4459596.000	4.119008e-001	-9.122465e-001
4465590.000	4.108650e-001	-9.126749e-001
4471584.000	4.096855e-001	-9.130930e-001
4477578.000	4.085662e-001	-9.136931e-001
4483572.000	4.074890e-001	-9.141831e-001
4489566.000	4.062077e-001	-9.146580e-001
4495560.000	4.051326e-001	-9.150570e-001
4501554.000	4.042206e-001	-9.156492e-001
4507548.000	4.030335e-001	-9.160786e-001
4513542.000	4.018909e-001	-9.166411e-001
4519536.000	4.006973e-001	-9.171981e-001
4525530.000	3.995579e-001	-9.175605e-001
4531524.000	3.984406e-001	-9.180703e-001
4537518.000	3.975515e-001	-9.186227e-001
4543512.000	3.962607e-001	-9.191028e-001
4549506.000	3.950876e-001	-9.196036e-001
4555500.000	3.941141e-001	-9.200015e-001
4561494.000	3.929644e-001	-9.204194e-001
4567488.000	3.918855e-001	-9.210122e-001
4573482.000	3.907159e-001	-9.214139e-001
4579476.000	3.895897e-001	-9.220309e-001
4585470.000	3.885923e-001	-9.224653e-001
4591464.000	3.875276e-001	-9.228953e-001
4597458.000	3.863440e-001	-9.232729e-001
4603452.000	3.853412e-001	-9.238213e-001
4609446.000	3.840856e-001	-9.243332e-001
4615440.000	3.829441e-001	-9.246372e-001
4621434.000	3.818239e-001	-9.252737e-001
4627428.000	3.808477e-001	-9.256195e-001
4633422.000	3.797432e-001	-9.261193e-001
4639416.000	3.785709e-001	-9.266948e-001
4645410.000	3.775224e-001	-9.270339e-001
4651404.000	3.763279e-001	-9.274112e-001
4657398.000	3.752607e-001	-9.279646e-001
4663392.000	3.740697e-001	-9.282734e-001
4669386.000	3.729925e-001	-9.287841e-001
4675380.000	3.719340e-001	-9.293539e-001
4681374.000	3.708402e-001	-9.297323e-001
4687368.000	3.697572e-001	-9.301092e-001
4693362.000	3.686303e-001	-9.307363e-001
4699356.000	3.675214e-001	-9.310040e-001
4705350.000	3.664467e-001	-9.315039e-001
4711344.000	3.652897e-001	-9.318509e-001
4717338.000	3.642310e-001	-9.325438e-001
4723332.000	3.631202e-001	-9.327759e-001
4729326.000	3.620131e-001	-9.332647e-001
4735320.000	3.608830e-001	-9.336505e-001
4741314.000	3.598709e-001	-9.340815e-001
4747308.000	3.587492e-001	-9.346327e-001
4753302.000	3.576181e-001	-9.348389e-001
4759296.000	3.564360e-001	-9.354305e-001
4765290.000	3.554266e-001	-9.358822e-001
4771284.000	3.542195e-001	-9.361667e-001
4777278.000	3.532288e-001	-9.366298e-001
4783272.000	3.520630e-001	-9.368452e-001
4789266.000	3.509505e-001	-9.375396e-001
4795260.000	3.498789e-001	-9.377493e-001
4801254.000	3.487102e-001	-9.382450e-001
4807248.000	3.477217e-001	-9.386970e-001
4813242.000	3.465842e-001	-9.390812e-001
4819236.000	3.454918e-001	-9.395801e-001
4825230.000	3.443115e-001	-9.398498e-001
4831224.000	3.433185e-001	-9.402239e-001
4837218.000	3.421563e-001	-9.406454e-001
4843212.000	3.410555e-001	-9.410877e-001
4849206.000	3.399548e-001	-9.414464e-001
4855200.000	3.388877e-001	-9.418481e-001
4861194.000	3.377722e-001	-9.421757e-001
4867188.000	3.366605e-001	-9.426168e-001
4873182.000	3.355559e-001	-9.430333e-001
4879176.000	3.346033e-001	-9.434194e-001
4885170.000	3.334609e-001	-9.437444e-001
4891164.000	3.324012e-001	-9.442132e-001
4897158.000	3.312963e-001	-9.446184e-001
4903152.000	3.301145e-001	-9.450383e-001
4909146.000	3.292092e-001	-9.452981e-001
4915140.000	3.279867e-001	-9.458109e-001
4921134.000	3.269236e-001	-9.460821e-001
4927128.000	3.259749e-001	-9.464521e-001
4933122.000	3.247971e-001	-9.469561e-001
4939116.000	3.236573e-001	-9.471990e-001
4945110.000	3.227228e-001	-9.476830e-001
4951104.000	3.215507e-001	-9.479622e-001
4957098.000	3.203440e-001	-9.484742e-001
4963092.000	3.193731e-001	-9.487871e-001
4969086.000	3.182681e-001	-9.490227e-001
4975080.000	3.172160e-001	-9.494305e-001
4981074.000	3.160845e-001	-9.499180e-001
4987068.000	3.151487e-001	-9.501356e-001
4993062.000	3.138575e-001	-9.506289e-001
4999056.000	3.128721e-001	-9.509092e-001
5005050.000	3.117927e-001	-9.513158e-001
5011044.000	3.106117e-001	-9.515321e-001
5017038.000	3.095712e-001	-9.519450e-001
5023032.000	3.085043e-001	-9.522808e-001
5029026.000	3.074266e-001	-9.527358e-001
5035020.000	3.062469e-001	-9.528664e-001
5041014.000	3.053039e-001	-9.534195e-001
5047008.000	3.041983e-001	-9.537618e-001
5053002.000	3.030869e-001	-9.539495e-001
5058996.000	3.019897e-001	-9.543447e-001
5064990.000	3.009741e-001	-9.546064e-001
5070984.000	2.999510e-001	-9.550860e-001
5076978.000	2.988671e-001	-9.553527e-001
5082972.000	2.976122e-001	-9.558437e-001
5088966.000	2.966362e-001	-9.560327e-001
5094960.000	2.954381e-001	-9.564534e-001
5100954.000	2.945125e-001	-9.567280e-001
5106948.000	2.934280e-001	-9.570496e-001
5112942.000	2.923759e-001	-9.574192e-001
5118936.000	2.912850e-001	-9.576424e-001
5124930.000	2.902025e-001	-9.580155e-001
5130924.000	2.890941e-001	-9.584263e-001
5136918.000	2.880696e-001	-9.587337e-001
5142912.000	2.868990e-001	-9.590935e-001
5148906.000	2.858246e-001	-9.594437e-001
5154900.000	2.847794e-001	-9.597871e-001
5160894.000	2.837441e-001	-9.600422e-001
5166888.000	2.825405e-001	-9.605054e-001
5172882.000	2.815696e-001	-9.607328e-001
5178876.000	2.804775e-001	-9.609968e-001
5184870.000	2.794979e-001	-9.613249e-001
5190864.000	2.784228e-001	-9.616646e-001
5196858.000	2.773140e-001	-9.619193e-001
5202852.000	2.762208e-001	-9.621670e-001
5208846.000	2.752481e-001	-9.626474e-001
5214840.000	2.741165e-001	-9.628284e-001
5220834.000	2.731238e-001	-9.631715e-001
5226828.000	2.721149e-001	-9.635148e-001
5232822.000	2.709156e-001	-9.637331e-001
5238816.000	2.698691e-001	-9.641698e-001
5244810.000	2.688452e-001	-9.643564e-001
5250804.000	2.677983e-001	-9.646465e-001
5256798.000	2.667194e-001	-9.650179e-001
5262792.000	2.657150e-001	-9.653521e-001
5268786.000	2.646586e-001	-9.656030e-001
5274780.000	2.634926e-001	-9.657765e-001
5280774.000	2.624596e-001	-9.662102e-001
5286768.000	2.614248e-001	-9.663749e-001
5292762.000	2.604172e-001	-9.667421e-001
5298756.000	2.593761e-001	-9.670360e-001
5304750.000	2.582162e-001	-9.672936e-001
5310744.000	2.572256e-001	-9.674987e-001
5316738.000	2.560771e-001	-9.677379e-001
5322732.000	2.551569e-001	-9.680568e-001
5328726.000	2.540415e-001	-9.682896e-001
5334720.000	2.529362e-001	-9.686374e-001
5340714.000	2.518948e-001	-9.689615e-001
5346708.000	2.508203e-001	-9.693163e-001
5352702.000	2.498266e-001	-9.695866e-001
5358696.000	2.486451e-001	-9.697056e-001
5364690.000	2.476692e-001	-9.701309e-001
5370684.000	2.466955e-001	-9.703231e-001
5376678.000	2.456741e-001	-9.705597e-001
5382672.000	2.445523e-001	-9.707753e-001
5388666.000	2.435046e-001	-9.710014e-001
5394660.000	2.424225e-001	-9.713224e-001
5400654.000	2.414802e-001	-9.716177e-001
5406648.000	2.404477e-001	-9.718962e-001
5412642.000	2.392725e-001	-9.721491e-001
5418636.000	2.382638e-001	-9.724609e-001
5424630.000	2.372602e-001	-9.726033e-001
5430624.000	2.362090e-001	-9.729927e-001
5436618.000	2.351759e-001	-9.731072e-001
5442612.000	2.341208e-001	-9.734603e-001
5448606.000	2.331156e-001	-9.737523e-001
5454600.000	2.321199e-001	-9.739688e-001
5460594.000	2.310099e-001	-9.741855e-001
5466588.000	2.299192e-001	-9.745745e-001
5472582.000	2.289122e-001	-9.747889e-001
5478576.000	2.279524e-001	-9.748892e-001
5484570.000	2.268445e-001	-9.751837e-001
5490564.000	2.257781e-001	-9.753664e-001
5496558.000	2.246551e-001	-9.757041e-001
5502552.000	2.236547e-001	-9.759226e-001
5508546.000	2.227557e-001	-9.761648e-001
5514540.000	2.217057e-001	-9.763786e-001
5520534.000	2.206574e-001	-9.764795e-001
5526528.000	2.196493e-001	-9.768039e-001
5532522.000	2.185598e-001	-9.770792e-001
5538516.000	2.175968e-001	-9.773316e-001
5544510.000	2.165464e-001	-9.775793e-001
5550504.000	2.155488e-001	-9.777565e-001
5556498.000	2.144050e-001	-9.780380e-001
5562492.000	2.135028e-001	-9.782317e-001
5568486.000	2.123612e-001	-9.784693e-001
5574480.000	2.113179e-001	-9.787364e-001
5580474.000	2.104237e-001	-9.789096e-001
5586468.000	2.093285e-001	-9.790973e-001
5592462.000	2.082645e-001	-9.793650e-001
5598456.000	2.073373e-001	-9.796067e-001
5604450.000	2.061022e-001	-9.798098e-001
5610444.000	2.052757e-001	-9.798554e-001
5616438.000	2.041843e-001	-9.801526e-001
5622432.000	2.031123e-001	-9.804328e-001
5628426.000	2.021003e-001	-9.806116e-001
5634420.000	2.011632e-001	-9.809609e-001
5640414.000	2.001111e-001	-9.811469e-001
5646408.000	1.989807e-001	-9.812612e-001
5652402.000	1.980207e-001	-9.814590e-001
5658396.000	1.969938e-001	-9.816336e-001
5664390.000	1.960722e-001	-9.819488e-001
5670384.000	1.949642e-001	-9.821096e-001
5676378.000	1.940647e-001	-9.823557e-001
5682372.000	1.929644e-001	-9.825526e-001
5688366.000	1.918694e-001	-9.826809e-001
5694360.000	1.908996e-001	-9.828166e-001
5700354.000	1.899524e-001	-9.830817e-001
5706348.000	1.888649e-001	-9.833049e-001
5712342.000	1.878613e-001	-9.833873e-001
5718336.000	1.868428e-001	-9.837231e-001
5724330.000	1.858999e-001	-9.838190e-001
5730324.000	1.848354e-001	-9.840900e-001
5736318.000	1.839383e-001	-9.842900e-001
5742312.000	1.829031e-001	-9.845064e-001
5748306.000	1.818221e-001	-9.846863e-001
5754300.000	1.807984e-001	-9.847678e-001
5760294.000	1.798173e-001	-9.850024e-001
5766288.000	1.787586e-001	-9.851667e-001
5772282.000	1.777885e-001	-9.853489e-001
5778276.000	1.767985e-001	-9.856975e-001
5784270.000	1.758441e-001	-9.857796e-001
5790264.000	1.747827e-001	-9.859596e-001
5796258.000	1.737620e-001	-9.860345e-001
5802252.000	1.727637e-001	-9.862708e-001
5808246.000	1.717397e-001	-9.863629e-001
5814240.000	1.706826e-001	-9.866824e-001
5820234.000	1.698220e-001	-9.868335e-001
5826228.000	1.688036e-001	-9.869863e-001
5832222.000	1.676967e-001	-9.871249e-001
5838216.000	1.667801e-001	-9.873674e-001
5844210.000	1.657652e-001	-9.875147e-001
5850204.000	1.647854e-001	-9.877042e-001
5856198.000	1.637994e-001	-9.877991e-001
5862192.000	1.627987e-001	-9.880324e-001
5868186.000	1.617539e-001	-9.882713e-001
5874180.000	1.608631e-001	-9.882503e-001
5880174.000	1.596935e-001	-9.885187e-001
5886168.000	1.588258e-001	-9.886555e-001
5892162.000	1.578500e-001	-9.887666e-001
5898156.000	1.568801e-001	-9.889737e-001
5904150.000	1.558013e-001	-9.891417e-001
5910144.000	1.548550e-001	-9.892128e-001
5916138.000	1.538057e-001	-9.894501e-001
5922132.000	1.529037e-001	-9.895899e-001
5928126.000	1.517973e-001	-9.896639e-001
5934120.000	1.508870e-001	-9.898250e-001
5940114.000	1.498565e-001	-9.900517e-001
5946108.000	1.488539e-001	-9.901785e-001
5952102.000	1.478889e-001	-9.904349e-001
5958096.000	1.469086e-001	-9.905072e-001
5964090.000	1.459488e-001	-9.906508e-001
5970084.000	1.449933e-001	-9.908719e-001
5976078.000	1.439458e-001	-9.910099e-001
5982072.000	1.429208e-001	-9.911235e-001
5988066.000	1.420566e-001	-9.912070e-001
5994060.000	1.409878e-001	-9.913358e-001
6000054.000	1.400386e-001	-9.916367e-001
6006048.000	1.390114e-001	-9.917678e-001
6012042.000	1.380974e-001	-9.919697e-001
6018036.000	1.370785e-001	-9.919459e-001
6024030.000	1.361065e-001	-9.921428e-001
6030024.000	1.352011e-001	-9.923301e-001
6036018.000	1.341980e-001	-9.924233e-001
6042012.000	1.331674e-001	-9.925203e-001
6048006.000	1.321433e-001	-9.927088e-001
6054000.000	1.312724e-001	-9.928117e-001
6059994.000	1.302834e-001	-9.928717e-001
6065988.000	1.292472e-001	-9.931001e-001
6071982.000	1.283261e-001	-9.931066e-001
6077976.000	1.273722e-001	-9.932464e-001
6083970.000	1.263855e-001	-9.934332e-001
6089964.000	1.253432e-001	-9.935328e-001
6095958.000	1.244646e-001	-9.936796e-001
6101952.000	1.234111e-001	-9.938166e-001
6107946.000	1.223858e-001	-9.939550e-001
6113940.000	1.214784e-001	-9.941259e-001
6119934.000	1.205026e-001	-9.941461e-001
6125928.000	1.195839e-001	-9.943513e-001
6131922.000	1.186059e-001	-9.944594e-001
6137916.000	1.176170e-001	-9.945848e-001
6143910.000	1.166032e-001	-9.945846e-001
6149904.000	1.156918e-001	-9.947381e-001
6155898.000	1.147965e-001	-9.948484e-001
6161892.000	1.137963e-001	-9.949514e-001
6167886.000	1.127192e-001	-9.951471e-001
6173880.000	1.117986e-001	-9.952850e-001
6179874.000	1.109827e-001	-9.952909e-001
6185868.000	1.100726e-001	-9.954010e-001
6191862.000	1.089040e-001	-9.956046e-001
6197856.000	1.080852e-001	-9.956988e-001
6203850.000	1.071140e-001	-9.958023e-001
6209844.000	1.061688e-001	-9.959220e-001
6215838.000	1.051391e-001	-9.959634e-001
6221832.000	1.041292e-001	-9.960332e-001
6227826.000	1.032144e-001	-9.961422e-001
6233820.000	1.022483e-001	-9.962410e-001
6239814.000	1.013338e-001	-9.963622e-001
6245808.000	1.003439e-001	-9.964720e-001
6251802.000	9.944510e-002	-9.965557e-001
6257796.000	9.847550e-002	-9.966036e-001
6263790.000	9.744616e-002	-9.967462e-001
6269784.000	9.645254e-002	-9.968677e-001
6275778.000	9.554625e-002	-9.968713e-001
6281772.000	9.462619e-002	-9.970392e-001
6287766.000	9.377546e-002	-9.969891e-001
6293760.000	9.274188e-002	-9.972156e-001
6299754.000	9.191017e-002	-9.973841e-001
6305748.000	9.091769e-002	-9.974387e-001
6311742.000	9.003267e-002	-9.975090e-001
6317736.000	8.896072e-002	-9.975743e-001
6323730.000	8.803007e-002	-9.977689e-001
6329724.000	8.705460e-002	-9.978133e-001
6335718.000	8.616006e-002	-9.978390e-001
6341712.000	8.527390e-002	-9.979478e-001
6347706.000	8.434512e-002	-9.980253e-001
6353700.000	8.340283e-002	-9.981182e-001
6359694.000	8.237693e-002	-9.981598e-001
6365688.000	8.148475e-002	-9.982097e-001
6371682.000	8.064478e-002	-9.983080e-001
6377676.000	7.959501e-002	-9.984839e-001
6383670.000	7.869046e-002	-9.985026e-001
6389664.000	7.771091e-002	-9.985779e-001
6395658.000	7.679608e-002	-9.986103e-001
6401652.000	7.589625e-002	-9.987077e-001
6407646.000	7.500657e-002	-9.987531e-001
6413640.000	7.393161e-002	-9.988331e-001
6419634.000	7.302250e-002	-9.989585e-001
6425628.000	7.210331e-002	-9.989965e-001
6431622.000	7.128385e-002	-9.990954e-001
6437616.000	7.030627e-002	-9.991264e-001
6443610.000	6.940126e-002	-9.991684e-001
6449604.000	6.838018e-002	-9.992125e-001
6455598.000	6.752708e-002	-9.993640e-001
6461592.000	6.659573e-002	-9.992959e-001
6467586.000	6.565974e-002	-9.994219e-001
6473580.000	6.470884e-002	-9.995529e-001
6479574.000	6.387998e-002	-9.994663e-001
6485568.000	6.290822e-002	-9.997104e-001
6491562.000	6.196762e-002	-9.997020e-001
6497556.000	6.110723e-002	-9.997820e-001
6503550.000	6.014269e-002	-9.997847e-001
6509544.000	5.926108e-002	-9.997870e-001
6515538.000	5.835528e-002	-9.999250e-001
6521532.000	5.734290e-002	-9.999564e-001
6527526.000	5.641930e-002	-9.999178e-001
6533520.000	5.557171e-002	-1.000068e+000
6539514.000	5.467017e-002	-1.000032e+000
6545508.000	5.375598e-002	-1.000123e+000
6551502.000	5.288384e-002	-1.000202e+000
6557496.000	5.182634e-002	-1.000304e+000
6563490.000	5.104144e-002	-1.000284e+000
6569484.000	5.005643e-002	-1.000399e+000
6575478.000	4.921765e-002	-1.000361e+000
6581472.000	4.823402e-002	-1.000414e+000
6587466.000	4.734765e-002	-1.000413e+000
6593460.000	4.643795e-002	-1.000521e+000
6599454.000	4.557124e-002	-1.000667e+000
6605448.000	4.457208e-002	-1.000563e+000
6611442.000	4.371498e-002	-1.000663e+000
6617436.000	4.279754e-002	-1.000681e+000
6623430.000	4.197069e-002	-1.000627e+000
6629424.000	4.096138e-002	-1.000813e+000
6635418.000	4.004716e-002	-1.000840e+000
6641412.000	3.920718e-002	-1.000930e+000
6647406.000	3.827457e-002	-1.000908e+000
6653400.000	3.730704e-002	-1.000910e+000
6659394.000	3.648871e-002	-1.001008e+000
6665388.000	3.559994e-002	-1.000977e+000
6671382.000	3.475621e-002	-1.000952e+000
6677376.000	3.383383e-002	-1.000945e+000
6683370.000	3.293558e-002	-1.001006e+000
6689364.000	3.198591e-002	-1.001182e+000
6695358.000	3.108300e-002	-1.001181e+000
6701352.000	3.014597e-002	-1.001325e+000
6707346.000	2.928751e-002	-1.001263e+000
6713340.000	2.833105e-002	-1.001235e+000
6719334.000	2.756564e-002	-1.001263e+000
6725328.000	2.655919e-002	-1.001332e+000
6731322.000	2.569016e-002	-1.001339e+000
6737316.000	2.492241e-002	-1.001412e+000
6743310.000	2.390624e-002	-1.001311e+000
6749304.000	2.309500e-002	-1.001328e+000
6755298.000	2.218035e-002	-1.001362e+000
6761292.000	2.130672e-002	-1.001329e+000
6767286.000	2.029381e-002	-1.001419e+000
6773280.000	1.958705e-002	-1.001522e+000
6779274.000	1.865396e-002	-1.001510e+000
6785268.000	1.768854e-002	-1.001462e+000
6791262.000	1.692731e-002	-1.001460e+000
6797256.000	1.592886e-002	-1.001401e+000
6803250.000	1.501773e-002	-1.001498e+000
6809244.000	1.419493e-002	-1.001593e+000
6815238.000	1.335647e-002	-1.001564e+000
6821232.000	1.250772e-002	-1.001643e+000
6827226.000	1.165303e-002	-1.001659e+000
6833220.000	1.069947e-002	-1.001703e+000
6839214.000	9.834363e-003	-1.001639e+000
6845208.000	8.998798e-003	-1.001698e+000
6851202.000	8.038401e-003	-1.001626e+000
6857196.000	7.232243e-003	-1.001662e+000
6863190.000	6.333387e-003	-1.001611e+000
6869184.000	5.395274e-003	-1.001607e+000
6875178.000	4.585453e-003	-1.001636e+000
6881172.000	3.810290e-003	-1.001650e+000
6887166.000	2.866451e-003	-1.001654e+000
6893160.000	1.954467e-003	-1.001692e+000
6899154.000	1.113428e-003	-1.001735e+000
6905148.000	1.092785e-004	-1.001686e+000
6911142.000	-6.473146e-004	-1.001750e+000
6917136.000	-1.459382e-003	-1.001727e+000
6923130.000	-2.393333e-003	-1.001682e+000
6929124.000	-3.206607e-003	-1.001707e+000
6935118.000	-4.029049e-003	-1.001682e+000
6941112.000	-4.918247e-003	-1.001692e+000
6947106.000	-5.806973e-003	-1.001689e+000
6953100.000	-6.753737e-003	-1.001649e+000
6959094.000	-7.636873e-003	-1.001630e+000
6965088.000	-8.454715e-003	-1.001650e+000
6971082.000	-9.370442e-003	-1.001630e+000
6977076.000	-1.020050e-002	-1.001816e+000
6983070.000	-1.093776e-002	-1.001729e+000
6989064.000	-1.189270e-002	-1.001676e+000
6995058.000	-1.273549e-002	-1.001635e+000
7001052.000	-1.358114e-002	-1.001559e+000
7007046.000	-1.443133e-002	-1.001532e+000
7013040.000	-1.528961e-002	-1.001559e+000
7019034.000	-1.614227e-002	-1.001572e+000
7025028.000	-1.694649e-002	-1.001586e+000
7031022.000	-1.784165e-002	-1.001560e+000
7037016.000	-1.867512e-002	-1.001626e+000
7043010.000	-1.950746e-002	-1.001450e+000
7049004.000	-2.040277e-002	-1.001416e+000
7054998.000	-2.136026e-002	-1.001591e+000
7060992.000	-2.217939e-002	-1.001550e+000
7066986.000	-2.295666e-002	-1.001523e+000
7072980.000	-2.381734e-002	-1.001554e+000
7078974.000	-2.454982e-002	-1.001435e+000
7084968.000	-2.540951e-002	-1.001425e+000
7090962.000	-2.634649e-002	-1.001327e+000
7096956.000	-2.717699e-002	-1.001384e+000
7102950.000	-2.809546e-002	-1.001347e+000
7108944.000	-2.890995e-002	-1.001398e+000
7114938.000	-2.966918e-002	-1.001358e+000
7120932.000	-3.046953e-002	-1.001247e+000
7126926.000	-3.141506e-002	-1.001241e+000
7132920.000	-3.218365e-002	-1.001299e+000
7138914.000	-3.307973e-002	-1.001225e+000
7144908.000	-3.391756e-002	-1.001206e+000
7150902.000	-3.476099e-002	-1.001227e+000
7156896.000	-3.559695e-002	-1.001079e+000
7162890.000	-3.642860e-002	-1.001094e+000
7168884.000	-3.725935e-002	-1.001140e+000
7174878.000	-3.813514e-002	-1.001042e+000
7180872.000	-3.897111e-002	-1.001011e+000
7186866.000	-3.978260e-002	-1.000920e+000
7192860.000	-4.069036e-002	-1.000938e+000
7198854.000	-4.132617e-002	-1.000920e+000
7204848.000	-4.220683e-002	-1.000783e+000
7210842.000	-4.312688e-002	-1.000839e+000
7216836.000	-4.386713e-002	-1.000706e+000
7222830.000	-4.463717e-002	-1.000759e+000
7228824.000	-4.562296e-002	-1.000687e+000
7234818.000	-4.640323e-002	-1.000788e+000
7240812.000	-4.723234e-002	-1.000717e+000
7246806.000	-4.806141e-002	-1.000604e+000
7252800.000	-4.889682e-002	-1.000641e+000
7258794.000	-4.967154e-002	-1.000500e+000
7264788.000	-5.053214e-002	-1.000527e+000
7270782.000	-5.139774e-002	-1.000445e+000
7276776.000	-5.226312e-002	-1.000510e+000
7282770.000	-5.309011e-002	-1.000232e+000
7288764.000	-5.388386e-002	-1.000266e+000
7294758.000	-5.471164e-002	-1.000278e+000
7300752.000	-5.547766e-002	-1.000262e+000
7306746.000	-5.619478e-002	-1.000147e+000
7312740.000	-5.708659e-002	-1.000088e+000
7318734.000	-5.793474e-002	-1.000007e+000
7324728.000	-5.880627e-002	-1.000153e+000
7330722.000	-5.960451e-002	-1.000063e+000
7336716.000	-6.039808e-002	-1.000075e+000
7342710.000	-6.122061e-002	-9.999201e-001
7348704.000	-6.197782e-002	-9.999640e-001
7354698.000	-6.281322e-002	-9.997622e-001
7360692.000	-6.364996e-002	-9.997789e-001
7366686.000	-6.437466e-002	-9.997676e-001
7372680.000	-6.524560e-002	-9.996281e-001
7378674.000	-6.610859e-002	-9.995528e-001
7384668.000	-6.686019e-002	-9.996799e-001
7390662.000	-6.760940e-002	-9.995107e-001
7396656.000	-6.854824e-002	-9.995103e-001
7402650.000	-6.934728e-002	-9.994258e-001
7408644.000	-7.014051e-002	-9.994223e-001
7414638.000	-7.088558e-002	-9.993017e-001
7420632.000	-7.171980e-002	-9.989181e-001
7426626.000	-7.253549e-002	-9.989637e-001
7432620.000	-7.330418e-002	-9.989372e-001
7438614.000	-7.413275e-002	-9.988423e-001
7444608.000	-7.495968e-002	-9.987379e-001
7450602.000	-7.579118e-002	-9.987793e-001
7456596.000	-7.651500e-002	-9.986268e-001
7462590.000	-7.728956e-002	-9.986320e-001
7468584.000	-7.821317e-002	-9.985975e-001
7474578.000	-7.894721e-002	-9.985304e-001
7480572.000	-7.967658e-002	-9.983769e-001
7486566.000	-8.053776e-002	-9.983746e-001
7492560.000	-8.133238e-002	-9.983497e-001
7498554.000	-8.207618e-002	-9.982947e-001
7504548.000	-8.299516e-002	-9.982618e-001
7510542.000	-8.366418e-002	-9.981163e-001
7516536.000	-8.448343e-002	-9.980967e-001
7522530.000	-8.534932e-002	-9.981230e-001
7528524.000	-8.597738e-002	-9.978461e-001
7534518.000	-8.685435e-002	-9.979203e-001
7540512.000	-8.772800e-002	-9.978265e-001
7546506.000	-8.849190e-002	-9.977101e-001
7552500.000	-8.933366e-002	-9.977764e-001
7558494.000	-9.009416e-002	-9.975423e-001
7564488.000	-9.076615e-002	-9.974688e-001
7570482.000	-9.164451e-002	-9.974077e-001
7576476.000	-9.242946e-002	-9.973705e-001
7582470.000	-9.313477e-002	-9.972514e-001
7588464.000	-9.393804e-002	-9.971901e-001
7594458.000	-9.469102e-002	-9.970992e-001
7600452.000	-9.549244e-002	-9.971086e-001
7606446.000	-9.641780e-002	-9.969396e-001
7612440.000	-9.704953e-002	-9.969370e-001
7618434.000	-9.794038e-002	-9.968203e-001
7624428.000	-9.862774e-002	-9.967407e-001
7630422.000	-9.937461e-002	-9.967462e-001
7636416.000	-1.002228e-001	-9.966006e-001
7642410.000	-1.010451e-001	-9.966021e-001
7648404.000	-1.017624e-001	-9.965523e-001
7654398.000	-1.025254e-001	-9.964925e-001
7660392.000	-1.033572e-001	-9.963298e-001
7666386.000	-1.041393e-001	-9.963906e-001
7672380.000	-1.048496e-001	-9.961640e-001
7678374.000	-1.056847e-001	-9.960948e-001
7684368.000	-1.063793e-001	-9.960032e-001
7690362.000	-1.071964e-001	-9.961130e-001
7696356.000	-1.080046e-001	-9.960252e-001
7702350.000	-1.087692e-001	-9.959608e-001
7708344.000	-1.095274e-001	-9.958691e-001
7714338.000	-1.103018e-001	-9.958097e-001
7720332.000	-1.110369e-001	-9.956612e-001
7726326.000	-1.118559e-001	-9.954569e-001
7732320.000	-1.126345e-001	-9.954849e-001
7738314.000	-1.133644e-001	-9.954013e-001
7744308.000	-1.141154e-001	-9.954259e-001
7750302.000	-1.148863e-001	-9.952196e-001
7756296.000	-1.156985e-001	-9.951661e-001
7762290.000	-1.165049e-001	-9.950339e-001
7768284.000	-1.172691e-001	-9.949733e-001
7774278.000	-1.179430e-001	-9.948296e-001
7780272.000	-1.186660e-001	-9.948673e-001
7786266.000	-1.194248e-001	-9.946864e-001
7792260.000	-1.202085e-001	-9.945821e-001
7798254.000	-1.209901e-001	-9.946440e-001
7804248.000	-1.218399e-001	-9.944568e-001
7810242.000	-1.224565e-001	-9.943916e-001
7816236.000	-1.232288e-001	-9.942600e-001
7822230.000	-1.240308e-001	-9.942949e-001
7828224.000	-1.248099e-001	-9.940340e-001
7834218.000	-1.255550e-001	-9.939979e-001
7840212.000	-1.262472e-001	-9.938083e-001
7846206.000	-1.269985e-001	-9.937571e-001
7852200.000	-1.277715e-001	-9.937689e-001
7858194.000	-1.285971e-001	-9.936909e-001
7864188.000	-1.293087e-001	-9.934587e-001
7870182.000	-1.301018e-001	-9.933621e-001
7876176.000	-1.307614e-001	-9.933495e-001
7882170.000	-1.316031e-001	-9.931105e-001
7888164.000	-1.322968e-001	-9.930555e-001
7894158.000	-1.330970e-001	-9.931050e-001
7900152.000	-1.338813e-001	-9.928498e-001
7906146.000	-1.345534e-001	-9.927902e-001
7912140.000	-1.353900e-001	-9.926938e-001
7918134.000	-1.360581e-001	-9.925794e-001
7924128.000	-1.366984e-001	-9.925464e-001
7930122.000	-1.375374e-001	-9.923521e-001
7936116.000	-1.382306e-001	-9.923235e-001
7942110.000	-1.389570e-001	-9.921801e-001
7948104.000	-1.397464e-001	-9.921912e-001
7954098.000	-1.405922e-001	-9.918990e-001
7960092.000	-1.413077e-001	-9.919783e-001
7966086.000	-1.419932e-001	-9.918893e-001
7972080.000	-1.427405e-001	-9.916631e-001
7978074.000	-1.433951e-001	-9.916117e-001
7984068.000	-1.440814e-001	-9.914003e-001
7990062.000	-1.449958e-001	-9.913371e-001
7996056.000	-1.456923e-001	-9.913665e-001
8002050.000	-1.463872e-001	-9.911864e-001
8008044.000	-1.471183e-001	-9.910127e-001
8014038.000	-1.478503e-001	-9.908763e-001
8020032.000	-1.485732e-001	-9.908422e-001
8026026.000	-1.493378e-001	-9.907698e-001
8032020.000	-1.500600e-001	-9.906436e-001
8038014.000	-1.507055e-001	-9.905385e-001
8044008.000	-1.515529e-001	-9.904806e-001
8050002.000	-1.522190e-001	-9.902577e-001
8055996.000	-1.529450e-001	-9.902308e-001
8061990.000	-1.536576e-001	-9.900691e-001
8067984.000	-1.543476e-001	-9.898526e-001
8073978.000	-1.552354e-001	-9.899282e-001
8079972.000	-1.559595e-001	-9.897094e-001
8085966.000	-1.566301e-001	-9.896023e-001
8091960.000	-1.572984e-001	-9.895033e-001
8097954.000	-1.580724e-001	-9.893587e-001
8103948.000	-1.588531e-001	-9.894371e-001
8109942.000	-1.595564e-001	-9.891816e-001
8115936.000	-1.601664e-001	-9.891294e-001
8121930.000	-1.609419e-001	-9.888955e-001
8127924.000	-1.616140e-001	-9.888593e-001
8133918.000	-1.623776e-001	-9.887452e-001
8139912.000	-1.630784e-001	-9.886371e-001
8145906.000	-1.638346e-001	-9.883556e-001
8151900.000	-1.644943e-001	-9.881696e-001
8157894.000	-1.652672e-001	-9.882314e-001
8163888.000	-1.660146e-001	-9.880189e-001
8169882.000	-1.666531e-001	-9.879933e-001
8175876.000	-1.673807e-001	-9.879022e-001
8181870.000	-1.681507e-001	-9.876849e-001
8187864.000	-1.687491e-001	-9.876138e-001
8193858.000	-1.695493e-001	-9.874656e-001
8199852.000	-1.702473e-001	-9.874285e-001
8205846.000	-1.709629e-001	-9.873102e-001
8211840.000	-1.716957e-001	-9.871548e-001
8217834.000	-1.723805e-001	-9.869604e-001
8223828.000	-1.731186e-001	-9.868441e-001
8229822.000	-1.738250e-001	-9.866567e-001
8235816.000	-1.744606e-001	-9.866568e-001
8241810.000	-1.753136e-001	-9.864597e-001
8247804.000	-1.759170e-001	-9.862601e-001
8253798.000	-1.765423e-001	-9.862584e-001
8259792.000	-1.773466e-001	-9.861417e-001
8265786.000	-1.780716e-001	-9.859746e-001
8271780.000	-1.787076e-001	-9.859347e-001
8277774.000	-1.795119e-001	-9.857056e-001
8283768.000	-1.802040e-001	-9.856243e-001
8289762.000	-1.808988e-001	-9.854562e-001
8295756.000	-1.815383e-001	-9.853812e-001
8301750.000	-1.822410e-001	-9.853216e-001
8307744.000	-1.829063e-001	-9.850593e-001
8313738.000	-1.835730e-001	-9.850558e-001
8319732.000	-1.843970e-001	-9.848407e-001
8325726.000	-1.849951e-001	-9.846049e-001
8331720.000	-1.857604e-001	-9.845646e-001
8337714.000	-1.864646e-001	-9.844719e-001
8343708.000	-1.871816e-001	-9.842317e-001
8349702.000	-1.877766e-001	-9.841777e-001
8355696.000	-1.885741e-001	-9.840831e-001
8361690.000	-1.892821e-001	-9.839433e-001
8367684.000	-1.899188e-001	-9.839307e-001
8373678.000	-1.906039e-001	-9.836423e-001
8379672.000	-1.912789e-001	-9.834909e-001
8385666.000	-1.920238e-001	-9.834759e-001
8391660.000	-1.925867e-001	-9.832092e-001
8397654.000	-1.933923e-001	-9.832018e-001
8403648.000	-1.940533e-001	-9.830530e-001
8409642.000	-1.948146e-001	-9.828004e-001
8415636.000	-1.953991e-001	-9.827312e-001
8421630.000	-1.961697e-001	-9.825159e-001
8427624.000	-1.968772e-001	-9.824987e-001
8433618.000	-1.975102e-001	-9.823582e-001
8439612.000	-1.982238e-001	-9.822448e-001
8445606.000	-1.987680e-001	-9.820697e-001
8451600.000	-1.995187e-001	-9.818819e-001
8457594.000	-2.001539e-001	-9.818862e-001
8463588.000	-2.009338e-001	-9.816102e-001
8469582.000	-2.015581e-001	-9.813922e-001
8475576.000	-2.021850e-001	-9.812732e-001
8481570.000	-2.026923e-001	-9.806143e-001
8487564.000	-2.033811e-001	-9.804557e-001
8493558.000	-2.041354e-001	-9.803024e-001
8499552.000	-2.048155e-001	-9.802461e-001
8505546.000	-2.055111e-001	-9.801436e-001
8511540.000	-2.061839e-001	-9.800465e-001
8517534.000	-2.068161e-001	-9.797986e-001
8523528.000	-2.075030e-001	-9.796856e-001
8529522.000	-2.081972e-001	-9.794991e-001
8535516.000	-2.088613e-001	-9.793661e-001
8541510.000	-2.095726e-001	-9.792336e-001
8547504.000	-2.102480e-001	-9.790815e-001
8553498.000	-2.108613e-001	-9.789195e-001
8559492.000	-2.115394e-001	-9.788576e-001
8565486.000	-2.121782e-001	-9.786940e-001
8571480.000	-2.128920e-001	-9.785809e-001
8577474.000	-2.135109e-001	-9.783829e-001
8583468.000	-2.142540e-001	-9.781713e-001
8589462.000	-2.148806e-001	-9.780800e-001
8595456.000	-2.155452e-001	-9.779751e-001
8601450.000	-2.162074e-001	-9.778031e-001
8607444.000	-2.169115e-001	-9.776702e-001
8613438.000	-2.175384e-001	-9.774659e-001
8619432.000	-2.182314e-001	-9.773643e-001
8625426.000	-2.188683e-001	-9.771744e-001
8631420.000	-2.195646e-001	-9.770473e-001
8637414.000	-2.201700e-001	-9.768909e-001
8643408.000	-2.208818e-001	-9.767287e-001
8649402.000	-2.215504e-001	-9.766238e-001
8655396.000	-2.222326e-001	-9.764790e-001
8661390.000	-2.228932e-001	-9.762842e-001
8667384.000	-2.235503e-001	-9.761464e-001
8673378.000	-2.241970e-001	-9.760104e-001
8679372.000	-2.247859e-001	-9.758598e-001
8685366.000	-2.254750e-001	-9.757117e-001
8691360.000	-2.261328e-001	-9.755840e-001
8697354.000	-2.267738e-001	-9.754217e-001
8703348.000	-2.274208e-001	-9.752542e-001
8709342.000	-2.280608e-001	-9.751292e-001
8715336.000	-2.287566e-001	-9.749163e-001
8721330.000	-2.294421e-001	-9.747865e-001
8727324.000	-2.300693e-001	-9.746931e-001
8733318.000	-2.307703e-001	-9.745482e-001
8739312.000	-2.313484e-001	-9.743003e-001
8745306.000	-2.320434e-001	-9.741990e-001
8751300.000	-2.326689e-001	-9.740691e-001
8757294.000	-2.333030e-001	-9.738800e-001
8763288.000	-2.339931e-001	-9.737271e-001
8769282.000	-2.345980e-001	-9.735719e-001
8775276.000	-2.352716e-001	-9.735011e-001
8781270.000	-2.359381e-001	-9.732821e-001
8787264.000	-2.365404e-001	-9.731210e-001
8793258.000	-2.372021e-001	-9.729554e-001
8799252.000	-2.378672e-001	-9.727509e-001
8805246.000	-2.384959e-001	-9.725341e-001
8811240.000	-2.391408e-001	-9.724297e-001
8817234.000	-2.397385e-001	-9.723695e-001
8823228.000	-2.403471e-001	-9.721147e-001
8829222.000	-2.410264e-001	-9.719652e-001
8835216.000	-2.416673e-001	-9.718278e-001
8841210.000	-2.423776e-001	-9.716679e-001
8847204.000	-2.429676e-001	-9.714620e-001
8853198.000	-2.435294e-001	-9.713586e-001
8859192.000	-2.442771e-001	-9.712219e-001
8865186.000	-2.448365e-001	-9.710622e-001
8871180.000	-2.455176e-001	-9.708741e-001
8877174.000	-2.461583e-001	-9.707106e-001
8883168.000	-2.468006e-001	-9.706022e-001
8889162.000	-2.474092e-001	-9.703657e-001
8895156.000	-2.480503e-001	-9.702559e-001
8901150.000	-2.486594e-001	-9.701186e-001
8907144.000	-2.492977e-001	-9.699610e-001
8913138.000	-2.500100e-001	-9.697632e-001
8919132.000	-2.505707e-001	-9.696182e-001
8925126.000	-2.511962e-001	-9.693756e-001
8931120.000	-2.518370e-001	-9.692817e-001
8937114.000	-2.524746e-001	-9.691339e-001
8943108.000	-2.531408e-001	-9.689640e-001
8949102.000	-2.537844e-001	-9.687610e-001
8955096.000	-2.543389e-001	-9.686295e-001
8961090.000	-2.549775e-001	-9.684409e-001
8967084.000	-2.556231e-001	-9.683059e-001
8973078.000	-2.562803e-001	-9.681624e-001
8979072.000	-2.568755e-001	-9.679641e-001
8985066.000	-2.574974e-001	-9.678392e-001
8991060.000	-2.581709e-001	-9.677111e-001
8997054.000	-2.587473e-001	-9.674565e-001
9003048.000	-2.593407e-001	-9.673571e-001
9009042.000	-2.600090e-001	-9.671946e-001
9015036.000	-2.606401e-001	-9.669617e-001
9021030.000	-2.612264e-001	-9.667663e-001
9027024.000	-2.618974e-001	-9.665984e-001
9033018.000	-2.625059e-001	-9.664455e-001
9039012.000	-2.631080e-001	-9.663418e-001
9045006.000	-2.637229e-001	-9.661413e-001
9051000.000	-2.643203e-001	-9.659983e-001
9056994.000	-2.649349e-001	-9.657627e-001
9062988.000	-2.655703e-001	-9.656287e-001
9068982.000	-2.661616e-001	-9.654530e-001
9074976.000	-2.667702e-001	-9.653193e-001
9080970.000	-2.674225e-001	-9.651785e-001
9086964.000	-2.680048e-001	-9.649944e-001
9092958.000	-2.686588e-001	-9.648131e-001
9098952.000	-2.692515e-001	-9.646587e-001
9104946.000	-2.698691e-001	-9.644656e-001
9110940.000	-2.704798e-001	-9.642725e-001
9116934.000	-2.710835e-001	-9.640838e-001
9122928.000	-2.717242e-001	-9.639275e-001
9128922.000	-2.723586e-001	-9.637742e-001
9134916.000	-2.729464e-001	-9.635532e-001
9140910.000	-2.734503e-001	-9.633955e-001
9146904.000	-2.741518e-001	-9.632488e-001
9152898.000	-2.747257e-001	-9.630388e-001
9158892.000	-2.753255e-001	-9.628923e-001
9164886.000	-2.759276e-001	-9.627170e-001
9170880.000	-2.765891e-001	-9.625679e-001
9176874.000	-2.771724e-001	-9.624190e-001
9182868.000	-2.777582e-001	-9.622615e-001
9188862.000	-2.784151e-001	-9.620437e-001
9194856.000	-2.789475e-001	-9.618816e-001
9200850.000	-2.795833e-001	-9.617203e-001
9206844.000	-2.801931e-001	-9.614926e-001
9212838.000	-2.808179e-001	-9.612965e-001
9218832.000	-2.813719e-001	-9.611608e-001
9224826.000	-2.820280e-001	-9.609814e-001
9230820.000	-2.825698e-001	-9.607886e-001
9236814.000	-2.831753e-001	-9.606573e-001
9242808.000	-2.837478e-001	-9.604250e-001
9248802.000	-2.843959e-001	-9.603088e-001
9254796.000	-2.850181e-001	-9.601467e-001
9260790.000	-2.855158e-001	-9.598865e-001
9266784.000	-2.861287e-001	-9.597665e-001
9272778.000	-2.867445e-001	-9.595982e-001
9278772.000	-2.873549e-001	-9.594128e-001
9284766.000	-2.879247e-001	-9.592169e-001
9290760.000	-2.886045e-001	-9.590710e-001
9296754.000	-2.891858e-001	-9.589167e-001
9302748.000	-2.897841e-001	-9.586810e-001
9308742.000	-2.903179e-001	-9.584843e-001
9314736.000	-2.909504e-001	-9.583522e-001
9320730.000	-2.915116e-001	-9.581434e-001
9326724.000	-2.921120e-001	-9.579638e-001
9332718.000	-2.926950e-001	-9.578384e-001
9338712.000	-2.932856e-001	-9.576199e-001
9344706.000	-2.938423e-001	-9.574248e-001
9350700.000	-2.944475e-001	-9.572511e-001
9356694.000	-2.949839e-001	-9.570737e-001
9362688.000	-2.955685e-001	-9.568664e-001
9368682.000	-2.961610e-001	-9.566964e-001
9374676.000	-2.968125e-001	-9.565287e-001
9380670.000	-2.973733e-001	-9.563172e-001
9386664.000	-2.979860e-001	-9.561773e-001
9392658.000	-2.985300e-001	-9.560169e-001
9398652.000	-2.990797e-001	-9.558646e-001
9404646.000	-2.997110e-001	-9.556120e-001
9410640.000	-3.003090e-001	-9.555010e-001
9416634.000	-3.008680e-001	-9.552399e-001
9422628.000	-3.014267e-001	-9.550792e-001
9428622.000	-3.020493e-001	-9.548985e-001
9434616.000	-3.025702e-001	-9.547683e-001
9440610.000	-3.031539e-001	-9.545767e-001
9446604.000	-3.037806e-001	-9.543648e-001
9452598.000	-3.043264e-001	-9.542034e-001
9458592.000	-3.049090e-001	-9.540721e-001
9464586.000	-3.054786e-001	-9.538112e-001
9470580.000	-3.060679e-001	-9.537492e-001
9476574.000	-3.066242e-001	-9.534751e-001
9482568.000	-3.072031e-001	-9.532179e-001
9488562.000	-3.077587e-001	-9.530567e-001
9494556.000	-3.083497e-001	-9.528472e-001
9500550.000	-3.088988e-001	-9.526074e-001
9506544.000	-3.094722e-001	-9.524789e-001
9512538.000	-3.100936e-001	-9.523067e-001
9518532.000	-3.106395e-001	-9.521046e-001
9524526.000	-3.112248e-001	-9.519520e-001
9530520.000	-3.118104e-001	-9.517242e-001
9536514.000	-3.123790e-001	-9.515614e-001
9542508.000	-3.129253e-001	-9.513843e-001
9548502.000	-3.134833e-001	-9.511747e-001
9554496.000	-3.140416e-001	-9.510475e-001
9560490.000	-3.145972e-001	-9.508146e-001
9566484.000	-3.151465e-001	-9.506013e-001
9572478.000	-3.157615e-001	-9.504819e-001
9578472.000	-3.163235e-001	-9.502101e-001
9584466.000	-3.169164e-001	-9.500669e-001
9590460.000	-3.174463e-001	-9.498559e-001
9596454.000	-3.179698e-001	-9.496527e-001
9602448.000	-3.185958e-001	-9.495101e-001
9608442.000	-3.190805e-001	-9.492423e-001
9614436.000	-3.196767e-001	-9.491079e-001
9620430.000	-3.202385e-001	-9.489386e-001
9626424.000	-3.208316e-001	-9.487472e-001
9632418.000	-3.213667e-001	-9.485599e-001
9638412.000	-3.219259e-001	-9.483793e-001
9644406.000	-3.224927e-001	-9.481883e-001
9650400.000	-3.230575e-001	-9.479910e-001
9656394.000	-3.236144e-001	-9.478219e-001
9662388.000	-3.241385e-001	-9.476101e-001
9668382.000	-3.247177e-001	-9.474100e-001
9674376.000	-3.252613e-001	-9.472194e-001
9680370.000	-3.258802e-001	-9.470570e-001
9686364.000	-3.263911e-001	-9.468539e-001
9692358.000	-3.269420e-001	-9.466412e-001
9698352.000	-3.275362e-001	-9.464757e-001
9704346.000	-3.280199e-001	-9.463287e-001
9710340.000	-3.285806e-001	-9.460774e-001
9716334.000	-3.291318e-001	-9.459358e-001
9722328.000	-3.296837e-001	-9.456885e-001
9728322.000	-3.302600e-001	-9.455005e-001
9734316.000	-3.307934e-001	-9.453380e-001
9740310.000	-3.313019e-001	-9.451315e-001
9746304.000	-3.318937e-001	-9.449606e-001
9752298.000	-3.324796e-001	-9.447311e-001
9758292.000	-3.329615e-001	-9.444986e-001
9764286.000	-3.335351e-001	-9.443626e-001
9770280.000	-3.340784e-001	-9.441658e-001
9776274.000	-3.346140e-001	-9.439569e-001
9782268.000	-3.351588e-001	-9.437335e-001
9788262.000	-3.357047e-001	-9.436330e-001
9794256.000	-3.362966e-001	-9.433399e-001
9800250.000	-3.367928e-001	-9.431929e-001
9806244.000	-3.373480e-001	-9.429688e-001
9812238.000	-3.379087e-001	-9.428027e-001
9818232.000	-3.384159e-001	-9.425848e-001
9824226.000	-3.389689e-001	-9.423804e-001
9830220.000	-3.394884e-001	-9.422262e-001
9836214.000	-3.400500e-001	-9.420360e-001
9842208.000	-3.405980e-001	-9.418220e-001
9848202.000	-3.411616e-001	-9.416676e-001
9854196.000	-3.416620e-001	-9.414289e-001
9860190.000	-3.422247e-001	-9.411991e-001
9866184.000	-3.427220e-001	-9.410030e-001
9872178.000	-3.432977e-001	-9.408250e-001
9878172.000	-3.438113e-001	-9.406343e-001
9884166.000	-3.444027e-001	-9.404522e-001
9890160.000	-3.449342e-001	-9.402647e-001
9896154.000	-3.454869e-001	-9.400983e-001
9902148.000	-3.460241e-001	-9.398774e-001
9908142.000	-3.465221e-001	-9.396831e-001
9914136.000	-3.470301e-001	-9.394739e-001
9920130.000	-3.475848e-001	-9.393084e-001
9926124.000	-3.481043e-001	-9.390953e-001
9932118.000	-3.486336e-001	-9.389011e-001
9938112.000	-3.492140e-001	-9.387269e-001
9944106.000	-3.497610e-001	-9.385261e-001
9950100.000	-3.502743e-001	-9.383320e-001
9956094.000	-3.507987e-001	-9.380934e-001
9962088.000	-3.512754e-001	-9.379430e-001
9968082.000	-3.518767e-001	-9.377479e-001
9974076.000	-3.523750e-001	-9.375473e-001
9980070.000	-3.528682e-001	-9.373307e-001
9986064.000	-3.534355e-001	-9.371541e-001
9992058.000	-3.539839e-001	-9.369558e-001
9998052.000	-3.545037e-001	-9.367472e-001
10004046.000	-3.550540e-001	-9.365620e-001
10010040.000	-3.555118e-001	-9.363132e-001
10016034.000	-3.559988e-001	-9.361288e-001
10022028.000	-3.566101e-001	-9.359348e-001
10028022.000	-3.570370e-001	-9.357382e-001
10034016.000	-3.575905e-001	-9.355226e-001
10040010.000	-3.580740e-001	-9.353284e-001
10046004.000	-3.586591e-001	-9.351450e-001
10051998.000	-3.591463e-001	-9.349265e-001
10057992.000	-3.596936e-001	-9.347383e-001
10063986.000	-3.602563e-001	-9.345674e-001
10069980.000	-3.607382e-001	-9.343444e-001
10075974.000	-3.612472e-001	-9.341830e-001
10081968.000	-3.617709e-001	-9.339032e-001
10087962.000	-3.623062e-001	-9.337097e-001
10093956.000	-3.628076e-001	-9.335295e-001
10099950.000	-3.633477e-001	-9.333051e-001
10105944.000	-3.638101e-001	-9.330745e-001
10111938.000	-3.643098e-001	-9.329174e-001
10117932.000	-3.648402e-001	-9.326917e-001
10123926.000	-3.653881e-001	-9.325490e-001
10129920.000	-3.659052e-001	-9.323239e-001
10135914.000	-3.664005e-001	-9.320928e-001
10141908.000	-3.669451e-001	-9.318971e-001
10147902.000	-3.674037e-001	-9.317236e-001
10153896.000	-3.679322e-001	-9.314816e-001
10159890.000	-3.684613e-001	-9.313048e-001
10165884.000	-3.689833e-001	-9.310997e-001
10171878.000	-3.694505e-001	-9.309632e-001
10177872.000	-3.699517e-001	-9.306924e-001
10183866.000	-3.705167e-001	-9.305131e-001
10189860.000	-3.710161e-001	-9.303958e-001
10195854.000	-3.715239e-001	-9.301452e-001
10201848.000	-3.720576e-001	-9.298753e-001
10207842.000	-3.725378e-001	-9.296614e-001
10213836.000	-3.730372e-001	-9.295008e-001
10219830.000	-3.735152e-001	-9.293119e-001
10225824.000	-3.740620e-001	-9.291346e-001
10231818.000	-3.745617e-001	-9.288890e-001
10237812.000	-3.750315e-001	-9.287154e-001
10243806.000	-3.755667e-001	-9.285049e-001
10249800.000	-3.760469e-001	-9.283166e-001
10255794.000	-3.766295e-001	-9.282640e-001
10261788.000	-3.771321e-001	-9.279814e-001
10267782.000	-3.776413e-001	-9.278145e-001
10273776.000	-3.781061e-001	-9.275956e-001
10279770.000	-3.786318e-001	-9.273961e-001
10285764.000	-3.791537e-001	-9.271989e-001
10291758.000	-3.796430e-001	-9.269994e-001
10297752.000	-3.801348e-001	-9.267986e-001
10303746.000	-3.806131e-001	-9.265578e-001
10309740.000	-3.811201e-001	-9.263663e-001
10315734.000	-3.816559e-001	-9.261890e-001
10321728.000	-3.821214e-001	-9.259685e-001
10327722.000	-3.826523e-001	-9.257950e-001
10333716.000	-3.831786e-001	-9.256179e-001
10339710.000	-3.835986e-001	-9.253982e-001
10345704.000	-3.841021e-001	-9.252156e-001
10351698.000	-3.846169e-001	-9.249231e-001
10357692.000	-3.851006e-001	-9.247322e-001
10363686.000	-3.855336e-001	-9.245147e-001
10369680.000	-3.860978e-001	-9.242937e-001
10375674.000	-3.865673e-001	-9.241502e-001
10381668.000	-3.870695e-001	-9.239299e-001
10387662.000	-3.875810e-001	-9.237227e-001
10393656.000	-3.880748e-001	-9.235185e-001
10399650.000	-3.885633e-001	-9.232994e-001
10405644.000	-3.890424e-001	-9.230964e-001
10411638.000	-3.895491e-001	-9.229141e-001
10417632.000	-3.900319e-001	-9.226407e-001
10423626.000	-3.904982e-001	-9.224706e-001
10429620.000	-3.910191e-001	-9.222698e-001
10435614.000	-3.914797e-001	-9.220289e-001
10441608.000	-3.919971e-001	-9.218579e-001
10447602.000	-3.924672e-001	-9.216028e-001
10453596.000	-3.929701e-001	-9.214188e-001
10459590.000	-3.934615e-001	-9.212482e-001
10465584.000	-3.938694e-001	-9.210477e-001
10471578.000	-3.943973e-001	-9.208352e-001
10477572.000	-3.948441e-001	-9.205456e-001
10483566.000	-3.953377e-001	-9.203924e-001
10489560.000	-3.958550e-001	-9.201560e-001
10495554.000	-3.963308e-001	-9.199648e-001
10501548.000	-3.968135e-001	-9.197515e-001
10507542.000	-3.972868e-001	-9.195679e-001
10513536.000	-3.978164e-001	-9.193788e-001
10519530.000	-3.982812e-001	-9.191614e-001
10525524.000	-3.987702e-001	-9.189042e-001
10531518.000	-3.992284e-001	-9.187304e-001
10537512.000	-3.997037e-001	-9.185344e-001
10543506.000	-4.002175e-001	-9.182842e-001
10549500.000	-4.006515e-001	-9.180850e-001
10555494.000	-4.011032e-001	-9.178619e-001
10561488.000	-4.016134e-001	-9.176477e-001
10567482.000	-4.020519e-001	-9.174147e-001
10573476.000	-4.025590e-001	-9.172580e-001
10579470.000	-4.030279e-001	-9.170423e-001
10585464.000	-4.035481e-001	-9.168299e-001
10591458.000	-4.040033e-001	-9.166770e-001
10597452.000	-4.044924e-001	-9.164164e-001
10603446.000	-4.049634e-001	-9.162399e-001
10609440.000	-4.054269e-001	-9.160219e-001
10615434.000	-4.059004e-001	-9.157962e-001
10621428.000	-4.063802e-001	-9.155376e-001
10627422.000	-4.068266e-001	-9.153726e-001
10633416.000	-4.073322e-001	-9.151233e-001
10639410.000	-4.077988e-001	-9.148950e-001
10645404.000	-4.082336e-001	-9.147536e-001
10651398.000	-4.087373e-001	-9.145216e-001
10657392.000	-4.091914e-001	-9.143518e-001
10663386.000	-4.096930e-001	-9.140510e-001
10669380.000	-4.101350e-001	-9.139378e-001
10675374.000	-4.106347e-001	-9.136666e-001
10681368.000	-4.110648e-001	-9.134243e-001
10687362.000	-4.115359e-001	-9.133005e-001
10693356.000	-4.120151e-001	-9.130617e-001
10699350.000	-4.125287e-001	-9.128581e-001
10705344.000	-4.130110e-001	-9.126866e-001
10711338.000	-4.134068e-001	-9.124362e-001
10717332.000	-4.138799e-001	-9.122721e-001
10723326.000	-4.143387e-001	-9.120228e-001
10729320.000	-4.148416e-001	-9.118137e-001
10735314.000	-4.152952e-001	-9.116476e-001
10741308.000	-4.157317e-001	-9.113708e-001
10747302.000	-4.161556e-001	-9.111218e-001
10753296.000	-4.166587e-001	-9.108764e-001
10759290.000	-4.171461e-001	-9.107170e-001
10765284.000	-4.176125e-001	-9.105107e-001
10771278.000	-4.180068e-001	-9.103620e-001
10777272.000	-4.185196e-001	-9.100874e-001
10783266.000	-4.189667e-001	-9.099104e-001
10789260.000	-4.194047e-001	-9.096531e-001
10795254.000	-4.198550e-001	-9.094812e-001
10801248.000	-4.204040e-001	-9.092770e-001
10807242.000	-4.208170e-001	-9.090727e-001
10813236.000	-4.212735e-001	-9.088150e-001
10819230.000	-4.217177e-001	-9.086136e-001
10825224.000	-4.222126e-001	-9.084856e-001
10831218.000	-4.226503e-001	-9.081761e-001
10837212.000	-4.231088e-001	-9.080015e-001
10843206.000	-4.235301e-001	-9.078008e-001
10849200.000	-4.239454e-001	-9.075729e-001
10855194.000	-4.244481e-001	-9.073623e-001
10861188.000	-4.248778e-001	-9.071161e-001
10867182.000	-4.253776e-001	-9.068960e-001
10873176.000	-4.258053e-001	-9.067369e-001
10879170.000	-4.263132e-001	-9.065351e-001
10885164.000	-4.267473e-001	-9.063330e-001
10891158.000	-4.271749e-001	-9.060488e-001
10897152.000	-4.276219e-001	-9.058757e-001
10903146.000	-4.280813e-001	-9.056470e-001
10909140.000	-4.285215e-001	-9.054531e-001
10915134.000	-4.290054e-001	-9.053057e-001
10921128.000	-4.294050e-001	-9.049819e-001
10927122.000	-4.298972e-001	-9.047834e-001
10933116.000	-4.303175e-001	-9.046284e-001
10939110.000	-4.307797e-001	-9.043579e-001
10945104.000	-4.312247e-001	-9.041197e-001
10951098.000	-4.316959e-001	-9.039342e-001
10957092.000	-4.321048e-001	-9.037716e-001
10963086.000	-4.326067e-001	-9.034937e-001
10969080.000	-4.330206e-001	-9.033069e-001
10975074.000	-4.334660e-001	-9.030756e-001
10981068.000	-4.338901e-001	-9.028278e-001
10987062.000	-4.343480e-001	-9.026913e-001
10993056.000	-4.347666e-001	-9.024097e-001
10999050.000	-4.352386e-001	-9.022330e-001
11005044.000	-4.356791e-001	-9.020901e-001
11011038.000	-4.361163e-001	-9.017977e-001
11017032.000	-4.365554e-001	-9.015859e-001
11023026.000	-4.370014e-001	-9.013586e-001
11029020.000	-4.373868e-001	-9.011398e-001
11035014.000	-4.378320e-001	-9.009395e-001
11041008.000	-4.383299e-001	-9.007174e-001
11047002.000	-4.387784e-001	-9.005328e-001
11052996.000	-4.392130e-001	-9.002782e-001
11058990.000	-4.396626e-001	-9.000693e-001
11064984.000	-4.401023e-001	-8.998907e-001
11070978.000	-4.405621e-001	-8.996727e-001
11076972.000	-4.409541e-001	-8.994658e-001
11082966.000	-4.414340e-001	-8.993102e-001
11088960.000	-4.418208e-001	-8.990152e-001
11094954.000	-4.422947e-001	-8.988013e-001
11100948.000	-4.426693e-001	-8.985300e-001
11106942.000	-4.431068e-001	-8.983142e-001
11112936.000	-4.435717e-001	-8.981262e-001
11118930.000	-4.439690e-001	-8.979447e-001
11124924.000	-4.444255e-001	-8.976882e-001
11130918.000	-4.448942e-001	-8.974848e-001
11136912.000	-4.453086e-001	-8.972579e-001
11142906.000	-4.457284e-001	-8.971092e-001
11148900.000	-4.462022e-001	-8.968702e-001
11154894.000	-4.466357e-001	-8.966543e-001
11160888.000	-4.470291e-001	-8.964132e-001
11166882.000	-4.474599e-001	-8.962320e-001
11172876.000	-4.478938e-001	-8.960108e-001
11178870.000	-4.483112e-001	-8.957769e-001
11184864.000	-4.487600e-001	-8.955938e-001
11190858.000	-4.491785e-001	-8.953710e-001
11196852.000	-4.495991e-001	-8.951233e-001
11202846.000	-4.500514e-001	-8.949187e-001
11208840.000	-4.504388e-001	-8.947039e-001
11214834.000	-4.508863e-001	-8.945368e-001
11220828.000	-4.512944e-001	-8.942940e-001
11226822.000	-4.517293e-001	-8.940439e-001
11232816.000	-4.521610e-001	-8.938410e-001
11238810.000	-4.525671e-001	-8.936346e-001
11244804.000	-4.530490e-001	-8.934161e-001
11250798.000	-4.534405e-001	-8.931888e-001
11256792.000	-4.538938e-001	-8.929534e-001
11262786.000	-4.542934e-001	-8.927048e-001
11268780.000	-4.546987e-001	-8.925343e-001
11274774.000	-4.551771e-001	-8.923300e-001
11280768.000	-4.555575e-001	-8.920860e-001
11286762.000	-4.559767e-001	-8.918906e-001
11292756.000	-4.564345e-001	-8.916982e-001
11298750.000	-4.568116e-001	-8.914079e-001
11304744.000	-4.572606e-001	-8.912128e-001
11310738.000	-4.576856e-001	-8.910556e-001
11316732.000	-4.581353e-001	-8.908787e-001
11322726.000	-4.585336e-001	-8.906423e-001
11328720.000	-4.589492e-001	-8.904062e-001
11334714.000	-4.593517e-001	-8.901780e-001
11340708.000	-4.597335e-001	-8.899185e-001
11346702.000	-4.602132e-001	-8.897277e-001
11352696.000	-4.606440e-001	-8.895111e-001
11358690.000	-4.610323e-001	-8.892364e-001
11364684.000	-4.614475e-001	-8.890493e-001
11370678.000	-4.618416e-001	-8.888761e-001
11376672.000	-4.622796e-001	-8.886098e-001
11382666.000	-4.627171e-001	-8.884487e-001
11388660.000	-4.631053e-001	-8.882440e-001
11394654.000	-4.635710e-001	-8.880170e-001
11400648.000	-4.639722e-001	-8.877920e-001
11406642.000	-4.644114e-001	-8.876209e-001
11412636.000	-4.647886e-001	-8.873564e-001
11418630.000	-4.651518e-001	-8.871332e-001
11424624.000	-4.655385e-001	-8.868993e-001
11430618.000	-4.660154e-001	-8.867453e-001
11436612.000	-4.664088e-001	-8.865156e-001
11442606.000	-4.668536e-001	-8.863094e-001
11448600.000	-4.672333e-001	-8.860781e-001
11454594.000	-4.676661e-001	-8.858452e-001
11460588.000	-4.680616e-001	-8.856750e-001
11466582.000	-4.684831e-001	-8.854938e-001
11472576.000	-4.689249e-001	-8.852435e-001
11478570.000	-4.692600e-001	-8.849952e-001
11484564.000	-4.696669e-001	-8.848205e-001
11490558.000	-4.700988e-001	-8.846095e-001
11496552.000	-4.705237e-001	-8.843666e-001
11502546.000	-4.709001e-001	-8.840995e-001
11508540.000	-4.713263e-001	-8.838780e-001
11514534.000	-4.717384e-001	-8.836490e-001
11520528.000	-4.721917e-001	-8.834636e-001
11526522.000	-4.725686e-001	-8.832239e-001
11532516.000	-4.729747e-001	-8.830415e-001
11538510.000	-4.733789e-001	-8.828036e-001
11544504.000	-4.737545e-001	-8.826031e-001
11550498.000	-4.741899e-001	-8.823421e-001
11556492.000	-4.745732e-001	-8.821978e-001
11562486.000	-4.750068e-001	-8.819178e-001
11568480.000	-4.753984e-001	-8.817494e-001
11574474.000	-4.757893e-001	-8.815143e-001
11580468.000	-4.761865e-001	-8.813331e-001
11586462.000	-4.765623e-001	-8.810937e-001
11592456.000	-4.769743e-001	-8.808630e-001
11598450.000	-4.773742e-001	-8.806558e-001
11604444.000	-4.777811e-001	-8.804392e-001
11610438.000	-4.782085e-001	-8.802617e-001
11616432.000	-4.786351e-001	-8.799815e-001
11622426.000	-4.789848e-001	-8.798158e-001
11628420.000	-4.794423e-001	-8.795536e-001
11634414.000	-4.797773e-001	-8.793011e-001
11640408.000	-4.801687e-001	-8.790772e-001
11646402.000	-4.805272e-001	-8.789072e-001
11652396.000	-4.809836e-001	-8.786441e-001
11658390.000	-4.813513e-001	-8.784867e-001
11664384.000	-4.817554e-001	-8.782033e-001
11670378.000	-4.821737e-001	-8.780493e-001
11676372.000	-4.825120e-001	-8.777932e-001
11682366.000	-4.829472e-001	-8.776134e-001
11688360.000	-4.833139e-001	-8.773626e-001
11694354.000	-4.836864e-001	-8.771602e-001
11700348.000	-4.841262e-001	-8.769319e-001
11706342.000	-4.845066e-001	-8.767070e-001
11712336.000	-4.848894e-001	-8.765070e-001
11718330.000	-4.852659e-001	-8.762491e-001
11724324.000	-4.856900e-001	-8.760410e-001
11730318.000	-4.860969e-001	-8.758584e-001
11736312.000	-4.864951e-001	-8.756797e-001
11742306.000	-4.869042e-001	-8.754117e-001
11748300.000	-4.872955e-001	-8.751772e-001
11754294.000	-4.876294e-001	-8.749784e-001
11760288.000	-4.880175e-001	-8.748011e-001
11766282.000	-4.884377e-001	-8.745519e-001
11772276.000	-4.887988e-001	-8.742991e-001
11778270.000	-4.892395e-001	-8.741443e-001
11784264.000	-4.896035e-001	-8.739316e-001
11790258.000	-4.900084e-001	-8.736819e-001
11796252.000	-4.903835e-001	-8.734835e-001
11802246.000	-4.907820e-001	-8.732541e-001
11808240.000	-4.911320e-001	-8.730382e-001
11814234.000	-4.915360e-001	-8.728435e-001
11820228.000	-4.919424e-001	-8.725850e-001
11826222.000	-4.922851e-001	-8.723409e-001
11832216.000	-4.926557e-001	-8.721536e-001
11838210.000	-4.930792e-001	-8.719970e-001
11844204.000	-4.934660e-001	-8.717084e-001
11850198.000	-4.938183e-001	-8.714856e-001
11856192.000	-4.942493e-001	-8.712897e-001
11862186.000	-4.946206e-001	-8.710519e-001
11868180.000	-4.950053e-001	-8.708273e-001
11874174.000	-4.953690e-001	-8.706252e-001
11880168.000	-4.957132e-001	-8.704330e-001
11886162.000	-4.960984e-001	-8.701746e-001
11892156.000	-4.965142e-001	-8.699767e-001
11898150.000	-4.969005e-001	-8.697616e-001
11904144.000	-4.972996e-001	-8.695102e-001
11910138.000	-4.976533e-001	-8.692686e-001
11916132.000	-4.980525e-001	-8.690733e-001
11922126.000	-4.983781e-001	-8.688336e-001
11928120.000	-4.987785e-001	-8.686607e-001
11934114.000	-4.992159e-001	-8.684251e-001
11940108.000	-4.995924e-001	-8.682271e-001
11946102.000	-4.999384e-001	-8.680498e-001
11952096.000	-5.002996e-001	-8.678180e-001
11958090.000	-5.006942e-001	-8.676418e-001
11964084.000	-5.010530e-001	-8.673827e-001
11970078.000	-5.014549e-001	-8.671256e-001
11976072.000	-5.018366e-001	-8.669539e-001
11982066.000	-5.021947e-001	-8.667051e-001
11988060.000	-5.025739e-001	-8.665320e-001
11994054.000	-5.029617e-001	-8.662652e-001
12000048.000	-5.033311e-001	-8.660927e-001
12006042.000	-5.036412e-001	-8.658254e-001
12012036.000	-5.040435e-001	-8.656399e-001
12018030.000	-5.044591e-001	-8.653829e-001
12024024.000	-5.048420e-001	-8.652264e-001
12030018.000	-5.052080e-001	-8.650158e-001
12036012.000	-5.055659e-001	-8.647503e-001
12042006.000	-5.058995e-001	-8.645516e-001
12048000.000	-5.063073e-001	-8.643791e-001
12053994.000	-5.067064e-001	-8.641106e-001
12059988.000	-5.070400e-001	-8.638968e-001
12065982.000	-5.073881e-001	-8.636903e-001
12071976.000	-5.077881e-001	-8.634596e-001
12077970.000	-5.081331e-001	-8.631988e-001
12083964.000	-5.085291e-001	-8.630276e-001
12089958.000	-5.089018e-001	-8.628454e-001
12095952.000	-5.092207e-001	-8.625892e-001
12101946.000	-5.096502e-001	-8.623425e-001
12107940.000	-5.099737e-001	-8.621673e-001
12113934.000	-5.103984e-001	-8.619790e-001
12119928.000	-5.107617e-001	-8.617435e-001
12125922.000	-5.110785e-001	-8.614940e-001
12131916.000	-5.114991e-001	-8.613101e-001
12137910.000	-5.118350e-001	-8.610842e-001
12143904.000	-5.122043e-001	-8.608557e-001
12149898.000	-5.126072e-001	-8.606618e-001
12155892.000	-5.129904e-001	-8.604705e-001
12161886.000	-5.132692e-001	-8.601675e-001
12167880.000	-5.136812e-001	-8.599577e-001
12173874.000	-5.139931e-001	-8.597901e-001
12179868.000	-5.143911e-001	-8.595605e-001
12185862.000	-5.147572e-001	-8.593287e-001
12191856.000	-5.150883e-001	-8.591147e-001
12197850.000	-5.154930e-001	-8.589588e-001
12203844.000	-5.159043e-001	-8.586607e-001
12209838.000	-5.162159e-001	-8.584780e-001
12215832.000	-5.165512e-001	-8.582239e-001
12221826.000	-5.169337e-001	-8.580493e-001
12227820.000	-5.172676e-001	-8.578046e-001
12233814.000	-5.176423e-001	-8.575810e-001
12239808.000	-5.180117e-001	-8.573844e-001
12245802.000	-5.183538e-001	-8.571570e-001
12251796.000	-5.187545e-001	-8.569135e-001
12257790.000	-5.190610e-001	-8.567581e-001
12263784.000	-5.193959e-001	-8.565410e-001
12269778.000	-5.198168e-001	-8.562739e-001
12275772.000	-5.201555e-001	-8.560911e-001
12281766.000	-5.205243e-001	-8.559119e-001
12287760.000	-5.208606e-001	-8.556349e-001
12293754.000	-5.212717e-001	-8.554843e-001
12299748.000	-5.215638e-001	-8.552132e-001
12305742.000	-5.219258e-001	-8.550354e-001
12311736.000	-5.222955e-001	-8.547782e-001
12317730.000	-5.226947e-001	-8.545990e-001
12323724.000	-5.230404e-001	-8.543331e-001
12329718.000	-5.233867e-001	-8.541666e-001
12335712.000	-5.237167e-001	-8.539637e-001
12341706.000	-5.240731e-001	-8.537019e-001
12347700.000	-5.244736e-001	-8.534893e-001
12353694.000	-5.248423e-001	-8.532575e-001
12359688.000	-5.251534e-001	-8.530297e-001
12365682.000	-5.254800e-001	-8.528452e-001
12371676.000	-5.258255e-001	-8.525522e-001
12377670.000	-5.261872e-001	-8.523790e-001
12383664.000	-5.265480e-001	-8.521582e-001
12389658.000	-5.269057e-001	-8.519351e-001
12395652.000	-5.273301e-001	-8.517542e-001
12401646.000	-5.275672e-001	-8.514934e-001
12407640.000	-5.279562e-001	-8.512968e-001
12413634.000	-5.283110e-001	-8.511019e-001
12419628.000	-5.285961e-001	-8.508936e-001
12425622.000	-5.289712e-001	-8.506828e-001
12431616.000	-5.293297e-001	-8.504420e-001
12437610.000	-5.296865e-001	-8.501926e-001
12443604.000	-5.300201e-001	-8.500400e-001
12449598.000	-5.303747e-001	-8.497634e-001
12455592.000	-5.307141e-001	-8.495258e-001
12461586.000	-5.310389e-001	-8.493803e-001
12467580.000	-5.314216e-001	-8.491172e-001
12473574.000	-5.317211e-001	-8.489000e-001
12479568.000	-5.320867e-001	-8.486636e-001
12485562.000	-5.324099e-001	-8.484449e-001
12491556.000	-5.327960e-001	-8.482276e-001
12497550.000	-5.331736e-001	-8.480547e-001
12503544.000	-5.335051e-001	-8.478166e-001
12509538.000	-5.338463e-001	-8.476617e-001
12515532.000	-5.341180e-001	-8.474020e-001
12521526.000	-5.345311e-001	-8.472061e-001
12527520.000	-5.348663e-001	-8.469678e-001
12533514.000	-5.352063e-001	-8.467537e-001
12539508.000	-5.355536e-001	-8.465438e-001
12545502.000	-5.358629e-001	-8.462897e-001
12551496.000	-5.361974e-001	-8.460532e-001
12557490.000	-5.365176e-001	-8.458825e-001
12563484.000	-5.369066e-001	-8.456546e-001
12569478.000	-5.372361e-001	-8.454535e-001
12575472.000	-5.375875e-001	-8.452289e-001
12581466.000	-5.379178e-001	-8.450294e-001
12587460.000	-5.382347e-001	-8.447864e-001
12593454.000	-5.385875e-001	-8.445266e-001
12599448.000	-5.389206e-001	-8.443205e-001
12605442.000	-5.392632e-001	-8.441450e-001
12611436.000	-5.396239e-001	-8.439227e-001
12617430.000	-5.399233e-001	-8.436935e-001
12623424.000	-5.402622e-001	-8.434674e-001
12629418.000	-5.406457e-001	-8.432766e-001
12635412.000	-5.409999e-001	-8.430854e-001
12641406.000	-5.413186e-001	-8.428503e-001
12647400.000	-5.416187e-001	-8.426595e-001
12653394.000	-5.419725e-001	-8.424350e-001
12659388.000	-5.423075e-001	-8.422058e-001
12665382.000	-5.426662e-001	-8.420084e-001
12671376.000	-5.430081e-001	-8.417279e-001
12677370.000	-5.433229e-001	-8.414931e-001
12683364.000	-5.436669e-001	-8.412747e-001
12689358.000	-5.439503e-001	-8.411417e-001
12695352.000	-5.443028e-001	-8.408747e-001
12701346.000	-5.445932e-001	-8.407071e-001
12707340.000	-5.449569e-001	-8.404113e-001
12713334.000	-5.452779e-001	-8.402312e-001
12719328.000	-5.456623e-001	-8.399926e-001
12725322.000	-5.459616e-001	-8.397847e-001
12731316.000	-5.462761e-001	-8.396273e-001
12737310.000	-5.466159e-001	-8.393546e-001
12743304.000	-5.469434e-001	-8.391322e-001
12749298.000	-5.473464e-001	-8.389544e-001
12755292.000	-5.476291e-001	-8.387340e-001
12761286.000	-5.479708e-001	-8.385727e-001
12767280.000	-5.482737e-001	-8.383127e-001
12773274.000	-5.486000e-001	-8.381079e-001
12779268.000	-5.489346e-001	-8.378686e-001
12785262.000	-5.492721e-001	-8.376122e-001
12791256.000	-5.495880e-001	-8.374246e-001
12797250.000	-5.499252e-001	-8.372378e-001
12803244.000	-5.501792e-001	-8.370165e-001
12809238.000	-5.504956e-001	-8.367836e-001
12815232.000	-5.508100e-001	-8.365679e-001
12821226.000	-5.511385e-001	-8.363813e-001
12827220.000	-5.514890e-001	-8.361270e-001
12833214.000	-5.518552e-001	-8.359482e-001
12839208.000	-5.521405e-001	-8.357277e-001
12845202.000	-5.524410e-001	-8.354733e-001
12851196.000	-5.528039e-001	-8.352682e-001
12857190.000	-5.531093e-001	-8.350618e-001
12863184.000	-5.534435e-001	-8.348275e-001
12869178.000	-5.537482e-001	-8.345863e-001
12875172.000	-5.540702e-001	-8.343759e-001
12881166.000	-5.543762e-001	-8.342109e-001
12887160.000	-5.547766e-001	-8.339911e-001
12893154.000	-5.550748e-001	-8.337562e-001
12899148.000	-5.553590e-001	-8.335539e-001
12905142.000	-5.557381e-001	-8.333491e-001
12911136.000	-5.560793e-001	-8.331222e-001
12917130.000	-5.563525e-001	-8.328699e-001
12923124.000	-5.566607e-001	-8.326921e-001
12929118.000	-5.570388e-001	-8.324954e-001
12935112.000	-5.572718e-001	-8.322256e-001
12941106.000	-5.575916e-001	-8.320230e-001
12947100.000	-5.579417e-001	-8.318055e-001
12953094.000	-5.582608e-001	-8.315813e-001
12959088.000	-5.586309e-001	-8.313376e-001
12965082.000	-5.589331e-001	-8.311765e-001
12971076.000	-5.592009e-001	-8.309179e-001
12977070.000	-5.595238e-001	-8.307392e-001
12983064.000	-5.598613e-001	-8.305358e-001
12989058.000	-5.601193e-001	-8.302903e-001
12995052.000	-5.604799e-001	-8.300894e-001
13001046.000	-5.608084e-001	-8.298744e-001
13007040.000	-5.611435e-001	-8.296327e-001
13013034.000	-5.614360e-001	-8.294442e-001
13019028.000	-5.617288e-001	-8.292467e-001
13025022.000	-5.620621e-001	-8.289862e-001
13031016.000	-5.624368e-001	-8.288003e-001
13037010.000	-5.627078e-001	-8.285861e-001
13043004.000	-5.630484e-001	-8.283585e-001
13048998.000	-5.633851e-001	-8.281401e-001
13054992.000	-5.636762e-001	-8.279891e-001
13060986.000	-5.639888e-001	-8.277242e-001
13066980.000	-5.643090e-001	-8.275664e-001
13072974.000	-5.646398e-001	-8.273923e-001
13078968.000	-5.649197e-001	-8.271023e-001
13084962.000	-5.652721e-001	-8.268986e-001
13090956.000	-5.655875e-001	-8.266886e-001
13096950.000	-5.658753e-001	-8.264582e-001
13102944.000	-5.661541e-001	-8.262212e-001
13108938.000	-5.665000e-001	-8.260489e-001
13114932.000	-5.667773e-001	-8.257744e-001
13120926.000	-5.670921e-001	-8.256057e-001
13126920.000	-5.673689e-001	-8.253916e-001
13132914.000	-5.676960e-001	-8.251713e-001
13138908.000	-5.680458e-001	-8.249795e-001
13144902.000	-5.683366e-001	-8.247525e-001
13150896.000	-5.686520e-001	-8.245300e-001
13156890.000	-5.689403e-001	-8.243044e-001
13162884.000	-5.692494e-001	-8.241098e-001
13168878.000	-5.696089e-001	-8.239075e-001
13174872.000	-5.699004e-001	-8.237192e-001
13180866.000	-5.701560e-001	-8.234768e-001
13186860.000	-5.704941e-001	-8.232342e-001
13192854.000	-5.708050e-001	-8.230736e-001
13198848.000	-5.711595e-001	-8.228372e-001
13204842.000	-5.714291e-001	-8.226249e-001
13210836.000	-5.717258e-001	-8.224042e-001
13216830.000	-5.720362e-001	-8.222323e-001
13222824.000	-5.723914e-001	-8.220082e-001
13228818.000	-5.727082e-001	-8.217814e-001
13234812.000	-5.729763e-001	-8.216060e-001
13240806.000	-5.732639e-001	-8.213469e-001
13246800.000	-5.735988e-001	-8.211287e-001
13252794.000	-5.739149e-001	-8.209151e-001
13258788.000	-5.742026e-001	-8.207160e-001
13264782.000	-5.744978e-001	-8.204681e-001
13270776.000	-5.747548e-001	-8.202764e-001
13276770.000	-5.750970e-001	-8.200558e-001
13282764.000	-5.754367e-001	-8.198652e-001
13288758.000	-5.757008e-001	-8.196092e-001
13294752.000	-5.760043e-001	-8.194377e-001
13300746.000	-5.762839e-001	-8.192226e-001
13306740.000	-5.765985e-001	-8.190120e-001
13312734.000	-5.769293e-001	-8.188240e-001
13318728.000	-5.771903e-001	-8.186476e-001
13324722.000	-5.775674e-001	-8.183965e-001
13330716.000	-5.778384e-001	-8.181545e-001
13336710.000	-5.781236e-001	-8.179754e-001
13342704.000	-5.784239e-001	-8.177100e-001
13348698.000	-5.787451e-001	-8.175335e-001
13354692.000	-5.790344e-001	-8.172716e-001
13360686.000	-5.793029e-001	-8.170824e-001
13366680.000	-5.796433e-001	-8.169245e-001
13372674.000	-5.799214e-001	-8.166962e-001
13378668.000	-5.802048e-001	-8.164808e-001
13384662.000	-5.804622e-001	-8.162453e-001
13390656.000	-5.807885e-001	-8.160388e-001
13396650.000	-5.811034e-001	-8.158337e-001
13402644.000	-5.814029e-001	-8.155758e-001
13408638.000	-5.816960e-001	-8.153693e-001
13414632.000	-5.820381e-001	-8.151902e-001
13420626.000	-5.823170e-001	-8.149877e-001
13426620.000	-5.826054e-001	-8.147823e-001
13432614.000	-5.828779e-001	-8.145607e-001
13438608.000	-5.831833e-001	-8.143358e-001
13444602.000	-5.835212e-001	-8.141024e-001
13450596.000	-5.838118e-001	-8.139149e-001
13456590.000	-5.840949e-001	-8.137251e-001
13462584.000	-5.843377e-001	-8.134876e-001
13468578.000	-5.846545e-001	-8.132866e-001
13474572.000	-5.849542e-001	-8.130912e-001
13480566.000	-5.852198e-001	-8.128643e-001
13486560.000	-5.854910e-001	-8.126130e-001
13492554.000	-5.858163e-001	-8.124763e-001
13498548.000	-5.860701e-001	-8.122365e-001
13504542.000	-5.864148e-001	-8.120278e-001
13510536.000	-5.867117e-001	-8.118227e-001
13516530.000	-5.869989e-001	-8.115910e-001
13522524.000	-5.872651e-001	-8.114156e-001
13528518.000	-5.875638e-001	-8.111808e-001
13534512.000	-5.878275e-001	-8.109510e-001
13540506.000	-5.881397e-001	-8.107322e-001
13546500.000	-5.884377e-001	-8.104990e-001
13552494.000	-5.887455e-001	-8.102930e-001
13558488.000	-5.890439e-001	-8.101013e-001
13564482.000	-5.893137e-001	-8.099023e-001
13570476.000	-5.895868e-001	-8.097158e-001
13576470.000	-5.899022e-001	-8.094816e-001
13582464.000	-5.902453e-001	-8.092853e-001
13588458.000	-5.904720e-001	-8.090510e-001
13594452.000	-5.907862e-001	-8.088753e-001
13600446.000	-5.909834e-001	-8.086733e-001
13606440.000	-5.913465e-001	-8.084710e-001
13612434.000	-5.915802e-001	-8.082322e-001
13618428.000	-5.919523e-001	-8.080321e-001
13624422.000	-5.922013e-001	-8.078105e-001
13630416.000	-5.924953e-001	-8.075711e-001
13636410.000	-5.927713e-001	-8.074016e-001
13642404.000	-5.930588e-001	-8.071946e-001
13648398.000	-5.933228e-001	-8.069998e-001
13654392.000	-5.936623e-001	-8.067692e-001
13660386.000	-5.939128e-001	-8.065226e-001
13666380.000	-5.942055e-001	-8.063107e-001
13672374.000	-5.944691e-001	-8.061439e-001
13678368.000	-5.947724e-001	-8.058996e-001
13684362.000	-5.950462e-001	-8.057423e-001
13690356.000	-5.953813e-001	-8.055062e-001
13696350.000	-5.955843e-001	-8.053152e-001
13702344.000	-5.960056e-001	-8.050862e-001
13708338.000	-5.961957e-001	-8.048741e-001
13714332.000	-5.964854e-001	-8.046680e-001
13720326.000	-5.967796e-001	-8.044507e-001
13726320.000	-5.970333e-001	-8.042147e-001
13732314.000	-5.973685e-001	-8.040124e-001
13738308.000	-5.975575e-001	-8.037855e-001
13744302.000	-5.978523e-001	-8.035502e-001
13750296.000	-5.982075e-001	-8.034063e-001
13756290.000	-5.984450e-001	-8.032018e-001
13762284.000	-5.987393e-001	-8.030363e-001
13768278.000	-5.990264e-001	-8.027976e-001
13774272.000	-5.993552e-001	-8.025770e-001
13780266.000	-5.995783e-001	-8.023735e-001
13786260.000	-5.998551e-001	-8.021365e-001
13792254.000	-6.001697e-001	-8.019288e-001
13798248.000	-6.004154e-001	-8.017638e-001
13804242.000	-6.006808e-001	-8.015532e-001
13810236.000	-6.009731e-001	-8.012793e-001
13816230.000	-6.012426e-001	-8.011117e-001
13822224.000	-6.015450e-001	-8.008987e-001
13828218.000	-6.018182e-001	-8.007257e-001
13834212.000	-6.020850e-001	-8.005273e-001
13840206.000	-6.023477e-001	-8.002770e-001
13846200.000	-6.026463e-001	-8.000322e-001
13852194.000	-6.029146e-001	-7.997718e-001
13858188.000	-6.031285e-001	-7.996521e-001
13864182.000	-6.034661e-001	-7.994096e-001
13870176.000	-6.037271e-001	-7.991911e-001
13876170.000	-6.039970e-001	-7.989444e-001
13882164.000	-6.042412e-001	-7.987535e-001
13888158.000	-6.045157e-001	-7.985633e-001
13894152.000	-6.047930e-001	-7.983842e-001
13900146.000	-6.050894e-001	-7.982294e-001
13906140.000	-6.053339e-001	-7.980738e-001
13912134.000	-6.056516e-001	-7.977164e-001
13918128.000	-6.059328e-001	-7.975554e-001
13924122.000	-6.061687e-001	-7.973001e-001
13930116.000	-6.064158e-001	-7.971095e-001
13936110.000	-6.067569e-001	-7.969935e-001
13942104.000	-6.069822e-001	-7.967570e-001
13948098.000	-6.072773e-001	-7.964504e-001
13954092.000	-6.075425e-001	-7.963361e-001
13960086.000	-6.078476e-001	-7.961162e-001
13966080.000	-6.081270e-001	-7.958978e-001
13972074.000	-6.084247e-001	-7.956920e-001
13978068.000	-6.086467e-001	-7.954610e-001
13984062.000	-6.089040e-001	-7.952734e-001
13990056.000	-6.091736e-001	-7.950139e-001
13996050.000	-6.094548e-001	-7.948690e-001
14002044.000	-6.096898e-001	-7.946514e-001
14008038.000	-6.099962e-001	-7.944963e-001
14014032.000	-6.102763e-001	-7.942612e-001
14020026.000	-6.105349e-001	-7.940224e-001
14026020.000	-6.107559e-001	-7.938267e-001
14032014.000	-6.111138e-001	-7.936037e-001
14038008.000	-6.113393e-001	-7.933929e-001
14044002.000	-6.115704e-001	-7.932166e-001
14049996.000	-6.118639e-001	-7.929927e-001
14055990.000	-6.121470e-001	-7.928280e-001
14061984.000	-6.124353e-001	-7.925949e-001
14067978.000	-6.126536e-001	-7.923444e-001
14073972.000	-6.129485e-001	-7.921660e-001
14079966.000	-6.132134e-001	-7.919218e-001
14085960.000	-6.134083e-001	-7.917767e-001
14091954.000	-6.137270e-001	-7.915697e-001
14097948.000	-6.139923e-001	-7.913231e-001
14103942.000	-6.142750e-001	-7.910552e-001
14109936.000	-6.145312e-001	-7.909283e-001
14115930.000	-6.147958e-001	-7.906997e-001
14121924.000	-6.150814e-001	-7.905076e-001
14127918.000	-6.152864e-001	-7.902966e-001
14133912.000	-6.155774e-001	-7.900564e-001
14139906.000	-6.158388e-001	-7.899356e-001
14145900.000	-6.161153e-001	-7.896850e-001
14151894.000	-6.163581e-001	-7.894353e-001
14157888.000	-6.166122e-001	-7.892632e-001
14163882.000	-6.169116e-001	-7.890496e-001
14169876.000	-6.171476e-001	-7.888623e-001
14175870.000	-6.175063e-001	-7.886773e-001
14181864.000	-6.177313e-001	-7.884377e-001
14187858.000	-6.180081e-001	-7.882274e-001
14193852.000	-6.182459e-001	-7.880155e-001
14199846.000	-6.184774e-001	-7.878213e-001
14205840.000	-6.187422e-001	-7.875934e-001
14211834.000	-6.190508e-001	-7.874222e-001
14217828.000	-6.192768e-001	-7.872161e-001
14223822.000	-6.195593e-001	-7.870309e-001
14229816.000	-6.198305e-001	-7.868063e-001
14235810.000	-6.201002e-001	-7.865914e-001
14241804.000	-6.203516e-001	-7.864241e-001
14247798.000	-6.205696e-001	-7.861763e-001
14253792.000	-6.208591e-001	-7.860382e-001
14259786.000	-6.211061e-001	-7.858093e-001
14265780.000	-6.213656e-001	-7.855607e-001
14271774.000	-6.216122e-001	-7.853851e-001
14277768.000	-6.219067e-001	-7.852021e-001
14283762.000	-6.221840e-001	-7.850045e-001
14289756.000	-6.223773e-001	-7.847757e-001
14295750.000	-6.226387e-001	-7.845469e-001
14301744.000	-6.230237e-001	-7.843657e-001
14307738.000	-6.232830e-001	-7.841079e-001
14313732.000	-6.234905e-001	-7.838853e-001
14319726.000	-6.237900e-001	-7.837074e-001
14325720.000	-6.240392e-001	-7.835040e-001
14331714.000	-6.242995e-001	-7.832864e-001
14337708.000	-6.245281e-001	-7.830739e-001
14343702.000	-6.247905e-001	-7.829170e-001
14349696.000	-6.250606e-001	-7.826599e-001
14355690.000	-6.253215e-001	-7.824404e-001
14361684.000	-6.255669e-001	-7.822906e-001
14367678.000	-6.258301e-001	-7.821156e-001
14373672.000	-6.261028e-001	-7.819220e-001
14379666.000	-6.263589e-001	-7.817184e-001
14385660.000	-6.266004e-001	-7.815073e-001
14391654.000	-6.268352e-001	-7.812976e-001
14397648.000	-6.271196e-001	-7.810337e-001
14403642.000	-6.273421e-001	-7.808632e-001
14409636.000	-6.276007e-001	-7.806546e-001
14415630.000	-6.278534e-001	-7.804844e-001
14421624.000	-6.281453e-001	-7.802578e-001
14427618.000	-6.284092e-001	-7.800495e-001
14433612.000	-6.286312e-001	-7.798499e-001
14439606.000	-6.288919e-001	-7.796484e-001
14445600.000	-6.291677e-001	-7.794499e-001
14451594.000	-6.293723e-001	-7.792250e-001
14457588.000	-6.296645e-001	-7.790398e-001
14463582.000	-6.299287e-001	-7.788553e-001
14469576.000	-6.301339e-001	-7.785905e-001
14475570.000	-6.304311e-001	-7.784200e-001
14481564.000	-6.306471e-001	-7.781776e-001
14487558.000	-6.308943e-001	-7.779804e-001
14493552.000	-6.311464e-001	-7.778091e-001
14499546.000	-6.313867e-001	-7.776660e-001
14505540.000	-6.315872e-001	-7.774327e-001
14511534.000	-6.318979e-001	-7.772503e-001
14517528.000	-6.321608e-001	-7.769776e-001
14523522.000	-6.323478e-001	-7.768337e-001
14529516.000	-6.327132e-001	-7.766283e-001
14535510.000	-6.328712e-001	-7.763641e-001
14541504.000	-6.331521e-001	-7.761954e-001
14547498.000	-6.333651e-001	-7.759861e-001
14553492.000	-6.336352e-001	-7.757977e-001
14559486.000	-6.338819e-001	-7.755873e-001
14565480.000	-6.340988e-001	-7.753753e-001
14571474.000	-6.343031e-001	-7.751437e-001
14577468.000	-6.346067e-001	-7.749797e-001
14583462.000	-6.348916e-001	-7.747486e-001
14589456.000	-6.350969e-001	-7.745522e-001
14595450.000	-6.353072e-001	-7.743335e-001
14601444.000	-6.355694e-001	-7.741445e-001
14607438.000	-6.358258e-001	-7.739452e-001
14613432.000	-6.360498e-001	-7.737070e-001
14619426.000	-6.363122e-001	-7.735744e-001
14625420.000	-6.365464e-001	-7.733314e-001
14631414.000	-6.367934e-001	-7.731443e-001
14637408.000	-6.370866e-001	-7.729056e-001
14643402.000	-6.373198e-001	-7.727567e-001
14649396.000	-6.375508e-001	-7.724878e-001
14655390.000	-6.378375e-001	-7.723604e-001
14661384.000	-6.380287e-001	-7.721587e-001
14667378.000	-6.382955e-001	-7.719836e-001
14673372.000	-6.385288e-001	-7.716752e-001
14679366.000	-6.387816e-001	-7.715302e-001
14685360.000	-6.389791e-001	-7.713105e-001
14691354.000	-6.391794e-001	-7.711120e-001
14697348.000	-6.395305e-001	-7.709103e-001
14703342.000	-6.397038e-001	-7.706954e-001
14709336.000	-6.399721e-001	-7.705230e-001
14715330.000	-6.401716e-001	-7.703135e-001
14721324.000	-6.404365e-001	-7.700732e-001
14727318.000	-6.407159e-001	-7.699194e-001
14733312.000	-6.409682e-001	-7.697659e-001
14739306.000	-6.411831e-001	-7.694556e-001
14745300.000	-6.413656e-001	-7.693017e-001
14751294.000	-6.416395e-001	-7.690837e-001
14757288.000	-6.418957e-001	-7.688712e-001
14763282.000	-6.421342e-001	-7.687080e-001
14769276.000	-6.423911e-001	-7.684503e-001
14775270.000	-6.426290e-001	-7.682968e-001
14781264.000	-6.428673e-001	-7.681111e-001
14787258.000	-6.430862e-001	-7.678967e-001
14793252.000	-6.433555e-001	-7.676852e-001
14799246.000	-6.435781e-001	-7.674701e-001
14805240.000	-6.437516e-001	-7.673078e-001
14811234.000	-6.439709e-001	-7.670947e-001
14817228.000	-6.442035e-001	-7.668872e-001
14823222.000	-6.444631e-001	-7.666660e-001
14829216.000	-6.446527e-001	-7.664756e-001
14835210.000	-6.449172e-001	-7.662258e-001
14841204.000	-6.451653e-001	-7.660518e-001
14847198.000	-6.453915e-001	-7.658712e-001
14853192.000	-6.456194e-001	-7.657064e-001
14859186.000	-6.458321e-001	-7.654390e-001
14865180.000	-6.461116e-001	-7.652829e-001
14871174.000	-6.463283e-001	-7.651120e-001
14877168.000	-6.465463e-001	-7.648451e-001
14883162.000	-6.468084e-001	-7.646722e-001
14889156.000	-6.470070e-001	-7.644485e-001
14895150.000	-6.472652e-001	-7.643023e-001
14901144.000	-6.475014e-001	-7.640713e-001
14907138.000	-6.477343e-001	-7.638546e-001
14913132.000	-6.479761e-001	-7.637093e-001
14919126.000	-6.482556e-001	-7.635139e-001
14925120.000	-6.484632e-001	-7.633063e-001
14931114.000	-6.487131e-001	-7.631746e-001
14937108.000	-6.488717e-001	-7.628977e-001
14943102.000	-6.491503e-001	-7.627336e-001
14949096.000	-6.493049e-001	-7.624746e-001
14955090.000	-6.496047e-001	-7.622903e-001
14961084.000	-6.498774e-001	-7.621027e-001
14967078.000	-6.501264e-001	-7.619571e-001
14973072.000	-6.503518e-001	-7.617225e-001
14979066.000	-6.505715e-001	-7.615407e-001
14985060.000	-6.508442e-001	-7.613776e-001
14991054.000	-6.510588e-001	-7.611494e-001
14997048.000	-6.512606e-001	-7.609206e-001
15003042.000	-6.515127e-001	-7.606787e-001
15009036.000	-6.517506e-001	-7.605641e-001
15015030.000	-6.519741e-001	-7.603841e-001
15021024.000	-6.522046e-001	-7.602007e-001
15027018.000	-6.524227e-001	-7.599578e-001
15033012.000	-6.526849e-001	-7.597044e-001
15039006.000	-6.528880e-001	-7.595856e-001
15045000.000	-6.531237e-001	-7.593516e-001
15050994.000	-6.533471e-001	-7.591703e-001
15056988.000	-6.535870e-001	-7.589344e-001
15062982.000	-6.537796e-001	-7.587608e-001
15068976.000	-6.540195e-001	-7.585002e-001
15074970.000	-6.542980e-001	-7.584131e-001
15080964.000	-6.545036e-001	-7.581994e-001
15086958.000	-6.547302e-001	-7.580358e-001
15092952.000	-6.549931e-001	-7.578371e-001
15098946.000	-6.552529e-001	-7.576610e-001
15104940.000	-6.554205e-001	-7.573812e-001
15110934.000	-6.556574e-001	-7.572346e-001
15116928.000	-6.558643e-001	-7.569771e-001
15122922.000	-6.560891e-001	-7.567898e-001
15128916.000	-6.563110e-001	-7.566037e-001
15134910.000	-6.565599e-001	-7.564497e-001
15140904.000	-6.568071e-001	-7.562505e-001
15146898.000	-6.569856e-001	-7.559844e-001
15152892.000	-6.572439e-001	-7.558779e-001
15158886.000	-6.574687e-001	-7.556485e-001
15164880.000	-6.577086e-001	-7.554741e-001
15170874.000	-6.579429e-001	-7.552219e-001
15176868.000	-6.581492e-001	-7.550785e-001
15182862.000	-6.583533e-001	-7.548557e-001
15188856.000	-6.585592e-001	-7.546165e-001
15194850.000	-6.588297e-001	-7.544667e-001
15200844.000	-6.590358e-001	-7.542405e-001
15206838.000	-6.592363e-001	-7.540475e-001
15212832.000	-6.594543e-001	-7.538732e-001
15218826.000	-6.596801e-001	-7.536221e-001
15224820.000	-6.599455e-001	-7.534551e-001
15230814.000	-6.601586e-001	-7.532678e-001
15236808.000	-6.604139e-001	-7.530513e-001
15242802.000	-6.605665e-001	-7.528731e-001
15248796.000	-6.608068e-001	-7.526844e-001
15254790.000	-6.610212e-001	-7.525172e-001
15260784.000	-6.612722e-001	-7.523191e-001
15266778.000	-6.615376e-001	-7.521337e-001
15272772.000	-6.617568e-001	-7.519621e-001
15278766.000	-6.619446e-001	-7.517365e-001
15284760.000	-6.622104e-001	-7.515248e-001
15290754.000	-6.623853e-001	-7.513386e-001
15296748.000	-6.625903e-001	-7.510985e-001
15302742.000	-6.627939e-001	-7.509802e-001
15308736.000	-6.630772e-001	-7.507836e-001
15314730.000	-6.632286e-001	-7.505656e-001
15320724.000	-6.634984e-001	-7.503907e-001
15326718.000	-6.636667e-001	-7.501384e-001
15332712.000	-6.639524e-001	-7.499776e-001
15338706.000	-6.641675e-001	-7.498020e-001
15344700.000	-6.643507e-001	-7.495780e-001
15350694.000	-6.645666e-001	-7.493384e-001
15356688.000	-6.647943e-001	-7.491279e-001
15362682.000	-6.649649e-001	-7.489510e-001
15368676.000	-6.652469e-001	-7.488309e-001
15374670.000	-6.654276e-001	-7.486132e-001
15380664.000	-6.656894e-001	-7.484182e-001
15386658.000	-6.658831e-001	-7.482273e-001
15392652.000	-6.661791e-001	-7.480434e-001
15398646.000	-6.663866e-001	-7.478518e-001
15404640.000	-6.666264e-001	-7.476747e-001
15410634.000	-6.667909e-001	-7.474760e-001
15416628.000	-6.670278e-001	-7.472797e-001
15422622.000	-6.672018e-001	-7.471091e-001
15428616.000	-6.674149e-001	-7.468544e-001
15434610.000	-6.676750e-001	-7.467029e-001
15440604.000	-6.679390e-001	-7.464945e-001
15446598.000	-6.680921e-001	-7.462816e-001
15452592.000	-6.682962e-001	-7.460669e-001
15458586.000	-6.685644e-001	-7.459089e-001
15464580.000	-6.687596e-001	-7.456872e-001
15470574.000	-6.689698e-001	-7.455157e-001
15476568.000	-6.691802e-001	-7.453225e-001
15482562.000	-6.693906e-001	-7.451252e-001
15488556.000	-6.696013e-001	-7.449249e-001
15494550.000	-6.697999e-001	-7.447030e-001
15500544.000	-6.700391e-001	-7.446018e-001
15506538.000	-6.702393e-001	-7.443100e-001
15512532.000	-6.704852e-001	-7.441628e-001
15518526.000	-6.706896e-001	-7.439563e-001
15524520.000	-6.708541e-001	-7.437366e-001
15530514.000	-6.710540e-001	-7.436071e-001
15536508.000	-6.713088e-001	-7.433931e-001
15542502.000	-6.715928e-001	-7.432275e-001
15548496.000	-6.717741e-001	-7.430271e-001
15554490.000	-6.719381e-001	-7.428185e-001
15560484.000	-6.722131e-001	-7.426198e-001
15566478.000	-6.723373e-001	-7.423821e-001
15572472.000	-6.725791e-001	-7.422535e-001
15578466.000	-6.727787e-001	-7.420468e-001
15584460.000	-6.730482e-001	-7.418369e-001
15590454.000	-6.732609e-001	-7.417289e-001
15596448.000	-6.734316e-001	-7.414312e-001
15602442.000	-6.736836e-001	-7.412540e-001
15608436.000	-6.738608e-001	-7.411070e-001
15614430.000	-6.740464e-001	-7.408810e-001
15620424.000	-6.742283e-001	-7.406700e-001
15626418.000	-6.744557e-001	-7.404547e-001
15632412.000	-6.747001e-001	-7.402897e-001
15638406.000	-6.748925e-001	-7.401000e-001
15644400.000	-6.751091e-001	-7.399099e-001
15650394.000	-6.753262e-001	-7.397097e-001
15656388.000	-6.755569e-001	-7.395467e-001
15662382.000	-6.757049e-001	-7.392994e-001
15668376.000	-6.759248e-001	-7.391392e-001
15674370.000	-6.761057e-001	-7.389570e-001
15680364.000	-6.763659e-001	-7.387473e-001
15686358.000	-6.766074e-001	-7.385765e-001
15692352.000	-6.767512e-001	-7.383956e-001
15698346.000	-6.769735e-001	-7.381660e-001
15704340.000	-6.771488e-001	-7.379619e-001
15710334.000	-6.774011e-001	-7.377880e-001
15716328.000	-6.776369e-001	-7.376529e-001
15722322.000	-6.778178e-001	-7.374545e-001
15728316.000	-6.780421e-001	-7.372530e-001
15734310.000	-6.782621e-001	-7.370338e-001
15740304.000	-6.784862e-001	-7.368404e-001
15746298.000	-6.786593e-001	-7.366993e-001
15752292.000	-6.788669e-001	-7.364884e-001
15758286.000	-6.790582e-001	-7.363134e-001
15764280.000	-6.793001e-001	-7.361045e-001
15770274.000	-6.794625e-001	-7.359194e-001
15776268.000	-6.797132e-001	-7.357212e-001
15782262.000	-6.799282e-001	-7.355275e-001
15788256.000	-6.800679e-001	-7.353795e-001
15794250.000	-6.802888e-001	-7.351867e-001
15800244.000	-6.805095e-001	-7.349704e-001
15806238.000	-6.807231e-001	-7.348051e-001
15812232.000	-6.809012e-001	-7.345848e-001
15818226.000	-6.811613e-001	-7.344631e-001
15824220.000	-6.813711e-001	-7.342235e-001
15830214.000	-6.815443e-001	-7.340134e-001
15836208.000	-6.817451e-001	-7.338376e-001
15842202.000	-6.819644e-001	-7.336557e-001
15848196.000	-6.821953e-001	-7.334404e-001
15854190.000	-6.823621e-001	-7.333118e-001
15860184.000	-6.825472e-001	-7.331100e-001
15866178.000	-6.827339e-001	-7.328656e-001
15872172.000	-6.829650e-001	-7.326668e-001
15878166.000	-6.831154e-001	-7.325060e-001
15884160.000	-6.832956e-001	-7.322676e-001
15890154.000	-6.835004e-001	-7.320838e-001
15896148.000	-6.836981e-001	-7.318711e-001
15902142.000	-6.839342e-001	-7.317076e-001
15908136.000	-6.842004e-001	-7.315613e-001
15914130.000	-6.843575e-001	-7.313853e-001
15920124.000	-6.845369e-001	-7.311800e-001
15926118.000	-6.847485e-001	-7.310053e-001
15932112.000	-6.849393e-001	-7.307775e-001
15938106.000	-6.852152e-001	-7.306437e-001
15944100.000	-6.853757e-001	-7.304333e-001
15950094.000	-6.855174e-001	-7.301861e-001
15956088.000	-6.857536e-001	-7.300322e-001
15962082.000	-6.859265e-001	-7.298659e-001
15968076.000	-6.861749e-001	-7.297098e-001
15974070.000	-6.863791e-001	-7.294838e-001
15980064.000	-6.865562e-001	-7.293167e-001
15986058.000	-6.867743e-001	-7.291739e-001
15992052.000	-6.869781e-001	-7.288690e-001
15998046.000	-6.871707e-001	-7.287650e-001
16004040.000	-6.873581e-001	-7.284990e-001
16010034.000	-6.875826e-001	-7.283526e-001
16016028.000	-6.877971e-001	-7.281908e-001
16022022.000	-6.879938e-001	-7.280192e-001
16028016.000	-6.881433e-001	-7.277937e-001
16034010.000	-6.883056e-001	-7.275767e-001
16040004.000	-6.885473e-001	-7.274041e-001
16045998.000	-6.887169e-001	-7.271436e-001
16051992.000	-6.889598e-001	-7.270600e-001
16057986.000	-6.891356e-001	-7.269049e-001
16063980.000	-6.893676e-001	-7.266843e-001
16069974.000	-6.895354e-001	-7.264832e-001
16075968.000	-6.897822e-001	-7.263617e-001
16081962.000	-6.899532e-001	-7.261109e-001
16087956.000	-6.900891e-001	-7.258927e-001
16093950.000	-6.903365e-001	-7.257184e-001
16099944.000	-6.904979e-001	-7.255644e-001
16105938.000	-6.907535e-001	-7.253786e-001
16111932.000	-6.908923e-001	-7.251452e-001
16117926.000	-6.910922e-001	-7.249289e-001
16123920.000	-6.913328e-001	-7.247918e-001
16129914.000	-6.914984e-001	-7.246080e-001
16135908.000	-6.916918e-001	-7.244072e-001
16141902.000	-6.918491e-001	-7.242850e-001
16147896.000	-6.921072e-001	-7.240404e-001
16153890.000	-6.922586e-001	-7.238603e-001
16159884.000	-6.924212e-001	-7.236890e-001
16165878.000	-6.926505e-001	-7.234996e-001
16171872.000	-6.928403e-001	-7.232532e-001
16177866.000	-6.930764e-001	-7.230369e-001
16183860.000	-6.931998e-001	-7.229128e-001
16189854.000	-6.933862e-001	-7.226995e-001
16195848.000	-6.936151e-001	-7.225889e-001
16201842.000	-6.938397e-001	-7.223793e-001
16207836.000	-6.940249e-001	-7.221967e-001
16213830.000	-6.941891e-001	-7.219815e-001
16219824.000	-6.943866e-001	-7.218022e-001
16225818.000	-6.946565e-001	-7.216437e-001
16231812.000	-6.948363e-001	-7.215119e-001
16237806.000	-6.949841e-001	-7.212976e-001
16243800.000	-6.951585e-001	-7.211568e-001
16249794.000	-6.953770e-001	-7.208960e-001
16255788.000	-6.955588e-001	-7.206935e-001
16261782.000	-6.957961e-001	-7.205243e-001
16267776.000	-6.959208e-001	-7.203307e-001
16273770.000	-6.961158e-001	-7.201766e-001
16279764.000	-6.963214e-001	-7.199586e-001
16285758.000	-6.965493e-001	-7.198463e-001
16291752.000	-6.967034e-001	-7.196167e-001
16297746.000	-6.969012e-001	-7.194509e-001
16303740.000	-6.971295e-001	-7.192504e-001
16309734.000	-6.972713e-001	-7.190717e-001
16315728.000	-6.974918e-001	-7.189033e-001
16321722.000	-6.976697e-001	-7.187131e-001
16327716.000	-6.978576e-001	-7.185155e-001
16333710.000	-6.980814e-001	-7.183480e-001
16339704.000	-6.982128e-001	-7.181727e-001
16345698.000	-6.983886e-001	-7.179798e-001
16351692.000	-6.985699e-001	-7.177528e-001
16357686.000	-6.987911e-001	-7.176037e-001
16363680.000	-6.989890e-001	-7.174074e-001
16369674.000	-6.991837e-001	-7.172497e-001
16375668.000	-6.993777e-001	-7.170571e-001
16381662.000	-6.995703e-001	-7.168981e-001
16387656.000	-6.997373e-001	-7.167083e-001
16393650.000	-6.999188e-001	-7.164975e-001
16399644.000	-7.001375e-001	-7.163355e-001
16405638.000	-7.002892e-001	-7.161232e-001
16411632.000	-7.004610e-001	-7.159259e-001
16417626.000	-7.006968e-001	-7.157880e-001
16423620.000	-7.008624e-001	-7.155323e-001
16429614.000	-7.010438e-001	-7.154093e-001
16435608.000	-7.012696e-001	-7.152743e-001
16441602.000	-7.014533e-001	-7.150310e-001
16447596.000	-7.015824e-001	-7.148486e-001
16453590.000	-7.017889e-001	-7.146096e-001
16459584.000	-7.019946e-001	-7.144757e-001
16465578.000	-7.021341e-001	-7.142508e-001
16471572.000	-7.023553e-001	-7.141560e-001
16477566.000	-7.025218e-001	-7.139448e-001
16483560.000	-7.027393e-001	-7.137690e-001
16489554.000	-7.028978e-001	-7.135861e-001
16495548.000	-7.031075e-001	-7.134110e-001
16501542.000	-7.032869e-001	-7.131941e-001
16507536.000	-7.034486e-001	-7.129929e-001
16513530.000	-7.035903e-001	-7.128466e-001
16519524.000	-7.038188e-001	-7.126067e-001
16525518.000	-7.039564e-001	-7.124877e-001
16531512.000	-7.042348e-001	-7.122571e-001
16537506.000	-7.043284e-001	-7.120726e-001
16543500.000	-7.045147e-001	-7.119383e-001
16549494.000	-7.046867e-001	-7.117065e-001
16555488.000	-7.048649e-001	-7.115660e-001
16561482.000	-7.051177e-001	-7.113779e-001
16567476.000	-7.052830e-001	-7.112010e-001
16573470.000	-7.054621e-001	-7.109580e-001
16579464.000	-7.055734e-001	-7.107853e-001
16585458.000	-7.058218e-001	-7.106104e-001
16591452.000	-7.059819e-001	-7.104537e-001
16597446.000	-7.061783e-001	-7.102838e-001
16603440.000	-7.064122e-001	-7.101302e-001
16609434.000	-7.065811e-001	-7.099283e-001
16615428.000	-7.067395e-001	-7.097293e-001
16621422.000	-7.069177e-001	-7.095389e-001
16627416.000	-7.071569e-001	-7.093893e-001
16633410.000	-7.073136e-001	-7.092117e-001
16639404.000	-7.074579e-001	-7.090196e-001
16645398.000	-7.077193e-001	-7.088766e-001
16651392.000	-7.078212e-001	-7.086631e-001
16657386.000	-7.080323e-001	-7.084709e-001
16663380.000	-7.081907e-001	-7.082722e-001
16669374.000	-7.084206e-001	-7.080895e-001
16675368.000	-7.085461e-001	-7.079298e-001
16681362.000	-7.087711e-001	-7.077662e-001
16687356.000	-7.089178e-001	-7.076291e-001
16693350.000	-7.091088e-001	-7.074046e-001
16699344.000	-7.092630e-001	-7.072026e-001
16705338.000	-7.094726e-001	-7.070432e-001
16711332.000	-7.097123e-001	-7.068690e-001
16717326.000	-7.098521e-001	-7.066910e-001
16723320.000	-7.100151e-001	-7.065223e-001
16729314.000	-7.102349e-001	-7.063387e-001
16735308.000	-7.103687e-001	-7.061062e-001
16741302.000	-7.105052e-001	-7.059500e-001
16747296.000	-7.107016e-001	-7.057739e-001
16753290.000	-7.108112e-001	-7.055345e-001
16759284.000	-7.110907e-001	-7.054553e-001
16765278.000	-7.112665e-001	-7.052354e-001
16771272.000	-7.114176e-001	-7.050545e-001
16777266.000	-7.115659e-001	-7.048107e-001
16783260.000	-7.117327e-001	-7.046990e-001
16789254.000	-7.119545e-001	-7.045173e-001
16795248.000	-7.120960e-001	-7.043293e-001
16801242.000	-7.123070e-001	-7.041423e-001
16807236.000	-7.125080e-001	-7.039809e-001
16813230.000	-7.125843e-001	-7.037519e-001
16819224.000	-7.128143e-001	-7.036093e-001
16825218.000	-7.129920e-001	-7.033951e-001
16831212.000	-7.131276e-001	-7.032437e-001
16837206.000	-7.133451e-001	-7.030538e-001
16843200.000	-7.134526e-001	-7.028386e-001
16849194.000	-7.137086e-001	-7.027374e-001
16855188.000	-7.138321e-001	-7.025109e-001
16861182.000	-7.140701e-001	-7.023420e-001
16867176.000	-7.142140e-001	-7.021702e-001
16873170.000	-7.144915e-001	-7.020371e-001
16879164.000	-7.146010e-001	-7.018841e-001
16885158.000	-7.147444e-001	-7.015727e-001
16891152.000	-7.149372e-001	-7.014576e-001
16897146.000	-7.151137e-001	-7.013249e-001
16903140.000	-7.153265e-001	-7.011698e-001
16909134.000	-7.154676e-001	-7.009584e-001
16915128.000	-7.156991e-001	-7.008074e-001
16921122.000	-7.157802e-001	-7.006078e-001
16927116.000	-7.159870e-001	-7.004051e-001
16933110.000	-7.161919e-001	-7.002309e-001
16939104.000	-7.163476e-001	-7.000672e-001
16945098.000	-7.165099e-001	-6.999057e-001
16951092.000	-7.167279e-001	-6.997416e-001
16957086.000	-7.168525e-001	-6.995923e-001
16963080.000	-7.170582e-001	-6.993902e-001
16969074.000	-7.172172e-001	-6.991832e-001
16975068.000	-7.173650e-001	-6.989916e-001
16981062.000	-7.175817e-001	-6.988590e-001
16987056.000	-7.177380e-001	-6.986185e-001
16993050.000	-7.179210e-001	-6.984527e-001
16999044.000	-7.180668e-001	-6.982719e-001
17005038.000	-7.182505e-001	-6.980825e-001
17011032.000	-7.184529e-001	-6.979965e-001
17017026.000	-7.185185e-001	-6.977373e-001
17023020.000	-7.187204e-001	-6.975634e-001
17029014.000	-7.189160e-001	-6.974320e-001
17035008.000	-7.190702e-001	-6.972369e-001
17041002.000	-7.192361e-001	-6.970496e-001
17046996.000	-7.194225e-001	-6.968749e-001
17052990.000	-7.195318e-001	-6.966609e-001
17058984.000	-7.197803e-001	-6.965033e-001
17064978.000	-7.199196e-001	-6.963123e-001
17070972.000	-7.200966e-001	-6.961638e-001
17076966.000	-7.202829e-001	-6.959557e-001
17082960.000	-7.204524e-001	-6.957709e-001
17088954.000	-7.205649e-001	-6.956032e-001
17094948.000	-7.207533e-001	-6.953930e-001
17100942.000	-7.209391e-001	-6.952572e-001
17106936.000	-7.210981e-001	-6.951316e-001
17112930.000	-7.213176e-001	-6.949170e-001
17118924.000	-7.214929e-001	-6.947793e-001
17124918.000	-7.216539e-001	-6.946274e-001
17130912.000	-7.217904e-001	-6.944283e-001
17136906.000	-7.219617e-001	-6.942319e-001
17142900.000	-7.221079e-001	-6.940389e-001
17148894.000	-7.222780e-001	-6.938391e-001
17154888.000	-7.224430e-001	-6.936991e-001
17160882.000	-7.226663e-001	-6.935726e-001
17166876.000	-7.228126e-001	-6.933602e-001
17172870.000	-7.229467e-001	-6.931764e-001
17178864.000	-7.231364e-001	-6.929864e-001
17184858.000	-7.233014e-001	-6.928232e-001
17190852.000	-7.234473e-001	-6.926316e-001
17196846.000	-7.235612e-001	-6.924214e-001
17202840.000	-7.237925e-001	-6.923025e-001
17208834.000	-7.239526e-001	-6.921283e-001
17214828.000	-7.240966e-001	-6.919370e-001
17220822.000	-7.243169e-001	-6.917964e-001
17226816.000	-7.244378e-001	-6.916100e-001
17232810.000	-7.245936e-001	-6.914302e-001
17238804.000	-7.248012e-001	-6.912378e-001
17244798.000	-7.249936e-001	-6.910588e-001
17250792.000	-7.251038e-001	-6.908823e-001
17256786.000	-7.252823e-001	-6.907086e-001
17262780.000	-7.254564e-001	-6.905598e-001
17268774.000	-7.255871e-001	-6.903437e-001
17274768.000	-7.258152e-001	-6.902287e-001
17280762.000	-7.259740e-001	-6.900168e-001
17286756.000	-7.261128e-001	-6.898397e-001
17292750.000	-7.263032e-001	-6.896455e-001
17298744.000	-7.264554e-001	-6.894762e-001
17304738.000	-7.266059e-001	-6.893246e-001
17310732.000	-7.267623e-001	-6.891491e-001
17316726.000	-7.269338e-001	-6.889657e-001
17322720.000	-7.271490e-001	-6.888067e-001
17328714.000	-7.272685e-001	-6.886415e-001
17334708.000	-7.274415e-001	-6.885083e-001
17340702.000	-7.276288e-001	-6.883139e-001
17346696.000	-7.277550e-001	-6.881498e-001
17352690.000	-7.279091e-001	-6.879402e-001
17358684.000	-7.280963e-001	-6.878069e-001
17364678.000	-7.282892e-001	-6.876185e-001
17370672.000	-7.284462e-001	-6.874468e-001
17376666.000	-7.286027e-001	-6.873036e-001
17382660.000	-7.287619e-001	-6.870889e-001
17388654.000	-7.289303e-001	-6.869413e-001
17394648.000	-7.290622e-001	-6.867773e-001
17400642.000	-7.292332e-001	-6.865678e-001
17406636.000	-7.294089e-001	-6.864076e-001
17412630.000	-7.296071e-001	-6.862325e-001
17418624.000	-7.297346e-001	-6.860563e-001
17424618.000	-7.298991e-001	-6.859276e-001
17430612.000	-7.300821e-001	-6.857717e-001
17436606.000	-7.302420e-001	-6.855388e-001
17442600.000	-7.303529e-001	-6.853643e-001
17448594.000	-7.305536e-001	-6.852479e-001
17454588.000	-7.307306e-001	-6.849787e-001
17460582.000	-7.308299e-001	-6.848179e-001
17466576.000	-7.310605e-001	-6.847189e-001
17472570.000	-7.311683e-001	-6.844972e-001
17478564.000	-7.313362e-001	-6.843733e-001
17484558.000	-7.315161e-001	-6.841717e-001
17490552.000	-7.316811e-001	-6.839588e-001
17496546.000	-7.318398e-001	-6.838172e-001
17502540.000	-7.320271e-001	-6.836771e-001
17508534.000	-7.321461e-001	-6.835017e-001
17514528.000	-7.323046e-001	-6.833336e-001
17520522.000	-7.324607e-001	-6.831802e-001
17526516.000	-7.326175e-001	-6.829556e-001
17532510.000	-7.327584e-001	-6.828055e-001
17538504.000	-7.329440e-001	-6.826505e-001
17544498.000	-7.330843e-001	-6.824450e-001
17550492.000	-7.332637e-001	-6.822646e-001
17556486.000	-7.334342e-001	-6.821368e-001
17562480.000	-7.335554e-001	-6.819580e-001
17568474.000	-7.337420e-001	-6.818079e-001
17574468.000	-7.338898e-001	-6.816244e-001
17580462.000	-7.340698e-001	-6.814512e-001
17586456.000	-7.342234e-001	-6.812533e-001
17592450.000	-7.343930e-001	-6.811286e-001
17598444.000	-7.345077e-001	-6.809261e-001
17604438.000	-7.346624e-001	-6.807561e-001
17610432.000	-7.348255e-001	-6.805496e-001
17616426.000	-7.350118e-001	-6.803792e-001
17622420.000	-7.351912e-001	-6.802601e-001
17628414.000	-7.353100e-001	-6.801306e-001
17634408.000	-7.354925e-001	-6.799189e-001
17640402.000	-7.356354e-001	-6.797125e-001
17646396.000	-7.357766e-001	-6.795865e-001
17652390.000	-7.359242e-001	-6.793987e-001
17658384.000	-7.361233e-001	-6.792275e-001
17664378.000	-7.362662e-001	-6.790931e-001
17670372.000	-7.363688e-001	-6.788779e-001
17676366.000	-7.365155e-001	-6.787167e-001
17682360.000	-7.367336e-001	-6.785590e-001
17688354.000	-7.368867e-001	-6.783938e-001
17694348.000	-7.370429e-001	-6.781896e-001
17700342.000	-7.371842e-001	-6.780440e-001
17706336.000	-7.374267e-001	-6.778759e-001
17712330.000	-7.375324e-001	-6.776688e-001
17718324.000	-7.377035e-001	-6.775764e-001
17724318.000	-7.377713e-001	-6.773765e-001
17730312.000	-7.379957e-001	-6.771531e-001
17736306.000	-7.381267e-001	-6.770425e-001
17742300.000	-7.382826e-001	-6.768319e-001
17748294.000	-7.383970e-001	-6.766703e-001
17754288.000	-7.386230e-001	-6.764971e-001
17760282.000	-7.387314e-001	-6.763470e-001
17766276.000	-7.389284e-001	-6.761751e-001
17772270.000	-7.390413e-001	-6.760285e-001
17778264.000	-7.392054e-001	-6.758279e-001
17784258.000	-7.393654e-001	-6.756653e-001
17790252.000	-7.395712e-001	-6.755110e-001
17796246.000	-7.396409e-001	-6.753093e-001
17802240.000	-7.398161e-001	-6.751281e-001
17808234.000	-7.399605e-001	-6.750004e-001
17814228.000	-7.401261e-001	-6.748661e-001
17820222.000	-7.402484e-001	-6.746630e-001
17826216.000	-7.404704e-001	-6.744884e-001
17832210.000	-7.406029e-001	-6.743204e-001
17838204.000	-7.407235e-001	-6.741567e-001
17844198.000	-7.408969e-001	-6.739801e-001
17850192.000	-7.410356e-001	-6.738202e-001
17856186.000	-7.411560e-001	-6.736579e-001
17862180.000	-7.413397e-001	-6.735195e-001
17868174.000	-7.415329e-001	-6.733281e-001
17874168.000	-7.416922e-001	-6.731763e-001
17880162.000	-7.418455e-001	-6.730165e-001
17886156.000	-7.419458e-001	-6.728071e-001
17892150.000	-7.421223e-001	-6.726438e-001
17898144.000	-7.423069e-001	-6.724615e-001
17904138.000	-7.424402e-001	-6.722881e-001
17910132.000	-7.425678e-001	-6.721499e-001
17916126.000	-7.427156e-001	-6.720156e-001
17922120.000	-7.428567e-001	-6.717915e-001
17928114.000	-7.429517e-001	-6.716444e-001
17934108.000	-7.431017e-001	-6.714878e-001
17940102.000	-7.432954e-001	-6.712849e-001
17946096.000	-7.434715e-001	-6.711557e-001
17952090.000	-7.436184e-001	-6.710205e-001
17958084.000	-7.437991e-001	-6.708184e-001
17964078.000	-7.438990e-001	-6.706459e-001
17970072.000	-7.440866e-001	-6.704914e-001
17976066.000	-7.442372e-001	-6.703277e-001
17982060.000	-7.443904e-001	-6.702145e-001
17988054.000	-7.444742e-001	-6.699362e-001
17994048.000	-7.446285e-001	-6.698295e-001
18000042.000	-7.447943e-001	-6.696190e-001
18006036.000	-7.449614e-001	-6.695162e-001
18012030.000	-7.450457e-001	-6.693109e-001
18018024.000	-7.452591e-001	-6.691390e-001
18024018.000	-7.454123e-001	-6.689876e-001
18030012.000	-7.455731e-001	-6.688401e-001
18036006.000	-7.456820e-001	-6.686407e-001
18042000.000	-7.458421e-001	-6.684715e-001
18047994.000	-7.459613e-001	-6.682534e-001
18053988.000	-7.461442e-001	-6.681714e-001
18059982.000	-7.462515e-001	-6.680106e-001
18065976.000	-7.464000e-001	-6.678344e-001
18071970.000	-7.466149e-001	-6.676479e-001
18077964.000	-7.467548e-001	-6.674699e-001
18083958.000	-7.469021e-001	-6.673666e-001
18089952.000	-7.470456e-001	-6.671860e-001
18095946.000	-7.472007e-001	-6.670458e-001
18101940.000	-7.473301e-001	-6.668863e-001
18107934.000	-7.475096e-001	-6.667399e-001
18113928.000	-7.475727e-001	-6.665421e-001
18119922.000	-7.477882e-001	-6.663642e-001
18125916.000	-7.479354e-001	-6.661929e-001
18131910.000	-7.480600e-001	-6.660246e-001
18137904.000	-7.482518e-001	-6.658860e-001
18143898.000	-7.483184e-001	-6.656467e-001
18149892.000	-7.484610e-001	-6.654733e-001
18155886.000	-7.486631e-001	-6.653199e-001
18161880.000	-7.487716e-001	-6.651476e-001
18167874.000	-7.489106e-001	-6.649984e-001
18173868.000	-7.491206e-001	-6.648873e-001
18179862.000	-7.492198e-001	-6.647165e-001
18185856.000	-7.493861e-001	-6.645525e-001
18191850.000	-7.495265e-001	-6.643863e-001
18197844.000	-7.497061e-001	-6.642058e-001
18203838.000	-7.498179e-001	-6.640707e-001
18209832.000	-7.499510e-001	-6.638855e-001
18215826.000	-7.500814e-001	-6.636702e-001
18221820.000	-7.502179e-001	-6.634876e-001
18227814.000	-7.503607e-001	-6.633860e-001
18233808.000	-7.505040e-001	-6.631890e-001
18239802.000	-7.506331e-001	-6.630320e-001
18245796.000	-7.507982e-001	-6.629342e-001
18251790.000	-7.509769e-001	-6.627495e-001
18257784.000	-7.511104e-001	-6.625260e-001
18263778.000	-7.512366e-001	-6.623851e-001
18269772.000	-7.514055e-001	-6.622457e-001
18275766.000	-7.514978e-001	-6.620423e-001
18281760.000	-7.516462e-001	-6.619053e-001
18287754.000	-7.518481e-001	-6.617418e-001
18293748.000	-7.519349e-001	-6.615853e-001
18299742.000	-7.521556e-001	-6.614088e-001
18305736.000	-7.522236e-001	-6.612396e-001
18311730.000	-7.523772e-001	-6.610626e-001
18317724.000	-7.525112e-001	-6.609060e-001
18323718.000	-7.526446e-001	-6.607573e-001
18329712.000	-7.528484e-001	-6.606104e-001
18335706.000	-7.529403e-001	-6.604650e-001
18341700.000	-7.531205e-001	-6.602368e-001
18347694.000	-7.532846e-001	-6.601071e-001
18353688.000	-7.533742e-001	-6.599382e-001
18359682.000	-7.534890e-001	-6.597608e-001
18365676.000	-7.536785e-001	-6.595853e-001
18371670.000	-7.538340e-001	-6.594243e-001
18377664.000	-7.539645e-001	-6.593286e-001
18383658.000	-7.541074e-001	-6.591888e-001
18389652.000	-7.542564e-001	-6.590008e-001
18395646.000	-7.544217e-001	-6.588706e-001
18401640.000	-7.545298e-001	-6.586449e-001
18407634.000	-7.546429e-001	-6.584547e-001
18413628.000	-7.548142e-001	-6.582732e-001
18419622.000	-7.549523e-001	-6.581632e-001
18425616.000	-7.550751e-001	-6.579832e-001
18431610.000	-7.552241e-001	-6.578352e-001
18437604.000	-7.553015e-001	-6.576301e-001
18443598.000	-7.555067e-001	-6.574881e-001
18449592.000	-7.556592e-001	-6.573551e-001
18455586.000	-7.557503e-001	-6.571546e-001
18461580.000	-7.559240e-001	-6.570011e-001
18467574.000	-7.560432e-001	-6.568321e-001
18473568.000	-7.561873e-001	-6.566737e-001
18479562.000	-7.563777e-001	-6.565049e-001
18485556.000	-7.564438e-001	-6.562995e-001
18491550.000	-7.565401e-001	-6.561854e-001
18497544.000	-7.567365e-001	-6.560213e-001
18503538.000	-7.568308e-001	-6.558191e-001
18509532.000	-7.569981e-001	-6.556966e-001
18515526.000	-7.571755e-001	-6.556002e-001
18521520.000	-7.572769e-001	-6.553554e-001
18527514.000	-7.574346e-001	-6.552015e-001
18533508.000	-7.575653e-001	-6.550565e-001
18539502.000	-7.577563e-001	-6.549200e-001
18545496.000	-7.578474e-001	-6.547012e-001
18551490.000	-7.579840e-001	-6.546380e-001
18557484.000	-7.581115e-001	-6.544705e-001
18563478.000	-7.582993e-001	-6.542808e-001
18569472.000	-7.583876e-001	-6.540829e-001
18575466.000	-7.585282e-001	-6.539401e-001
18581460.000	-7.587001e-001	-6.537672e-001
18587454.000	-7.588397e-001	-6.536092e-001
18593448.000	-7.589602e-001	-6.534601e-001
18599442.000	-7.590927e-001	-6.533261e-001
18605436.000	-7.592207e-001	-6.531041e-001
18611430.000	-7.593419e-001	-6.529390e-001
18617424.000	-7.594795e-001	-6.528098e-001
18623418.000	-7.597003e-001	-6.526561e-001
18629412.000	-7.597868e-001	-6.525593e-001
18635406.000	-7.599031e-001	-6.523857e-001
18641400.000	-7.600488e-001	-6.521951e-001
18647394.000	-7.602269e-001	-6.520282e-001
18653388.000	-7.603806e-001	-6.518859e-001
18659382.000	-7.604960e-001	-6.517350e-001
18665376.000	-7.606368e-001	-6.515548e-001
18671370.000	-7.607358e-001	-6.513775e-001
18677364.000	-7.609005e-001	-6.512082e-001
18683358.000	-7.610330e-001	-6.510785e-001
18689352.000	-7.611427e-001	-6.509018e-001
18695346.000	-7.612469e-001	-6.507364e-001
18701340.000	-7.613977e-001	-6.505547e-001
18707334.000	-7.615157e-001	-6.504145e-001
18713328.000	-7.616700e-001	-6.502968e-001
18719322.000	-7.618336e-001	-6.501325e-001
18725316.000	-7.619693e-001	-6.499431e-001
18731310.000	-7.621080e-001	-6.498353e-001
18737304.000	-7.622391e-001	-6.496575e-001
18743298.000	-7.624070e-001	-6.494626e-001
18749292.000	-7.625113e-001	-6.493995e-001
18755286.000	-7.626592e-001	-6.491803e-001
18761280.000	-7.627501e-001	-6.490014e-001
18767274.000	-7.628529e-001	-6.488462e-001
18773268.000	-7.630262e-001	-6.487008e-001
18779262.000	-7.631626e-001	-6.485161e-001
18785256.000	-7.633403e-001	-6.484027e-001
18791250.000	-7.634954e-001	-6.482353e-001
18797244.000	-7.635904e-001	-6.480933e-001
18803238.000	-7.637183e-001	-6.478812e-001
18809232.000	-7.638407e-001	-6.477121e-001
18815226.000	-7.640067e-001	-6.475723e-001
18821220.000	-7.640918e-001	-6.474362e-001
18827214.000	-7.642794e-001	-6.473172e-001
18833208.000	-7.644287e-001	-6.471401e-001
18839202.000	-7.645277e-001	-6.469466e-001
18845196.000	-7.646351e-001	-6.468083e-001
18851190.000	-7.648036e-001	-6.466269e-001
18857184.000	-7.649174e-001	-6.464863e-001
18863178.000	-7.650579e-001	-6.463429e-001
18869172.000	-7.652000e-001	-6.461760e-001
18875166.000	-7.653309e-001	-6.460179e-001
18881160.000	-7.654483e-001	-6.458439e-001
18887154.000	-7.655629e-001	-6.456383e-001
18893148.000	-7.657575e-001	-6.455802e-001
18899142.000	-7.658409e-001	-6.453771e-001
18905136.000	-7.659675e-001	-6.452699e-001
18911130.000	-7.661273e-001	-6.450653e-001
18917124.000	-7.662594e-001	-6.449539e-001
18923118.000	-7.663929e-001	-6.447507e-001
18929112.000	-7.664978e-001	-6.445931e-001
18935106.000	-7.666281e-001	-6.444448e-001
18941100.000	-7.667692e-001	-6.442896e-001
18947094.000	-7.668573e-001	-6.440943e-001
18953088.000	-7.669658e-001	-6.439667e-001
18959082.000	-7.671385e-001	-6.438074e-001
18965076.000	-7.672717e-001	-6.436645e-001
18971070.000	-7.673842e-001	-6.434649e-001
18977064.000	-7.675187e-001	-6.432940e-001
18983058.000	-7.676638e-001	-6.431313e-001
18989052.000	-7.678101e-001	-6.430624e-001
18995046.000	-7.679341e-001	-6.428306e-001
19001040.000	-7.680259e-001	-6.427393e-001
19007034.000	-7.682700e-001	-6.425710e-001
19013028.000	-7.682954e-001	-6.424263e-001
19019022.000	-7.684893e-001	-6.423044e-001
19025016.000	-7.685672e-001	-6.421217e-001
19031010.000	-7.686981e-001	-6.419309e-001
19037004.000	-7.688230e-001	-6.417933e-001
19042998.000	-7.689772e-001	-6.416041e-001
19048992.000	-7.691393e-001	-6.414445e-001
19054986.000	-7.692063e-001	-6.413554e-001
19060980.000	-7.693397e-001	-6.411551e-001
19066974.000	-7.694505e-001	-6.409976e-001
19072968.000	-7.695780e-001	-6.408511e-001
19078962.000	-7.697320e-001	-6.406750e-001
19084956.000	-7.698434e-001	-6.405127e-001
19090950.000	-7.699878e-001	-6.404002e-001
19096944.000	-7.701297e-001	-6.402426e-001
19102938.000	-7.702018e-001	-6.400510e-001
19108932.000	-7.703983e-001	-6.398924e-001
19114926.000	-7.705128e-001	-6.397641e-001
19120920.000	-7.706432e-001	-6.396656e-001
19126914.000	-7.707103e-001	-6.394460e-001
19132908.000	-7.708938e-001	-6.392786e-001
19138902.000	-7.710497e-001	-6.391617e-001
19144896.000	-7.711611e-001	-6.390087e-001
19150890.000	-7.712948e-001	-6.388445e-001
19156884.000	-7.713731e-001	-6.386894e-001
19162878.000	-7.715114e-001	-6.385052e-001
19168872.000	-7.716701e-001	-6.383810e-001
19174866.000	-7.717997e-001	-6.382295e-001
19180860.000	-7.719578e-001	-6.380891e-001
19186854.000	-7.720903e-001	-6.379496e-001
19192848.000	-7.721494e-001	-6.377202e-001
19198842.000	-7.723032e-001	-6.376610e-001
19204836.000	-7.724609e-001	-6.374683e-001
19210830.000	-7.725562e-001	-6.373165e-001
19216824.000	-7.726847e-001	-6.371432e-001
19222818.000	-7.728045e-001	-6.369757e-001
19228812.000	-7.729021e-001	-6.368197e-001
19234806.000	-7.730870e-001	-6.366518e-001
19240800.000	-7.731720e-001	-6.365327e-001
19246794.000	-7.733283e-001	-6.363530e-001
19252788.000	-7.734634e-001	-6.362415e-001
19258782.000	-7.735514e-001	-6.360741e-001
19264776.000	-7.736742e-001	-6.359149e-001
19270770.000	-7.738511e-001	-6.357715e-001
19276764.000	-7.739519e-001	-6.356293e-001
19282758.000	-7.741383e-001	-6.355043e-001
19288752.000	-7.742312e-001	-6.353028e-001
19294746.000	-7.743704e-001	-6.351554e-001
19300740.000	-7.744667e-001	-6.350185e-001
19306734.000	-7.745675e-001	-6.348791e-001
19312728.000	-7.746842e-001	-6.346927e-001
19318722.000	-7.748068e-001	-6.345492e-001
19324716.000	-7.749515e-001	-6.343680e-001
19330710.000	-7.751056e-001	-6.342458e-001
19336704.000	-7.751803e-001	-6.340839e-001
19342698.000	-7.752982e-001	-6.339102e-001
19348692.000	-7.754092e-001	-6.337897e-001
19354686.000	-7.755317e-001	-6.336290e-001
19360680.000	-7.756778e-001	-6.335008e-001
19366674.000	-7.758436e-001	-6.333475e-001
19372668.000	-7.759421e-001	-6.331522e-001
19378662.000	-7.760761e-001	-6.330236e-001
19384656.000	-7.761706e-001	-6.328768e-001
19390650.000	-7.762539e-001	-6.326560e-001
19396644.000	-7.764155e-001	-6.326071e-001
19402638.000	-7.765441e-001	-6.324484e-001
19408632.000	-7.767063e-001	-6.322586e-001
19414626.000	-7.768449e-001	-6.321555e-001
19420620.000	-7.769533e-001	-6.319244e-001
19426614.000	-7.770991e-001	-6.318419e-001
19432608.000	-7.771975e-001	-6.316647e-001
19438602.000	-7.773154e-001	-6.315037e-001
19444596.000	-7.773833e-001	-6.313999e-001
19450590.000	-7.775726e-001	-6.312565e-001
19456584.000	-7.776196e-001	-6.310258e-001
19462578.000	-7.777798e-001	-6.309026e-001
19468572.000	-7.779446e-001	-6.307546e-001
19474566.000	-7.779697e-001	-6.305744e-001
19480560.000	-7.781281e-001	-6.303905e-001
19486554.000	-7.783005e-001	-6.302653e-001
19492548.000	-7.783903e-001	-6.301530e-001
19498542.000	-7.785375e-001	-6.300106e-001
19504536.000	-7.786401e-001	-6.298622e-001
19510530.000	-7.787620e-001	-6.296974e-001
19516524.000	-7.788959e-001	-6.295702e-001
19522518.000	-7.789948e-001	-6.293430e-001
19528512.000	-7.791428e-001	-6.292592e-001
19534506.000	-7.792518e-001	-6.290883e-001
19540500.000	-7.793688e-001	-6.289654e-001
19546494.000	-7.795144e-001	-6.287722e-001
19552488.000	-7.796394e-001	-6.286741e-001
19558482.000	-7.797463e-001	-6.285101e-001
19564476.000	-7.798447e-001	-6.283444e-001
19570470.000	-7.799898e-001	-6.282102e-001
19576464.000	-7.801198e-001	-6.280364e-001
19582458.000	-7.802088e-001	-6.279049e-001
19588452.000	-7.803253e-001	-6.277697e-001
19594446.000	-7.805026e-001	-6.276056e-001
19600440.000	-7.805912e-001	-6.274655e-001
19606434.000	-7.807252e-001	-6.272461e-001
19612428.000	-7.808062e-001	-6.270927e-001
19618422.000	-7.809486e-001	-6.269935e-001
19624416.000	-7.810537e-001	-6.268161e-001
19630410.000	-7.811443e-001	-6.266658e-001
19636404.000	-7.813058e-001	-6.265314e-001
19642398.000	-7.814385e-001	-6.263807e-001
19648392.000	-7.815316e-001	-6.262389e-001
19654386.000	-7.816684e-001	-6.260867e-001
19660380.000	-7.818013e-001	-6.259379e-001
19666374.000	-7.819018e-001	-6.257827e-001
19672368.000	-7.820153e-001	-6.256352e-001
19678362.000	-7.820878e-001	-6.254637e-001
19684356.000	-7.822557e-001	-6.253580e-001
19690350.000	-7.823313e-001	-6.252234e-001
19696344.000	-7.824650e-001	-6.250265e-001
19702338.000	-7.825990e-001	-6.248518e-001
19708332.000	-7.827448e-001	-6.247511e-001
19714326.000	-7.828215e-001	-6.245497e-001
19720320.000	-7.829895e-001	-6.243840e-001
19726314.000	-7.831129e-001	-6.242967e-001
19732308.000	-7.832020e-001	-6.241708e-001
19738302.000	-7.833544e-001	-6.240519e-001
19744296.000	-7.834619e-001	-6.238590e-001
19750290.000	-7.835853e-001	-6.237607e-001
19756284.000	-7.837012e-001	-6.235578e-001
19762278.000	-7.838321e-001	-6.233956e-001
19768272.000	-7.839351e-001	-6.232543e-001
19774266.000	-7.840240e-001	-6.230989e-001
19780260.000	-7.841432e-001	-6.229252e-001
19786254.000	-7.842328e-001	-6.228320e-001
19792248.000	-7.843968e-001	-6.226511e-001
19798242.000	-7.844760e-001	-6.225672e-001
19804236.000	-7.846291e-001	-6.223651e-001
19810230.000	-7.847423e-001	-6.222383e-001
19816224.000	-7.848560e-001	-6.220406e-001
19822218.000	-7.849478e-001	-6.218809e-001
19828212.000	-7.850742e-001	-6.217979e-001
19834206.000	-7.852061e-001	-6.216211e-001
19840200.000	-7.852829e-001	-6.214717e-001
19846194.000	-7.853839e-001	-6.213024e-001
19852188.000	-7.855216e-001	-6.211828e-001
19858182.000	-7.856726e-001	-6.210154e-001
19864176.000	-7.857607e-001	-6.208958e-001
19870170.000	-7.858840e-001	-6.207369e-001
19876164.000	-7.859911e-001	-6.205843e-001
19882158.000	-7.861433e-001	-6.204632e-001
19888152.000	-7.862045e-001	-6.202893e-001
19894146.000	-7.863856e-001	-6.201333e-001
19900140.000	-7.864898e-001	-6.200540e-001
19906134.000	-7.865985e-001	-6.199044e-001
19912128.000	-7.866178e-001	-6.196814e-001
19918122.000	-7.868445e-001	-6.195383e-001
19924116.000	-7.869354e-001	-6.194250e-001
19930110.000	-7.870690e-001	-6.193057e-001
19936104.000	-7.871640e-001	-6.190936e-001
19942098.000	-7.872749e-001	-6.190047e-001
19948092.000	-7.874174e-001	-6.188377e-001
19954086.000	-7.875167e-001	-6.186867e-001
19960080.000	-7.875622e-001	-6.185544e-001
19966074.000	-7.876968e-001	-6.184324e-001
19972068.000	-7.878034e-001	-6.182445e-001
19978062.000	-7.879693e-001	-6.181504e-001
19984056.000	-7.881336e-001	-6.179258e-001
19990050.000	-7.881592e-001	-6.177862e-001
19996044.000	-7.883129e-001	-6.176764e-001
20002038.000	-7.884498e-001	-6.175290e-001
20008032.000	-7.885519e-001	-6.173862e-001
20014026.000	-7.887058e-001	-6.172233e-001
20020020.000	-7.887781e-001	-6.170903e-001
20026014.000	-7.888748e-001	-6.169153e-001
20032008.000	-7.889593e-001	-6.167287e-001
20038002.000	-7.891487e-001	-6.166482e-001
20043996.000	-7.892210e-001	-6.165275e-001
20049990.000	-7.893735e-001	-6.163407e-001
20055984.000	-7.894867e-001	-6.162174e-001
20061978.000	-7.895688e-001	-6.160521e-001
20067972.000	-7.896571e-001	-6.158952e-001
20073966.000	-7.898022e-001	-6.157937e-001
20079960.000	-7.898904e-001	-6.155841e-001
20085954.000	-7.900395e-001	-6.154750e-001
20091948.000	-7.901037e-001	-6.153358e-001
20097942.000	-7.902616e-001	-6.151730e-001
20103936.000	-7.903536e-001	-6.150086e-001
20109930.000	-7.905271e-001	-6.149598e-001
20115924.000	-7.905726e-001	-6.147551e-001
20121918.000	-7.906697e-001	-6.145649e-001
20127912.000	-7.907850e-001	-6.144226e-001
20133906.000	-7.908822e-001	-6.142573e-001
20139900.000	-7.910032e-001	-6.141631e-001
20145894.000	-7.911223e-001	-6.139895e-001
20151888.000	-7.912684e-001	-6.138914e-001
20157882.000	-7.913978e-001	-6.137521e-001
20163876.000	-7.914932e-001	-6.135718e-001
20169870.000	-7.915680e-001	-6.134368e-001
20175864.000	-7.916569e-001	-6.132662e-001
20181858.000	-7.917818e-001	-6.131499e-001
20187852.000	-7.919206e-001	-6.129809e-001
20193846.000	-7.919652e-001	-6.128178e-001
20199840.000	-7.921246e-001	-6.126528e-001
20205834.000	-7.922565e-001	-6.125756e-001
20211828.000	-7.923736e-001	-6.123631e-001
20217822.000	-7.924498e-001	-6.122754e-001
20223816.000	-7.925539e-001	-6.121087e-001
20229810.000	-7.927320e-001	-6.120225e-001
20235804.000	-7.927853e-001	-6.118199e-001
20241798.000	-7.928903e-001	-6.116868e-001
20247792.000	-7.930328e-001	-6.115225e-001
20253786.000	-7.931185e-001	-6.113992e-001
20259780.000	-7.932307e-001	-6.112975e-001
20265774.000	-7.933386e-001	-6.111489e-001
20271768.000	-7.934721e-001	-6.110138e-001
20277762.000	-7.935793e-001	-6.108415e-001
20283756.000	-7.937470e-001	-6.107239e-001
20289750.000	-7.937809e-001	-6.105315e-001
20295744.000	-7.939482e-001	-6.103986e-001
20301738.000	-7.940446e-001	-6.103363e-001
20307732.000	-7.941310e-001	-6.101111e-001
20313726.000	-7.942483e-001	-6.100194e-001
20319720.000	-7.943454e-001	-6.098544e-001
20325714.000	-7.944583e-001	-6.097595e-001
20331708.000	-7.945934e-001	-6.095980e-001
20337702.000	-7.946976e-001	-6.094284e-001
20343696.000	-7.947806e-001	-6.092823e-001
20349690.000	-7.949444e-001	-6.091830e-001
20355684.000	-7.949632e-001	-6.089752e-001
20361678.000	-7.950992e-001	-6.088746e-001
20367672.000	-7.952260e-001	-6.087254e-001
20373666.000	-7.953221e-001	-6.085802e-001
20379660.000	-7.954582e-001	-6.084244e-001
20385654.000	-7.955394e-001	-6.082866e-001
20391648.000	-7.956213e-001	-6.081219e-001
20397642.000	-7.957296e-001	-6.080174e-001
20403636.000	-7.959184e-001	-6.078769e-001
20409630.000	-7.959616e-001	-6.077139e-001
20415624.000	-7.961407e-001	-6.076011e-001
20421618.000	-7.962152e-001	-6.074553e-001
20427612.000	-7.962549e-001	-6.073183e-001
20433606.000	-7.964571e-001	-6.071669e-001
20439600.000	-7.964954e-001	-6.069905e-001
20445594.000	-7.966499e-001	-6.068716e-001
20451588.000	-7.967165e-001	-6.067438e-001
20457582.000	-7.968367e-001	-6.065503e-001
20463576.000	-7.969430e-001	-6.064309e-001
20469570.000	-7.970555e-001	-6.062760e-001
20475564.000	-7.971872e-001	-6.061738e-001
20481558.000	-7.973011e-001	-6.059596e-001
20487552.000	-7.973845e-001	-6.058840e-001
20493546.000	-7.974722e-001	-6.057205e-001
20499540.000	-7.976179e-001	-6.055951e-001
20505534.000	-7.976133e-001	-6.053854e-001
20511528.000	-7.977899e-001	-6.052320e-001
20517522.000	-7.978965e-001	-6.051326e-001
20523516.000	-7.979903e-001	-6.049920e-001
20529510.000	-7.981400e-001	-6.048910e-001
20535504.000	-7.982188e-001	-6.047785e-001
20541498.000	-7.983282e-001	-6.045813e-001
20547492.000	-7.984197e-001	-6.044965e-001
20553486.000	-7.985374e-001	-6.043278e-001
20559480.000	-7.986491e-001	-6.041580e-001
20565474.000	-7.987265e-001	-6.040058e-001
20571468.000	-7.988751e-001	-6.039161e-001
20577462.000	-7.989663e-001	-6.037199e-001
20583456.000	-7.990438e-001	-6.035978e-001
20589450.000	-7.992020e-001	-6.034991e-001
20595444.000	-7.992965e-001	-6.033073e-001
20601438.000	-7.994071e-001	-6.032343e-001
20607432.000	-7.995168e-001	-6.030402e-001
20613426.000	-7.995642e-001	-6.028896e-001
20619420.000	-7.997234e-001	-6.027354e-001
20625414.000	-7.998174e-001	-6.026421e-001
20631408.000	-7.999041e-001	-6.024766e-001
20637402.000	-8.000219e-001	-6.023648e-001
20643396.000	-8.001852e-001	-6.022231e-001
20649390.000	-8.002618e-001	-6.020417e-001
20655384.000	-8.003568e-001	-6.019295e-001
20661378.000	-8.004325e-001	-6.017657e-001
20667372.000	-8.005246e-001	-6.015937e-001
20673366.000	-8.006867e-001	-6.014567e-001
20679360.000	-8.007318e-001	-6.014006e-001
20685354.000	-8.008617e-001	-6.011721e-001
20691348.000	-8.009488e-001	-6.010781e-001
20697342.000	-8.010432e-001	-6.009122e-001
20703336.000	-8.012013e-001	-6.008119e-001
20709330.000	-8.012931e-001	-6.006525e-001
20715324.000	-8.013284e-001	-6.005296e-001
20721318.000	-8.014659e-001	-6.003932e-001
20727312.000	-8.015715e-001	-6.002399e-001
20733306.000	-8.017044e-001	-6.001572e-001
20739300.000	-8.017800e-001	-5.999646e-001
20745294.000	-8.019409e-001	-5.998429e-001
20751288.000	-8.020439e-001	-5.997095e-001
20757282.000	-8.021236e-001	-5.995229e-001
20763276.000	-8.021604e-001	-5.993572e-001
20769270.000	-8.023123e-001	-5.992589e-001
20775264.000	-8.024248e-001	-5.991290e-001
20781258.000	-8.025026e-001	-5.989273e-001
20787252.000	-8.026344e-001	-5.988665e-001
20793246.000	-8.027093e-001	-5.986956e-001
20799240.000	-8.027927e-001	-5.985627e-001
20805234.000	-8.029177e-001	-5.984383e-001
20811228.000	-8.030177e-001	-5.983063e-001
20817222.000	-8.031103e-001	-5.981431e-001
20823216.000	-8.032266e-001	-5.979993e-001
20829210.000	-8.033306e-001	-5.978919e-001
20835204.000	-8.034622e-001	-5.977502e-001
20841198.000	-8.034914e-001	-5.975759e-001
20847192.000	-8.036297e-001	-5.974600e-001
20853186.000	-8.037124e-001	-5.972295e-001
20859180.000	-8.038066e-001	-5.971509e-001
20865174.000	-8.039528e-001	-5.969968e-001
20871168.000	-8.040713e-001	-5.969028e-001
20877162.000	-8.041672e-001	-5.967513e-001
20883156.000	-8.042379e-001	-5.966601e-001
20889150.000	-8.043317e-001	-5.964884e-001
20895144.000	-8.044398e-001	-5.962954e-001
20901138.000	-8.045739e-001	-5.962176e-001
20907132.000	-8.046625e-001	-5.960460e-001
20913126.000	-8.047566e-001	-5.959335e-001
20919120.000	-8.048521e-001	-5.958247e-001
20925114.000	-8.050049e-001	-5.956595e-001
20931108.000	-8.050632e-001	-5.955424e-001
20937102.000	-8.051558e-001	-5.954001e-001
20943096.000	-8.052686e-001	-5.952582e-001
20949090.000	-8.053315e-001	-5.950577e-001
20955084.000	-8.054644e-001	-5.949858e-001
20961078.000	-8.055400e-001	-5.948261e-001
20967072.000	-8.056548e-001	-5.946731e-001
20973066.000	-8.057939e-001	-5.945623e-001
20979060.000	-8.059051e-001	-5.944867e-001
20985054.000	-8.059594e-001	-5.942726e-001
20991048.000	-8.060845e-001	-5.941536e-001
20997042.000	-8.061988e-001	-5.939947e-001
21003036.000	-8.062673e-001	-5.938456e-001
21009030.000	-8.063543e-001	-5.937435e-001
21015024.000	-8.065130e-001	-5.935964e-001
21021018.000	-8.065583e-001	-5.934838e-001
21027012.000	-8.066724e-001	-5.932801e-001
21033006.000	-8.068019e-001	-5.932016e-001
21039000.000	-8.068798e-001	-5.930671e-001
21044994.000	-8.069693e-001	-5.929217e-001
21050988.000	-8.070521e-001	-5.927728e-001
21056982.000	-8.071899e-001	-5.926899e-001
21062976.000	-8.072947e-001	-5.925118e-001
21068970.000	-8.073080e-001	-5.923666e-001
21074964.000	-8.074831e-001	-5.922366e-001
21080958.000	-8.076150e-001	-5.921257e-001
21086952.000	-8.076642e-001	-5.919545e-001
21092946.000	-8.078225e-001	-5.918688e-001
21098940.000	-8.078275e-001	-5.916841e-001
21104934.000	-8.079493e-001	-5.915186e-001
21110928.000	-8.080427e-001	-5.913834e-001
21116922.000	-8.081356e-001	-5.913154e-001
21122916.000	-8.082612e-001	-5.911868e-001
21128910.000	-8.083362e-001	-5.909866e-001
21134904.000	-8.084511e-001	-5.908336e-001
21140898.000	-8.085435e-001	-5.907436e-001
21146892.000	-8.086194e-001	-5.906155e-001
21152886.000	-8.087286e-001	-5.904116e-001
21158880.000	-8.087927e-001	-5.903021e-001
21164874.000	-8.088847e-001	-5.902065e-001
21170868.000	-8.090563e-001	-5.899974e-001
21176862.000	-8.091193e-001	-5.898739e-001
21182856.000	-8.092852e-001	-5.897572e-001
21188850.000	-8.093252e-001	-5.896585e-001
21194844.000	-8.094566e-001	-5.895382e-001
21200838.000	-8.095078e-001	-5.893586e-001
21206832.000	-8.096299e-001	-5.892428e-001
21212826.000	-8.097761e-001	-5.890988e-001
21218820.000	-8.097928e-001	-5.890001e-001
21224814.000	-8.099508e-001	-5.888921e-001
21230808.000	-8.100880e-001	-5.887577e-001
21236802.000	-8.101090e-001	-5.885442e-001
21242796.000	-8.102519e-001	-5.884388e-001
21248790.000	-8.103468e-001	-5.882971e-001
21254784.000	-8.104454e-001	-5.881633e-001
21260778.000	-8.105228e-001	-5.880258e-001
21266772.000	-8.106280e-001	-5.879186e-001
21272766.000	-8.106915e-001	-5.877755e-001
21278760.000	-8.108451e-001	-5.876522e-001
21284754.000	-8.109018e-001	-5.874889e-001
21290748.000	-8.109723e-001	-5.873804e-001
21296742.000	-8.110990e-001	-5.872273e-001
21302736.000	-8.111770e-001	-5.871030e-001
21308730.000	-8.112997e-001	-5.869609e-001
21314724.000	-8.113660e-001	-5.868334e-001
21320718.000	-8.114595e-001	-5.867053e-001
21326712.000	-8.115604e-001	-5.865209e-001
21332706.000	-8.116600e-001	-5.863804e-001
21338700.000	-8.117772e-001	-5.862727e-001
21344694.000	-8.118805e-001	-5.861666e-001
21350688.000	-8.119642e-001	-5.859823e-001
21356682.000	-8.120095e-001	-5.858650e-001
21362676.000	-8.121716e-001	-5.857717e-001
21368670.000	-8.122236e-001	-5.856030e-001
21374664.000	-8.123407e-001	-5.855087e-001
21380658.000	-8.123890e-001	-5.853390e-001
21386652.000	-8.125390e-001	-5.851980e-001
21392646.000	-8.126581e-001	-5.851291e-001
21398640.000	-8.127142e-001	-5.849508e-001
21404634.000	-8.128169e-001	-5.848033e-001
21410628.000	-8.129064e-001	-5.846997e-001
21416622.000	-8.130176e-001	-5.845692e-001
21422616.000	-8.131018e-001	-5.843853e-001
21428610.000	-8.132078e-001	-5.842607e-001
21434604.000	-8.133498e-001	-5.841621e-001
21440598.000	-8.133668e-001	-5.839972e-001
21446592.000	-8.134890e-001	-5.838360e-001
21452586.000	-8.135741e-001	-5.837080e-001
21458580.000	-8.136392e-001	-5.836048e-001
21464574.000	-8.137462e-001	-5.834149e-001
21470568.000	-8.138491e-001	-5.833309e-001
21476562.000	-8.139138e-001	-5.832003e-001
21482556.000	-8.140871e-001	-5.830853e-001
21488550.000	-8.141224e-001	-5.829342e-001
21494544.000	-8.142007e-001	-5.828348e-001
21500538.000	-8.143337e-001	-5.826512e-001
21506532.000	-8.144165e-001	-5.825432e-001
21512526.000	-8.145529e-001	-5.823984e-001
21518520.000	-8.146109e-001	-5.822735e-001
21524514.000	-8.147126e-001	-5.821503e-001
21530508.000	-8.147764e-001	-5.820011e-001
21536502.000	-8.149312e-001	-5.818697e-001
21542496.000	-8.150109e-001	-5.818005e-001
21548490.000	-8.150378e-001	-5.815978e-001
21554484.000	-8.151624e-001	-5.814786e-001
21560478.000	-8.152550e-001	-5.813432e-001
21566472.000	-8.153786e-001	-5.811829e-001
21572466.000	-8.154486e-001	-5.810563e-001
21578460.000	-8.155430e-001	-5.809686e-001
21584454.000	-8.156355e-001	-5.808544e-001
21590448.000	-8.157446e-001	-5.806941e-001
21596442.000	-8.158289e-001	-5.805826e-001
21602436.000	-8.159368e-001	-5.804250e-001
21608430.000	-8.160393e-001	-5.803211e-001
21614424.000	-8.160990e-001	-5.802079e-001
21620418.000	-8.162262e-001	-5.800645e-001
21626412.000	-8.163056e-001	-5.799494e-001
21632406.000	-8.164037e-001	-5.797818e-001
21638400.000	-8.165042e-001	-5.796499e-001
21644394.000	-8.165561e-001	-5.795320e-001
21650388.000	-8.167067e-001	-5.794006e-001
21656382.000	-8.167301e-001	-5.792401e-001
21662376.000	-8.168407e-001	-5.790507e-001
21668370.000	-8.169550e-001	-5.790027e-001
21674364.000	-8.170498e-001	-5.788591e-001
21680358.000	-8.171354e-001	-5.786810e-001
21686352.000	-8.172082e-001	-5.785901e-001
21692346.000	-8.172883e-001	-5.784405e-001
21698340.000	-8.174324e-001	-5.783292e-001
21704334.000	-8.175238e-001	-5.781859e-001
21710328.000	-8.175763e-001	-5.780275e-001
21716322.000	-8.176938e-001	-5.779613e-001
21722316.000	-8.177148e-001	-5.777747e-001
21728310.000	-8.178316e-001	-5.776261e-001
21734304.000	-8.179710e-001	-5.774785e-001
21740298.000	-8.180440e-001	-5.774262e-001
21746292.000	-8.181446e-001	-5.772718e-001
21752286.000	-8.182257e-001	-5.771205e-001
21758280.000	-8.183387e-001	-5.770094e-001
21764274.000	-8.184453e-001	-5.769337e-001
21770268.000	-8.184699e-001	-5.767899e-001
21776262.000	-8.185340e-001	-5.765801e-001
21782256.000	-8.186589e-001	-5.764672e-001
21788250.000	-8.188173e-001	-5.763562e-001
21794244.000	-8.189008e-001	-5.762921e-001
21800238.000	-8.189398e-001	-5.761069e-001
21806232.000	-8.189697e-001	-5.759730e-001
21812226.000	-8.191317e-001	-5.758273e-001
21818220.000	-8.191581e-001	-5.756838e-001
21824214.000	-8.193554e-001	-5.755703e-001
21830208.000	-8.194247e-001	-5.754466e-001
21836202.000	-8.194686e-001	-5.753428e-001
21842196.000	-8.195569e-001	-5.751934e-001
21848190.000	-8.197263e-001	-5.750958e-001
21854184.000	-8.198224e-001	-5.749431e-001
21860178.000	-8.198563e-001	-5.748182e-001
21866172.000	-8.199998e-001	-5.747162e-001
21872166.000	-8.200455e-001	-5.745244e-001
21878160.000	-8.201217e-001	-5.744216e-001
21884154.000	-8.201775e-001	-5.742487e-001
21890148.000	-8.202921e-001	-5.741852e-001
21896142.000	-8.203931e-001	-5.739783e-001
21902136.000	-8.204891e-001	-5.739114e-001
21908130.000	-8.205506e-001	-5.737200e-001
21914124.000	-8.207021e-001	-5.736064e-001
21920118.000	-8.207634e-001	-5.735200e-001
21926112.000	-8.207623e-001	-5.733874e-001
21932106.000	-8.209738e-001	-5.732435e-001
21938100.000	-8.209693e-001	-5.731302e-001
21944094.000	-8.210665e-001	-5.729639e-001
21950088.000	-8.211690e-001	-5.728913e-001
21956082.000	-8.212888e-001	-5.727121e-001
21962076.000	-8.213543e-001	-5.725565e-001
21968070.000	-8.214466e-001	-5.724250e-001
21974064.000	-8.215643e-001	-5.723685e-001
21980058.000	-8.216395e-001	-5.721916e-001
21986052.000	-8.217392e-001	-5.720847e-001
21992046.000	-8.218000e-001	-5.719432e-001
21998040.000	-8.218820e-001	-5.718241e-001
22004034.000	-8.219848e-001	-5.717021e-001
22010028.000	-8.221173e-001	-5.716053e-001
22016022.000	-8.221660e-001	-5.714045e-001
22022016.000	-8.222286e-001	-5.713149e-001
22028010.000	-8.223483e-001	-5.712415e-001
22034004.000	-8.224691e-001	-5.710765e-001
22039998.000	-8.225234e-001	-5.709814e-001
22045992.000	-8.226076e-001	-5.707910e-001
22051986.000	-8.227150e-001	-5.706888e-001
22057980.000	-8.228625e-001	-5.705674e-001
22063974.000	-8.229199e-001	-5.704532e-001
22069968.000	-8.229649e-001	-5.703222e-001
22075962.000	-8.231070e-001	-5.702095e-001
22081956.000	-8.231673e-001	-5.700489e-001
22087950.000	-8.232605e-001	-5.699012e-001
22093944.000	-8.233451e-001	-5.698203e-001
22099938.000	-8.233895e-001	-5.696762e-001
22105932.000	-8.234952e-001	-5.695436e-001
22111926.000	-8.236068e-001	-5.694007e-001
22117920.000	-8.236695e-001	-5.692764e-001
22123914.000	-8.237591e-001	-5.691809e-001
22129908.000	-8.238427e-001	-5.690129e-001
22135902.000	-8.239852e-001	-5.689053e-001
22141896.000	-8.240049e-001	-5.687274e-001
22147890.000	-8.241075e-001	-5.686699e-001
22153884.000	-8.242345e-001	-5.685207e-001
22159878.000	-8.243174e-001	-5.683978e-001
22165872.000	-8.244042e-001	-5.683241e-001
22171866.000	-8.244523e-001	-5.681420e-001
22177860.000	-8.245671e-001	-5.679888e-001
22183854.000	-8.246215e-001	-5.678689e-001
22189848.000	-8.247312e-001	-5.677489e-001
22195842.000	-8.248564e-001	-5.676484e-001
22201836.000	-8.248917e-001	-5.675204e-001
22207830.000	-8.250114e-001	-5.673859e-001
22213824.000	-8.250295e-001	-5.672475e-001
22219818.000	-8.251785e-001	-5.671476e-001
22225812.000	-8.252463e-001	-5.669848e-001
22231806.000	-8.252797e-001	-5.668549e-001
22237800.000	-8.254989e-001	-5.667727e-001
22243794.000	-8.255145e-001	-5.666119e-001
22249788.000	-8.256131e-001	-5.665122e-001
22255782.000	-8.256854e-001	-5.663993e-001
22261776.000	-8.257909e-001	-5.662123e-001
22267770.000	-8.258507e-001	-5.661492e-001
22273764.000	-8.259755e-001	-5.659817e-001
22279758.000	-8.260368e-001	-5.658144e-001
22285752.000	-8.260924e-001	-5.657644e-001
22291746.000	-8.261549e-001	-5.656094e-001
22297740.000	-8.262670e-001	-5.654944e-001
22303734.000	-8.263368e-001	-5.653340e-001
22309728.000	-8.264820e-001	-5.652338e-001
22315722.000	-8.265457e-001	-5.650812e-001
22321716.000	-8.265997e-001	-5.649562e-001
22327710.000	-8.266709e-001	-5.648530e-001
22333704.000	-8.267851e-001	-5.647242e-001
22339698.000	-8.268538e-001	-5.645789e-001
22345692.000	-8.270105e-001	-5.644920e-001
22351686.000	-8.270480e-001	-5.643675e-001
22357680.000	-8.270912e-001	-5.642226e-001
22363674.000	-8.271651e-001	-5.640830e-001
22369668.000	-8.273322e-001	-5.639751e-001
22375662.000	-8.274002e-001	-5.638643e-001
22381656.000	-8.274863e-001	-5.637041e-001
22387650.000	-8.275713e-001	-5.635982e-001
22393644.000	-8.276363e-001	-5.634848e-001
22399638.000	-8.277427e-001	-5.633402e-001
22405632.000	-8.278124e-001	-5.632281e-001
22411626.000	-8.278858e-001	-5.631141e-001
22417620.000	-8.279778e-001	-5.629276e-001
22423614.000	-8.280570e-001	-5.628861e-001
22429608.000	-8.281276e-001	-5.627739e-001
22435602.000	-8.282671e-001	-5.625603e-001
22441596.000	-8.283251e-001	-5.624867e-001
22447590.000	-8.284118e-001	-5.623821e-001
22453584.000	-8.284523e-001	-5.621823e-001
22459578.000	-8.285813e-001	-5.621384e-001
22465572.000	-8.286104e-001	-5.619647e-001
22471566.000	-8.287366e-001	-5.618543e-001
22477560.000	-8.288352e-001	-5.617409e-001
22483554.000	-8.288935e-001	-5.616181e-001
22489548.000	-8.290064e-001	-5.614983e-001
22495542.000	-8.290496e-001	-5.613609e-001
22501536.000	-8.291232e-001	-5.611935e-001
22507530.000	-8.292487e-001	-5.611560e-001
22513524.000	-8.293545e-001	-5.609970e-001
22519518.000	-8.294001e-001	-5.608526e-001
22525512.000	-8.294753e-001	-5.607324e-001
22531506.000	-8.295903e-001	-5.605920e-001
22537500.000	-8.296041e-001	-5.604860e-001
22543494.000	-8.297086e-001	-5.603302e-001
22549488.000	-8.298171e-001	-5.602144e-001
22555482.000	-8.298772e-001	-5.601145e-001
22561476.000	-8.300071e-001	-5.600169e-001
22567470.000	-8.300312e-001	-5.598510e-001
22573464.000	-8.300948e-001	-5.597365e-001
22579458.000	-8.301869e-001	-5.596031e-001
22585452.000	-8.302698e-001	-5.595187e-001
22591446.000	-8.303667e-001	-5.593562e-001
22597440.000	-8.304563e-001	-5.592577e-001
22603434.000	-8.305221e-001	-5.591460e-001
22609428.000	-8.305816e-001	-5.589997e-001
22615422.000	-8.306853e-001	-5.588513e-001
22621416.000	-8.307968e-001	-5.587427e-001
22627410.000	-8.308942e-001	-5.585945e-001
22633404.000	-8.309854e-001	-5.585459e-001
22639398.000	-8.311003e-001	-5.583669e-001
22645392.000	-8.311428e-001	-5.582241e-001
22651386.000	-8.312439e-001	-5.580984e-001
22657380.000	-8.312392e-001	-5.580244e-001
22663374.000	-8.313407e-001	-5.578729e-001
22669368.000	-8.314454e-001	-5.577551e-001
22675362.000	-8.315144e-001	-5.576243e-001
22681356.000	-8.316196e-001	-5.575137e-001
22687350.000	-8.316582e-001	-5.573866e-001
22693344.000	-8.317987e-001	-5.572289e-001
22699338.000	-8.318493e-001	-5.571421e-001
22705332.000	-8.319285e-001	-5.570151e-001
22711326.000	-8.320211e-001	-5.569031e-001
22717320.000	-8.320935e-001	-5.567655e-001
22723314.000	-8.322021e-001	-5.566445e-001
22729308.000	-8.322675e-001	-5.565344e-001
22735302.000	-8.322819e-001	-5.564346e-001
22741296.000	-8.324083e-001	-5.562997e-001
22747290.000	-8.324963e-001	-5.561554e-001
22753284.000	-8.325938e-001	-5.560451e-001
22759278.000	-8.326501e-001	-5.559436e-001
22765272.000	-8.327930e-001	-5.557588e-001
22771266.000	-8.328398e-001	-5.556846e-001
22777260.000	-8.328841e-001	-5.555697e-001
22783254.000	-8.329628e-001	-5.554626e-001
22789248.000	-8.330548e-001	-5.553676e-001
22795242.000	-8.331456e-001	-5.551987e-001
22801236.000	-8.332365e-001	-5.550915e-001
22807230.000	-8.332800e-001	-5.549219e-001
22813224.000	-8.334236e-001	-5.548587e-001
22819218.000	-8.335061e-001	-5.547314e-001
22825212.000	-8.335587e-001	-5.545863e-001
22831206.000	-8.336404e-001	-5.544115e-001
22837200.000	-8.336903e-001	-5.543414e-001
22843194.000	-8.337592e-001	-5.542195e-001
22849188.000	-8.339309e-001	-5.541153e-001
22855182.000	-8.339608e-001	-5.539810e-001
22861176.000	-8.340326e-001	-5.538662e-001
22867170.000	-8.341729e-001	-5.537702e-001
22873164.000	-8.342317e-001	-5.535774e-001
22879158.000	-8.343164e-001	-5.534605e-001
22885152.000	-8.343721e-001	-5.533479e-001
22891146.000	-8.344159e-001	-5.532620e-001
22897140.000	-8.345027e-001	-5.531180e-001
22903134.000	-8.346384e-001	-5.530765e-001
22909128.000	-8.346917e-001	-5.528955e-001
22915122.000	-8.347504e-001	-5.527775e-001
22921116.000	-8.348640e-001	-5.526435e-001
22927110.000	-8.348836e-001	-5.525419e-001
22933104.000	-8.350003e-001	-5.523357e-001
22939098.000	-8.350848e-001	-5.522313e-001
22945092.000	-8.351827e-001	-5.521407e-001
22951086.000	-8.352508e-001	-5.520351e-001
22957080.000	-8.353262e-001	-5.519383e-001
22963074.000	-8.354085e-001	-5.518230e-001
22969068.000	-8.355107e-001	-5.516526e-001
22975062.000	-8.355845e-001	-5.515612e-001
22981056.000	-8.356038e-001	-5.514405e-001
22987050.000	-8.357566e-001	-5.513383e-001
22993044.000	-8.358086e-001	-5.511994e-001
22999038.000	-8.358778e-001	-5.511319e-001
23005032.000	-8.359454e-001	-5.509181e-001
23011026.000	-8.360094e-001	-5.507864e-001
23017020.000	-8.361269e-001	-5.506676e-001
23023014.000	-8.362020e-001	-5.505366e-001
23029008.000	-8.362705e-001	-5.504862e-001
23035002.000	-8.363449e-001	-5.503256e-001
23040996.000	-8.364073e-001	-5.501486e-001
23046990.000	-8.364932e-001	-5.500422e-001
23052984.000	-8.365131e-001	-5.498793e-001
23058978.000	-8.366320e-001	-5.498145e-001
23064972.000	-8.367759e-001	-5.496941e-001
23070966.000	-8.368074e-001	-5.495323e-001
23076960.000	-8.368460e-001	-5.494415e-001
23082954.000	-8.369703e-001	-5.493182e-001
23088948.000	-8.370338e-001	-5.492072e-001
23094942.000	-8.371322e-001	-5.491165e-001
23100936.000	-8.371474e-001	-5.489319e-001
23106930.000	-8.372901e-001	-5.488680e-001
23112924.000	-8.373692e-001	-5.487211e-001
23118918.000	-8.374301e-001	-5.486020e-001
23124912.000	-8.374921e-001	-5.485261e-001
23130906.000	-8.375970e-001	-5.484031e-001
23136900.000	-8.376273e-001	-5.482477e-001
23142894.000	-8.377733e-001	-5.481096e-001
23148888.000	-8.378512e-001	-5.480209e-001
23154882.000	-8.378551e-001	-5.479122e-001
23160876.000	-8.379858e-001	-5.477664e-001
23166870.000	-8.380514e-001	-5.476798e-001
23172864.000	-8.381746e-001	-5.475567e-001
23178858.000	-8.382441e-001	-5.474649e-001
23184852.000	-8.382669e-001	-5.473175e-001
23190846.000	-8.383901e-001	-5.472289e-001
23196840.000	-8.384115e-001	-5.470488e-001
23202834.000	-8.385466e-001	-5.469803e-001
23208828.000	-8.386357e-001	-5.468825e-001
23214822.000	-8.386669e-001	-5.467236e-001
23220816.000	-8.387626e-001	-5.466293e-001
23226810.000	-8.388475e-001	-5.465351e-001
23232804.000	-8.389135e-001	-5.463609e-001
23238798.000	-8.390099e-001	-5.462314e-001
23244792.000	-8.390536e-001	-5.461211e-001
23250786.000	-8.391602e-001	-5.460660e-001
23256780.000	-8.392449e-001	-5.459204e-001
23262774.000	-8.393149e-001	-5.457554e-001
23268768.000	-8.393703e-001	-5.456903e-001
23274762.000	-8.394464e-001	-5.455012e-001
23280756.000	-8.394906e-001	-5.453873e-001
23286750.000	-8.396423e-001	-5.453433e-001
23292744.000	-8.397066e-001	-5.452097e-001
23298738.000	-8.397551e-001	-5.450991e-001
23304732.000	-8.398885e-001	-5.449919e-001
23310726.000	-8.399204e-001	-5.448786e-001
23316720.000	-8.399611e-001	-5.447198e-001
23322714.000	-8.400471e-001	-5.446073e-001
23328708.000	-8.401421e-001	-5.444787e-001
23334702.000	-8.402273e-001	-5.444196e-001
23340696.000	-8.403005e-001	-5.442781e-001
23346690.000	-8.403310e-001	-5.441452e-001
23352684.000	-8.404090e-001	-5.440158e-001
23358678.000	-8.404983e-001	-5.439342e-001
23364672.000	-8.406146e-001	-5.437789e-001
23370666.000	-8.406487e-001	-5.436540e-001
23376660.000	-8.407155e-001	-5.435677e-001
23382654.000	-8.408436e-001	-5.434452e-001
23388648.000	-8.408511e-001	-5.433184e-001
23394642.000	-8.409682e-001	-5.432071e-001
23400636.000	-8.410447e-001	-5.430513e-001
23406630.000	-8.410799e-001	-5.429353e-001
23412624.000	-8.411889e-001	-5.428277e-001
23418618.000	-8.412431e-001	-5.427523e-001
23424612.000	-8.413857e-001	-5.425713e-001
23430606.000	-8.413947e-001	-5.424463e-001
23436600.000	-8.414856e-001	-5.423643e-001
23442594.000	-8.415381e-001	-5.422243e-001
23448588.000	-8.416378e-001	-5.421280e-001
23454582.000	-8.416738e-001	-5.420239e-001
23460576.000	-8.417740e-001	-5.418783e-001
23466570.000	-8.418502e-001	-5.417602e-001
23472564.000	-8.419410e-001	-5.416872e-001
23478558.000	-8.420518e-001	-5.415181e-001
23484552.000	-8.421109e-001	-5.414113e-001
23490546.000	-8.421968e-001	-5.413523e-001
23496540.000	-8.422353e-001	-5.412177e-001
23502534.000	-8.423099e-001	-5.410826e-001
23508528.000	-8.423769e-001	-5.410210e-001
23514522.000	-8.424713e-001	-5.408530e-001
23520516.000	-8.425051e-001	-5.407739e-001
23526510.000	-8.426300e-001	-5.405924e-001
23532504.000	-8.426537e-001	-5.404972e-001
23538498.000	-8.427534e-001	-5.403210e-001
23544492.000	-8.428372e-001	-5.402746e-001
23550486.000	-8.428735e-001	-5.401633e-001
23556480.000	-8.430002e-001	-5.400588e-001
23562474.000	-8.430378e-001	-5.399021e-001
23568468.000	-8.431134e-001	-5.398153e-001
23574462.000	-8.432361e-001	-5.397448e-001
23580456.000	-8.432975e-001	-5.396080e-001
23586450.000	-8.433538e-001	-5.394026e-001
23592444.000	-8.434977e-001	-5.393844e-001
23598438.000	-8.435315e-001	-5.391996e-001
23604432.000	-8.435546e-001	-5.391140e-001
23610426.000	-8.436337e-001	-5.390166e-001
23616420.000	-8.437237e-001	-5.389229e-001
23622414.000	-8.437854e-001	-5.387789e-001
23628408.000	-8.438562e-001	-5.386784e-001
23634402.000	-8.439342e-001	-5.385367e-001
23640396.000	-8.440348e-001	-5.384134e-001
23646390.000	-8.440957e-001	-5.383435e-001
23652384.000	-8.441914e-001	-5.381791e-001
23658378.000	-8.442942e-001	-5.380934e-001
23664372.000	-8.443184e-001	-5.380018e-001
23670366.000	-8.443685e-001	-5.378214e-001
23676360.000	-8.444349e-001	-5.377337e-001
23682354.000	-8.445733e-001	-5.376403e-001
23688348.000	-8.446415e-001	-5.375560e-001
23694342.000	-8.446816e-001	-5.373924e-001
23700336.000	-8.447524e-001	-5.372767e-001
23706330.000	-8.447974e-001	-5.372177e-001
23712324.000	-8.449170e-001	-5.370834e-001
23718318.000	-8.449994e-001	-5.369177e-001
23724312.000	-8.450458e-001	-5.368317e-001
23730306.000	-8.450804e-001	-5.367271e-001
23736300.000	-8.451890e-001	-5.365671e-001
23742294.000	-8.452948e-001	-5.364921e-001
23748288.000	-8.453193e-001	-5.363764e-001
23754282.000	-8.454174e-001	-5.362890e-001
23760276.000	-8.455074e-001	-5.361387e-001
23766270.000	-8.455772e-001	-5.360753e-001
23772264.000	-8.456386e-001	-5.359255e-001
23778258.000	-8.457304e-001	-5.358430e-001
23784252.000	-8.458210e-001	-5.356695e-001
23790246.000	-8.458481e-001	-5.355647e-001
23796240.000	-8.458446e-001	-5.354642e-001
23802234.000	-8.459475e-001	-5.353646e-001
23808228.000	-8.460533e-001	-5.352468e-001
23814222.000	-8.461207e-001	-5.350743e-001
23820216.000	-8.461357e-001	-5.349759e-001
23826210.000	-8.462809e-001	-5.348613e-001
23832204.000	-8.463168e-001	-5.347353e-001
23838198.000	-8.463938e-001	-5.346548e-001
23844192.000	-8.464719e-001	-5.345263e-001
23850186.000	-8.465496e-001	-5.344314e-001
23856180.000	-8.466268e-001	-5.343155e-001
23862174.000	-8.466771e-001	-5.341388e-001
23868168.000	-8.467762e-001	-5.340696e-001
23874162.000	-8.467991e-001	-5.339887e-001
23880156.000	-8.469105e-001	-5.338343e-001
23886150.000	-8.469733e-001	-5.336938e-001
23892144.000	-8.470133e-001	-5.336215e-001
23898138.000	-8.470638e-001	-5.335363e-001
23904132.000	-8.471549e-001	-5.334098e-001
23910126.000	-8.472589e-001	-5.332429e-001
23916120.000	-8.473304e-001	-5.331773e-001
23922114.000	-8.473423e-001	-5.330405e-001
23928108.000	-8.474825e-001	-5.329240e-001
23934102.000	-8.475046e-001	-5.327994e-001
23940096.000	-8.476211e-001	-5.326966e-001
23946090.000	-8.476422e-001	-5.325433e-001
23952084.000	-8.477438e-001	-5.325212e-001
23958078.000	-8.478443e-001	-5.323541e-001
23964072.000	-8.479017e-001	-5.322688e-001
23970066.000	-8.479710e-001	-5.321133e-001
23976060.000	-8.480913e-001	-5.320348e-001
23982054.000	-8.481254e-001	-5.319475e-001
23988048.000	-8.481703e-001	-5.318018e-001
23994042.000	-8.482704e-001	-5.317261e-001
24000036.000	-8.483422e-001	-5.316645e-001
24006030.000	-8.484329e-001	-5.314684e-001
24012024.000	-8.485445e-001	-5.313819e-001
24018018.000	-8.485837e-001	-5.312189e-001
24024012.000	-8.486054e-001	-5.311381e-001
24030006.000	-8.486845e-001	-5.309971e-001
24036000.000	-8.487723e-001	-5.308960e-001
24041994.000	-8.488754e-001	-5.308430e-001
24047988.000	-8.488858e-001	-5.306882e-001
24053982.000	-8.489955e-001	-5.305794e-001
24059976.000	-8.490373e-001	-5.304719e-001
24065970.000	-8.490909e-001	-5.303565e-001
24071964.000	-8.492162e-001	-5.302355e-001
24077958.000	-8.492673e-001	-5.301701e-001
24083952.000	-8.493218e-001	-5.299874e-001
24089946.000	-8.494098e-001	-5.299091e-001
24095940.000	-8.494269e-001	-5.297701e-001
24101934.000	-8.495256e-001	-5.296660e-001
24107928.000	-8.495702e-001	-5.295375e-001
24113922.000	-8.496204e-001	-5.294776e-001
24119916.000	-8.496906e-001	-5.293143e-001
24125910.000	-8.498149e-001	-5.291970e-001
24131904.000	-8.498416e-001	-5.290921e-001
24137898.000	-8.499396e-001	-5.290173e-001
24143892.000	-8.500077e-001	-5.288939e-001
24149886.000	-8.501090e-001	-5.287560e-001
24155880.000	-8.501329e-001	-5.286416e-001
24161874.000	-8.502134e-001	-5.285418e-001
24167868.000	-8.503018e-001	-5.284603e-001
24173862.000	-8.503855e-001	-5.283602e-001
24179856.000	-8.504243e-001	-5.282481e-001
24185850.000	-8.505168e-001	-5.281988e-001
24191844.000	-8.505489e-001	-5.279921e-001
24197838.000	-8.506552e-001	-5.279075e-001
24203832.000	-8.507056e-001	-5.277864e-001
24209826.000	-8.507972e-001	-5.277439e-001
24215820.000	-8.508153e-001	-5.275706e-001
24221814.000	-8.508949e-001	-5.275008e-001
24227808.000	-8.510238e-001	-5.273411e-001
24233802.000	-8.510579e-001	-5.272296e-001
24239796.000	-8.511619e-001	-5.271177e-001
24245790.000	-8.511862e-001	-5.270695e-001
24251784.000	-8.512595e-001	-5.268753e-001
24257778.000	-8.514131e-001	-5.267458e-001
24263772.000	-8.513743e-001	-5.266433e-001
24269766.000	-8.514809e-001	-5.265778e-001
24275760.000	-8.514802e-001	-5.264639e-001
24281754.000	-8.516160e-001	-5.263518e-001
24287748.000	-8.516441e-001	-5.262160e-001
24293742.000	-8.517295e-001	-5.261163e-001
24299736.000	-8.517754e-001	-5.259987e-001
24305730.000	-8.518544e-001	-5.259090e-001
24311724.000	-8.519230e-001	-5.257572e-001
24317718.000	-8.519627e-001	-5.256218e-001
24323712.000	-8.521110e-001	-5.255621e-001
24329706.000	-8.521184e-001	-5.254804e-001
24335700.000	-8.522401e-001	-5.253527e-001
24341694.000	-8.522915e-001	-5.252208e-001
24347688.000	-8.523641e-001	-5.250768e-001
24353682.000	-8.524503e-001	-5.250555e-001
24359676.000	-8.525020e-001	-5.248790e-001
24365670.000	-8.525476e-001	-5.248014e-001
24371664.000	-8.526088e-001	-5.246917e-001
24377658.000	-8.526610e-001	-5.245589e-001
24383652.000	-8.527802e-001	-5.244529e-001
24389646.000	-8.528189e-001	-5.243717e-001
24395640.000	-8.529579e-001	-5.242107e-001
24401634.000	-8.529169e-001	-5.240997e-001
24407628.000	-8.530363e-001	-5.240046e-001
24413622.000	-8.530832e-001	-5.238503e-001
24419616.000	-8.531099e-001	-5.237933e-001
24425610.000	-8.532253e-001	-5.237165e-001
24431604.000	-8.533034e-001	-5.235922e-001
24437598.000	-8.533548e-001	-5.234974e-001
24443592.000	-8.534205e-001	-5.233584e-001
24449586.000	-8.534913e-001	-5.233107e-001
24455580.000	-8.535191e-001	-5.231618e-001
24461574.000	-8.536524e-001	-5.230329e-001
24467568.000	-8.536786e-001	-5.229544e-001
24473562.000	-8.537599e-001	-5.228008e-001
24479556.000	-8.538285e-001	-5.227214e-001
24485550.000	-8.538681e-001	-5.225809e-001
24491544.000	-8.539964e-001	-5.224802e-001
24497538.000	-8.540510e-001	-5.224244e-001
24503532.000	-8.540991e-001	-5.222758e-001
24509526.000	-8.541712e-001	-5.221179e-001
24515520.000	-8.541696e-001	-5.220544e-001
24521514.000	-8.543174e-001	-5.219711e-001
24527508.000	-8.543194e-001	-5.218251e-001
24533502.000	-8.544299e-001	-5.217207e-001
24539496.000	-8.544909e-001	-5.216524e-001
24545490.000	-8.545787e-001	-5.215215e-001
24551484.000	-8.546150e-001	-5.213977e-001
24557478.000	-8.546533e-001	-5.212724e-001
24563472.000	-8.547808e-001	-5.211628e-001
24569466.000	-8.548411e-001	-5.210570e-001
24575460.000	-8.549011e-001	-5.209449e-001
24581454.000	-8.549335e-001	-5.208519e-001
24587448.000	-8.550177e-001	-5.207664e-001
24593442.000	-8.551119e-001	-5.206377e-001
24599436.000	-8.551377e-001	-5.204768e-001
24605430.000	-8.552077e-001	-5.204458e-001
24611424.000	-8.552792e-001	-5.202678e-001
24617418.000	-8.553476e-001	-5.202013e-001
24623412.000	-8.554594e-001	-5.201024e-001
24629406.000	-8.555073e-001	-5.200035e-001
24635400.000	-8.555566e-001	-5.198563e-001
24641394.000	-8.556038e-001	-5.197893e-001
24647388.000	-8.556573e-001	-5.196077e-001
24653382.000	-8.557173e-001	-5.195034e-001
24659376.000	-8.557999e-001	-5.194236e-001
24665370.000	-8.558570e-001	-5.192629e-001
24671364.000	-8.559481e-001	-5.192337e-001
24677358.000	-8.560406e-001	-5.191457e-001
24683352.000	-8.560356e-001	-5.190039e-001
24689346.000	-8.561288e-001	-5.188801e-001
24695340.000	-8.562100e-001	-5.187648e-001
24701334.000	-8.563077e-001	-5.186830e-001
24707328.000	-8.563243e-001	-5.185887e-001
24713322.000	-8.563855e-001	-5.184906e-001
24719316.000	-8.564423e-001	-5.183028e-001
24725310.000	-8.565202e-001	-5.182465e-001
24731304.000	-8.565881e-001	-5.181152e-001
24737298.000	-8.566405e-001	-5.180323e-001
24743292.000	-8.566769e-001	-5.179011e-001
24749286.000	-8.567470e-001	-5.178721e-001
24755280.000	-8.568350e-001	-5.176576e-001
24761274.000	-8.568915e-001	-5.175984e-001
24767268.000	-8.569250e-001	-5.174916e-001
24773262.000	-8.570070e-001	-5.173939e-001
24779256.000	-8.570690e-001	-5.172413e-001
24785250.000	-8.571207e-001	-5.171480e-001
24791244.000	-8.572119e-001	-5.170527e-001
24797238.000	-8.572946e-001	-5.169528e-001
24803232.000	-8.573974e-001	-5.168669e-001
24809226.000	-8.574367e-001	-5.167884e-001
24815220.000	-8.574681e-001	-5.165853e-001
24821214.000	-8.575578e-001	-5.165412e-001
24827208.000	-8.576123e-001	-5.164071e-001
24833202.000	-8.576667e-001	-5.162920e-001
24839196.000	-8.577492e-001	-5.161891e-001
24845190.000	-8.578210e-001	-5.160822e-001
24851184.000	-8.579109e-001	-5.159732e-001
24857178.000	-8.579759e-001	-5.158786e-001
24863172.000	-8.580396e-001	-5.158012e-001
24869166.000	-8.581216e-001	-5.156527e-001
24875160.000	-8.581337e-001	-5.155763e-001
24881154.000	-8.581525e-001	-5.154926e-001
24887148.000	-8.582471e-001	-5.153578e-001
24893142.000	-8.582901e-001	-5.152200e-001
24899136.000	-8.583737e-001	-5.151238e-001
24905130.000	-8.584347e-001	-5.149878e-001
24911124.000	-8.584783e-001	-5.149093e-001
24917118.000	-8.585217e-001	-5.148478e-001
24923112.000	-8.586480e-001	-5.147111e-001
24929106.000	-8.586990e-001	-5.145628e-001
24935100.000	-8.588031e-001	-5.144856e-001
24941094.000	-8.589091e-001	-5.143436e-001
24947088.000	-8.589760e-001	-5.143090e-001
24953082.000	-8.589754e-001	-5.141732e-001
24959076.000	-8.590221e-001	-5.140462e-001
24965070.000	-8.591084e-001	-5.139294e-001
24971064.000	-8.591714e-001	-5.138192e-001
24977058.000	-8.592191e-001	-5.137292e-001
24983052.000	-8.592711e-001	-5.136379e-001
24989046.000	-8.593554e-001	-5.135178e-001
24995040.000	-8.594123e-001	-5.134169e-001
25001034.000	-8.594485e-001	-5.133376e-001
25007028.000	-8.595189e-001	-5.132072e-001
25013022.000	-8.596336e-001	-5.130889e-001
25019016.000	-8.596893e-001	-5.130519e-001
25025010.000	-8.597219e-001	-5.128745e-001
25031004.000	-8.597124e-001	-5.127856e-001
25036998.000	-8.598320e-001	-5.126889e-001
25042992.000	-8.599163e-001	-5.126010e-001
25048986.000	-8.600240e-001	-5.125101e-001
25054980.000	-8.600565e-001	-5.123956e-001
25060974.000	-8.601166e-001	-5.122557e-001
25066968.000	-8.600971e-001	-5.121451e-001
25072962.000	-8.602141e-001	-5.120525e-001
25078956.000	-8.602568e-001	-5.119768e-001
25084950.000	-8.603621e-001	-5.118821e-001
25090944.000	-8.604331e-001	-5.117545e-001
25096938.000	-8.604244e-001	-5.115971e-001
25102932.000	-8.605568e-001	-5.115391e-001
25108926.000	-8.606206e-001	-5.114324e-001
25114920.000	-8.606362e-001	-5.113359e-001
25120914.000	-8.606565e-001	-5.112129e-001
25126908.000	-8.607825e-001	-5.111122e-001
25132902.000	-8.608872e-001	-5.110410e-001
25138896.000	-8.609134e-001	-5.109181e-001
25144890.000	-8.609775e-001	-5.108008e-001
25150884.000	-8.610351e-001	-5.107015e-001
25156878.000	-8.611111e-001	-5.105927e-001
25162872.000	-8.611350e-001	-5.105088e-001
25168866.000	-8.611838e-001	-5.103893e-001
25174860.000	-8.612750e-001	-5.102830e-001
25180854.000	-8.613466e-001	-5.100941e-001
25186848.000	-8.614107e-001	-5.100741e-001
25192842.000	-8.614266e-001	-5.100002e-001
25198836.000	-8.615515e-001	-5.098519e-001
25204830.000	-8.615988e-001	-5.097683e-001
25210824.000	-8.616183e-001	-5.096313e-001
25216818.000	-8.616985e-001	-5.095376e-001
25222812.000	-8.617561e-001	-5.094171e-001
25228806.000	-8.618558e-001	-5.093433e-001
25234800.000	-8.618873e-001	-5.092308e-001
25240794.000	-8.619362e-001	-5.091495e-001
25246788.000	-8.619543e-001	-5.090499e-001
25252782.000	-8.621013e-001	-5.089107e-001
25258776.000	-8.621672e-001	-5.088324e-001
25264770.000	-8.622097e-001	-5.087483e-001
25270764.000	-8.622704e-001	-5.086167e-001
25276758.000	-8.623358e-001	-5.085361e-001
25282752.000	-8.624327e-001	-5.083871e-001
25288746.000	-8.624400e-001	-5.082784e-001
25294740.000	-8.625485e-001	-5.081806e-001
25300734.000	-8.626010e-001	-5.080972e-001
25306728.000	-8.626103e-001	-5.079637e-001
25312722.000	-8.626801e-001	-5.078181e-001
25318716.000	-8.626977e-001	-5.077685e-001
25324710.000	-8.628076e-001	-5.076800e-001
25330704.000	-8.628516e-001	-5.075420e-001
25336698.000	-8.629103e-001	-5.074237e-001
25342692.000	-8.630191e-001	-5.073744e-001
25348686.000	-8.630871e-001	-5.072512e-001
25354680.000	-8.631055e-001	-5.071799e-001
25360674.000	-8.631429e-001	-5.070253e-001
25366668.000	-8.632148e-001	-5.068959e-001
25372662.000	-8.632822e-001	-5.068333e-001
25378656.000	-8.633529e-001	-5.067399e-001
25384650.000	-8.634242e-001	-5.065722e-001
25390644.000	-8.634755e-001	-5.065148e-001
25396638.000	-8.635291e-001	-5.064124e-001
25402632.000	-8.636093e-001	-5.062739e-001
25408626.000	-8.636455e-001	-5.062089e-001
25414620.000	-8.636620e-001	-5.061264e-001
25420614.000	-8.637474e-001	-5.060010e-001
25426608.000	-8.638262e-001	-5.059049e-001
25432602.000	-8.638954e-001	-5.057855e-001
25438596.000	-8.639977e-001	-5.057121e-001
25444590.000	-8.639886e-001	-5.055461e-001
25450584.000	-8.640989e-001	-5.054878e-001
25456578.000	-8.641435e-001	-5.053666e-001
25462572.000	-8.642153e-001	-5.052978e-001
25468566.000	-8.642839e-001	-5.051544e-001
25474560.000	-8.643585e-001	-5.051084e-001
25480554.000	-8.644134e-001	-5.049613e-001
25486548.000	-8.644673e-001	-5.049424e-001
25492542.000	-8.645168e-001	-5.047850e-001
25498536.000	-8.645562e-001	-5.047014e-001
25504530.000	-8.646318e-001	-5.045010e-001
25510524.000	-8.646660e-001	-5.045053e-001
25516518.000	-8.647432e-001	-5.043807e-001
25522512.000	-8.648442e-001	-5.043162e-001
25528506.000	-8.648483e-001	-5.041681e-001
25534500.000	-8.649385e-001	-5.040593e-001
25540494.000	-8.650144e-001	-5.040045e-001
25546488.000	-8.650084e-001	-5.039043e-001
25552482.000	-8.651241e-001	-5.037233e-001
25558476.000	-8.651854e-001	-5.036472e-001
25564470.000	-8.652428e-001	-5.035519e-001
25570464.000	-8.652754e-001	-5.034356e-001
25576458.000	-8.653198e-001	-5.033268e-001
25582452.000	-8.653727e-001	-5.032471e-001
25588446.000	-8.654655e-001	-5.031484e-001
25594440.000	-8.655603e-001	-5.030211e-001
25600434.000	-8.655185e-001	-5.029463e-001
25606428.000	-8.655573e-001	-5.028251e-001
25612422.000	-8.656164e-001	-5.027238e-001
25618416.000	-8.656877e-001	-5.025733e-001
25624410.000	-8.657099e-001	-5.024868e-001
25630404.000	-8.657380e-001	-5.023431e-001
25636398.000	-8.658425e-001	-5.022763e-001
25642392.000	-8.659107e-001	-5.021870e-001
25648386.000	-8.659971e-001	-5.020657e-001
25654380.000	-8.660702e-001	-5.019516e-001
25660374.000	-8.661269e-001	-5.018977e-001
25666368.000	-8.661273e-001	-5.017431e-001
25672362.000	-8.661900e-001	-5.016332e-001
25678356.000	-8.662784e-001	-5.016087e-001
25684350.000	-8.663410e-001	-5.014847e-001
25690344.000	-8.663668e-001	-5.013671e-001
25696338.000	-8.664379e-001	-5.012501e-001
25702332.000	-8.664911e-001	-5.011569e-001
25708326.000	-8.665787e-001	-5.010580e-001
25714320.000	-8.666352e-001	-5.009809e-001
25720314.000	-8.666970e-001	-5.008844e-001
25726308.000	-8.667308e-001	-5.008078e-001
25732302.000	-8.667959e-001	-5.006575e-001
25738296.000	-8.668251e-001	-5.005678e-001
25744290.000	-8.669145e-001	-5.004749e-001
25750284.000	-8.669757e-001	-5.003655e-001
25756278.000	-8.669895e-001	-5.002506e-001
25762272.000	-8.670724e-001	-5.001680e-001
25768266.000	-8.671846e-001	-5.000310e-001
25774260.000	-8.672050e-001	-4.999723e-001
25780254.000	-8.672872e-001	-4.998198e-001
25786248.000	-8.673129e-001	-4.997465e-001
25792242.000	-8.673562e-001	-4.996313e-001
25798236.000	-8.674444e-001	-4.995271e-001
25804230.000	-8.674693e-001	-4.994399e-001
25810224.000	-8.675258e-001	-4.993139e-001
25816218.000	-8.675883e-001	-4.992592e-001
25822212.000	-8.676725e-001	-4.991600e-001
25828206.000	-8.677290e-001	-4.990760e-001
25834200.000	-8.678496e-001	-4.989429e-001
25840194.000	-8.679054e-001	-4.988619e-001
25846188.000	-8.678965e-001	-4.987613e-001
25852182.000	-8.679468e-001	-4.986288e-001
25858176.000	-8.679657e-001	-4.985047e-001
25864170.000	-8.680956e-001	-4.984251e-001
25870164.000	-8.680974e-001	-4.983479e-001
25876158.000	-8.681637e-001	-4.982334e-001
25882152.000	-8.682373e-001	-4.981013e-001
25888146.000	-8.683215e-001	-4.980327e-001
25894140.000	-8.683370e-001	-4.979478e-001
25900134.000	-8.684401e-001	-4.978849e-001
25906128.000	-8.684307e-001	-4.977143e-001
25912122.000	-8.685608e-001	-4.976409e-001
25918116.000	-8.685995e-001	-4.975435e-001
25924110.000	-8.686151e-001	-4.974270e-001
25930104.000	-8.687202e-001	-4.972749e-001
25936098.000	-8.687887e-001	-4.972092e-001
25942092.000	-8.688471e-001	-4.971327e-001
25948086.000	-8.688369e-001	-4.970348e-001
25954080.000	-8.688990e-001	-4.969106e-001
25960074.000	-8.689578e-001	-4.968178e-001
25966068.000	-8.690350e-001	-4.966976e-001
25972062.000	-8.690649e-001	-4.966378e-001
25978056.000	-8.690662e-001	-4.964589e-001
25984050.000	-8.692056e-001	-4.964618e-001
25990044.000	-8.692777e-001	-4.963115e-001
25996038.000	-8.692634e-001	-4.962294e-001
26002032.000	-8.693267e-001	-4.960777e-001
26008026.000	-8.694339e-001	-4.960163e-001
26014020.000	-8.694953e-001	-4.959490e-001
26020014.000	-8.695297e-001	-4.958431e-001
26026008.000	-8.695643e-001	-4.957213e-001
26032002.000	-8.696219e-001	-4.956400e-001
26037996.000	-8.697377e-001	-4.955676e-001
26043990.000	-8.697074e-001	-4.954014e-001
26049984.000	-8.698024e-001	-4.953407e-001
26055978.000	-8.699249e-001	-4.952348e-001
26061972.000	-8.699462e-001	-4.951472e-001
26067966.000	-8.700141e-001	-4.950507e-001
26073960.000	-8.700685e-001	-4.949602e-001
26079954.000	-8.701145e-001	-4.948195e-001
26085948.000	-8.701826e-001	-4.947411e-001
26091942.000	-8.702452e-001	-4.946712e-001
26097936.000	-8.703128e-001	-4.946004e-001
26103930.000	-8.703418e-001	-4.944158e-001
26109924.000	-8.703772e-001	-4.943549e-001
26115918.000	-8.704057e-001	-4.942442e-001
26121912.000	-8.705328e-001	-4.941781e-001
26127906.000	-8.705125e-001	-4.940440e-001
26133900.000	-8.706075e-001	-4.939425e-001
26139894.000	-8.706599e-001	-4.938339e-001
26145888.000	-8.707176e-001	-4.937678e-001
26151882.000	-8.708032e-001	-4.936571e-001
26157876.000	-8.708396e-001	-4.936122e-001
26163870.000	-8.708999e-001	-4.935139e-001
26169864.000	-8.709432e-001	-4.933659e-001
26175858.000	-8.710109e-001	-4.933076e-001
26181852.000	-8.710731e-001	-4.932072e-001
26187846.000	-8.711892e-001	-4.930914e-001
26193840.000	-8.711759e-001	-4.929926e-001
26199834.000	-8.712092e-001	-4.928844e-001
26205828.000	-8.712912e-001	-4.927325e-001
26211822.000	-8.713255e-001	-4.926665e-001
26217816.000	-8.713700e-001	-4.926106e-001
26223810.000	-8.714535e-001	-4.925142e-001
26229804.000	-8.715253e-001	-4.923750e-001
26235798.000	-8.715564e-001	-4.922879e-001
26241792.000	-8.715839e-001	-4.921706e-001
26247786.000	-8.716462e-001	-4.921020e-001
26253780.000	-8.717277e-001	-4.919617e-001
26259774.000	-8.717997e-001	-4.918607e-001
26265768.000	-8.718164e-001	-4.918321e-001
26271762.000	-8.718821e-001	-4.916937e-001
26277756.000	-8.719415e-001	-4.916240e-001
26283750.000	-8.720199e-001	-4.915405e-001
26289744.000	-8.720285e-001	-4.914035e-001
26295738.000	-8.720793e-001	-4.912982e-001
26301732.000	-8.721912e-001	-4.911652e-001
26307726.000	-8.722113e-001	-4.910961e-001
26313720.000	-8.722666e-001	-4.909884e-001
26319714.000	-8.723036e-001	-4.909348e-001
26325708.000	-8.723624e-001	-4.908554e-001
26331702.000	-8.723702e-001	-4.907217e-001
26337696.000	-8.724945e-001	-4.906478e-001
26343690.000	-8.725157e-001	-4.904918e-001
26349684.000	-8.726072e-001	-4.904019e-001
26355678.000	-8.727031e-001	-4.903263e-001
26361672.000	-8.726645e-001	-4.902427e-001
26367666.000	-8.727038e-001	-4.901070e-001
26373660.000	-8.727746e-001	-4.900112e-001
26379654.000	-8.728344e-001	-4.899233e-001
26385648.000	-8.728403e-001	-4.898305e-001
26391642.000	-8.729883e-001	-4.896992e-001
26397636.000	-8.730139e-001	-4.896530e-001
26403630.000	-8.730929e-001	-4.895574e-001
26409624.000	-8.731647e-001	-4.894840e-001
26415618.000	-8.732287e-001	-4.893632e-001
26421612.000	-8.732708e-001	-4.892559e-001
26427606.000	-8.732862e-001	-4.891850e-001
26433600.000	-8.733765e-001	-4.890838e-001
26439594.000	-8.734139e-001	-4.889332e-001
26445588.000	-8.735260e-001	-4.888575e-001
26451582.000	-8.735128e-001	-4.888218e-001
26457576.000	-8.735962e-001	-4.886723e-001
26463570.000	-8.736596e-001	-4.885184e-001
26469564.000	-8.736939e-001	-4.884924e-001
26475558.000	-8.738034e-001	-4.883958e-001
26481552.000	-8.738115e-001	-4.883428e-001
26487546.000	-8.738656e-001	-4.882242e-001
26493540.000	-8.739135e-001	-4.880869e-001
26499534.000	-8.739635e-001	-4.880150e-001
26505528.000	-8.740097e-001	-4.878938e-001
26511522.000	-8.740318e-001	-4.878459e-001
26517516.000	-8.741114e-001	-4.876881e-001
26523510.000	-8.741339e-001	-4.876482e-001
26529504.000	-8.742139e-001	-4.875116e-001
26535498.000	-8.743204e-001	-4.874195e-001
26541492.000	-8.743082e-001	-4.873294e-001
26547486.000	-8.743370e-001	-4.872421e-001
26553480.000	-8.744350e-001	-4.871467e-001
26559474.000	-8.745378e-001	-4.870173e-001
26565468.000	-8.745812e-001	-4.869641e-001
26571462.000	-8.746096e-001	-4.868074e-001
26577456.000	-8.746090e-001	-4.866966e-001
26583450.000	-8.746985e-001	-4.865944e-001
26589444.000	-8.747771e-001	-4.865686e-001
26595438.000	-8.747937e-001	-4.864519e-001
26601432.000	-8.748483e-001	-4.864109e-001
26607426.000	-8.749191e-001	-4.863061e-001
26613420.000	-8.750153e-001	-4.861575e-001
26619414.000	-8.750311e-001	-4.861030e-001
26625408.000	-8.750928e-001	-4.859717e-001
26631402.000	-8.751057e-001	-4.858568e-001
26637396.000	-8.751791e-001	-4.858226e-001
26643390.000	-8.752344e-001	-4.856918e-001
26649384.000	-8.751890e-001	-4.856000e-001
26655378.000	-8.752896e-001	-4.854322e-001
26661372.000	-8.753242e-001	-4.854163e-001
26667366.000	-8.754043e-001	-4.853086e-001
26673360.000	-8.755016e-001	-4.852179e-001
26679354.000	-8.754991e-001	-4.851073e-001
26685348.000	-8.755928e-001	-4.850028e-001
26691342.000	-8.756911e-001	-4.849094e-001
26697336.000	-8.756959e-001	-4.848560e-001
26703330.000	-8.757539e-001	-4.847245e-001
26709324.000	-8.757414e-001	-4.846244e-001
26715318.000	-8.758461e-001	-4.845387e-001
26721312.000	-8.758362e-001	-4.844034e-001
26727306.000	-8.759336e-001	-4.842858e-001
26733300.000	-8.760089e-001	-4.842077e-001
26739294.000	-8.760508e-001	-4.841144e-001
26745288.000	-8.760859e-001	-4.840335e-001
26751282.000	-8.761603e-001	-4.839447e-001
26757276.000	-8.762121e-001	-4.838576e-001
26763270.000	-8.762988e-001	-4.837203e-001
26769264.000	-8.763588e-001	-4.836902e-001
26775258.000	-8.763482e-001	-4.835191e-001
26781252.000	-8.764350e-001	-4.835121e-001
26787246.000	-8.764386e-001	-4.834302e-001
26793240.000	-8.766048e-001	-4.833218e-001
26799234.000	-8.766075e-001	-4.832218e-001
26805228.000	-8.766363e-001	-4.831334e-001
26811222.000	-8.766938e-001	-4.829846e-001
26817216.000	-8.767067e-001	-4.828883e-001
26823210.000	-8.767681e-001	-4.828342e-001
26829204.000	-8.768675e-001	-4.827590e-001
26835198.000	-8.769362e-001	-4.826359e-001
26841192.000	-8.769701e-001	-4.825613e-001
26847186.000	-8.769832e-001	-4.824104e-001
26853180.000	-8.770789e-001	-4.823245e-001
26859174.000	-8.770992e-001	-4.822222e-001
26865168.000	-8.771516e-001	-4.821636e-001
26871162.000	-8.772374e-001	-4.820874e-001
26877156.000	-8.772374e-001	-4.819549e-001
26883150.000	-8.772968e-001	-4.818654e-001
26889144.000	-8.773858e-001	-4.817926e-001
26895138.000	-8.774027e-001	-4.816810e-001
26901132.000	-8.774471e-001	-4.816135e-001
26907126.000	-8.774869e-001	-4.814647e-001
26913120.000	-8.775876e-001	-4.813522e-001
26919114.000	-8.775898e-001	-4.812794e-001
26925108.000	-8.776545e-001	-4.812156e-001
26931102.000	-8.777349e-001	-4.811544e-001
26937096.000	-8.777376e-001	-4.810080e-001
26943090.000	-8.778005e-001	-4.808976e-001
26949084.000	-8.778360e-001	-4.807960e-001
26955078.000	-8.779109e-001	-4.807243e-001
26961072.000	-8.779810e-001	-4.806340e-001
26967066.000	-8.780247e-001	-4.805520e-001
26973060.000	-8.780847e-001	-4.804625e-001
26979054.000	-8.780666e-001	-4.804015e-001
26985048.000	-8.782063e-001	-4.802563e-001
26991042.000	-8.781963e-001	-4.801515e-001
26997036.000	-8.782714e-001	-4.800667e-001
27003030.000	-8.782891e-001	-4.799717e-001
27009024.000	-8.783507e-001	-4.798904e-001
27015018.000	-8.784198e-001	-4.798275e-001
27021012.000	-8.784603e-001	-4.796743e-001
27027006.000	-8.785239e-001	-4.796124e-001
27033000.000	-8.786209e-001	-4.795283e-001
27038994.000	-8.785872e-001	-4.794093e-001
27044988.000	-8.786553e-001	-4.792892e-001
27050982.000	-8.786929e-001	-4.792108e-001
27056976.000	-8.787896e-001	-4.791454e-001
27062970.000	-8.787887e-001	-4.790152e-001
27068964.000	-8.788747e-001	-4.789565e-001
27074958.000	-8.788795e-001	-4.788664e-001
27080952.000	-8.790004e-001	-4.787960e-001
27086946.000	-8.790186e-001	-4.786937e-001
27092940.000	-8.790679e-001	-4.785814e-001
27098934.000	-8.791789e-001	-4.784409e-001
27104928.000	-8.791683e-001	-4.783915e-001
27110922.000	-8.791878e-001	-4.783218e-001
27116916.000	-8.792486e-001	-4.781861e-001
27122910.000	-8.793951e-001	-4.781184e-001
27128904.000	-8.793573e-001	-4.780363e-001
27134898.000	-8.794245e-001	-4.779538e-001
27140892.000	-8.794746e-001	-4.778588e-001
27146886.000	-8.795187e-001	-4.777405e-001
27152880.000	-8.796121e-001	-4.776650e-001
27158874.000	-8.796465e-001	-4.775957e-001
27164868.000	-8.796508e-001	-4.774261e-001
27170862.000	-8.797125e-001	-4.773842e-001
27176856.000	-8.797504e-001	-4.772586e-001
27182850.000	-8.797794e-001	-4.772026e-001
27188844.000	-8.798625e-001	-4.770926e-001
27194838.000	-8.799398e-001	-4.770243e-001
27200832.000	-8.799775e-001	-4.768906e-001
27206826.000	-8.800336e-001	-4.767736e-001
27212820.000	-8.801044e-001	-4.767544e-001
27218814.000	-8.801586e-001	-4.766637e-001
27224808.000	-8.801660e-001	-4.765456e-001
27230802.000	-8.802631e-001	-4.764864e-001
27236796.000	-8.802818e-001	-4.763402e-001
27242790.000	-8.803312e-001	-4.762268e-001
27248784.000	-8.803561e-001	-4.761333e-001
27254778.000	-8.804507e-001	-4.760138e-001
27260772.000	-8.804432e-001	-4.759830e-001
27266766.000	-8.804713e-001	-4.758787e-001
27272760.000	-8.805198e-001	-4.757768e-001
27278754.000	-8.806314e-001	-4.756694e-001
27284748.000	-8.806282e-001	-4.756171e-001
27290742.000	-8.807434e-001	-4.755224e-001
27296736.000	-8.807963e-001	-4.754724e-001
27302730.000	-8.808398e-001	-4.753711e-001
27308724.000	-8.808490e-001	-4.752523e-001
27314718.000	-8.808886e-001	-4.751969e-001
27320712.000	-8.809624e-001	-4.750255e-001
27326706.000	-8.810534e-001	-4.749836e-001
27332700.000	-8.810581e-001	-4.748152e-001
27338694.000	-8.810543e-001	-4.747496e-001
27344688.000	-8.811375e-001	-4.747221e-001
27350682.000	-8.811943e-001	-4.745888e-001
27356676.000	-8.812970e-001	-4.745105e-001
27362670.000	-8.813303e-001	-4.744753e-001
27368664.000	-8.814180e-001	-4.743257e-001
27374658.000	-8.814344e-001	-4.742510e-001
27380652.000	-8.814388e-001	-4.741051e-001
27386646.000	-8.815743e-001	-4.740917e-001
27392640.000	-8.816351e-001	-4.739542e-001
27398634.000	-8.815903e-001	-4.738622e-001
27404628.000	-8.816345e-001	-4.737268e-001
27410622.000	-8.816932e-001	-4.736658e-001
27416616.000	-8.817485e-001	-4.736030e-001
27422610.000	-8.818102e-001	-4.735041e-001
27428604.000	-8.818260e-001	-4.733885e-001
27434598.000	-8.819298e-001	-4.733360e-001
27440592.000	-8.819495e-001	-4.732487e-001
27446586.000	-8.819994e-001	-4.731394e-001
27452580.000	-8.820567e-001	-4.730497e-001
27458574.000	-8.821318e-001	-4.729919e-001
27464568.000	-8.821383e-001	-4.728663e-001
27470562.000	-8.821872e-001	-4.727558e-001
27476556.000	-8.822416e-001	-4.726623e-001
27482550.000	-8.822213e-001	-4.725788e-001
27488544.000	-8.823213e-001	-4.724536e-001
27494538.000	-8.823736e-001	-4.723862e-001
27500532.000	-8.824871e-001	-4.723014e-001
27506526.000	-8.824806e-001	-4.722637e-001
27512520.000	-8.824717e-001	-4.721529e-001
27518514.000	-8.826034e-001	-4.720153e-001
27524508.000	-8.826270e-001	-4.719002e-001
27530502.000	-8.825861e-001	-4.718169e-001
27536496.000	-8.826984e-001	-4.717285e-001
27542490.000	-8.827243e-001	-4.716402e-001
27548484.000	-8.828001e-001	-4.715608e-001
27554478.000	-8.827852e-001	-4.714578e-001
27560472.000	-8.829526e-001	-4.713974e-001
27566466.000	-8.829461e-001	-4.713187e-001
27572460.000	-8.829472e-001	-4.712018e-001
27578454.000	-8.830439e-001	-4.710868e-001
27584448.000	-8.830734e-001	-4.710345e-001
27590442.000	-8.831544e-001	-4.709577e-001
27596436.000	-8.832054e-001	-4.708969e-001
27602430.000	-8.832199e-001	-4.707651e-001
27608424.000	-8.833193e-001	-4.706818e-001
27614418.000	-8.833569e-001	-4.705600e-001
27620412.000	-8.834163e-001	-4.704772e-001
27626406.000	-8.834313e-001	-4.703793e-001
27632400.000	-8.834467e-001	-4.703265e-001
27638394.000	-8.835436e-001	-4.702364e-001
27644388.000	-8.836252e-001	-4.701138e-001
27650382.000	-8.835915e-001	-4.700662e-001
27656376.000	-8.836649e-001	-4.699648e-001
27662370.000	-8.837391e-001	-4.698173e-001
27668364.000	-8.837524e-001	-4.697501e-001
27674358.000	-8.838139e-001	-4.697033e-001
27680352.000	-8.838697e-001	-4.695945e-001
27686346.000	-8.839131e-001	-4.694999e-001
27692340.000	-8.839274e-001	-4.694019e-001
27698334.000	-8.839813e-001	-4.693289e-001
27704328.000	-8.840595e-001	-4.692087e-001
27710322.000	-8.840869e-001	-4.691277e-001
27716316.000	-8.841119e-001	-4.690534e-001
27722310.000	-8.841825e-001	-4.688909e-001
27728304.000	-8.842090e-001	-4.688654e-001
27734298.000	-8.843027e-001	-4.687872e-001
27740292.000	-8.843565e-001	-4.686971e-001
27746286.000	-8.843990e-001	-4.685501e-001
27752280.000	-8.843850e-001	-4.684873e-001
27758274.000	-8.844668e-001	-4.684127e-001
27764268.000	-8.845423e-001	-4.683685e-001
27770262.000	-8.846008e-001	-4.681701e-001
27776256.000	-8.846274e-001	-4.681603e-001
27782250.000	-8.846884e-001	-4.681029e-001
27788244.000	-8.847119e-001	-4.679643e-001
27794238.000	-8.847308e-001	-4.678551e-001
27800232.000	-8.848239e-001	-4.677939e-001
27806226.000	-8.848383e-001	-4.676788e-001
27812220.000	-8.849376e-001	-4.675997e-001
27818214.000	-8.849531e-001	-4.674994e-001
27824208.000	-8.849831e-001	-4.673911e-001
27830202.000	-8.850324e-001	-4.674004e-001
27836196.000	-8.850571e-001	-4.672701e-001
27842190.000	-8.851282e-001	-4.671647e-001
27848184.000	-8.851672e-001	-4.670894e-001
27854178.000	-8.852244e-001	-4.670006e-001
27860172.000	-8.852808e-001	-4.668768e-001
27866166.000	-8.853246e-001	-4.668387e-001
27872160.000	-8.853602e-001	-4.667144e-001
27878154.000	-8.854536e-001	-4.666244e-001
27884148.000	-8.854312e-001	-4.665513e-001
27890142.000	-8.855121e-001	-4.664752e-001
27896136.000	-8.855934e-001	-4.664028e-001
27902130.000	-8.856510e-001	-4.662862e-001
27908124.000	-8.856725e-001	-4.661548e-001
27914118.000	-8.856874e-001	-4.660994e-001
27920112.000	-8.857635e-001	-4.659687e-001
27926106.000	-8.857403e-001	-4.659521e-001
27932100.000	-8.858331e-001	-4.658203e-001
27938094.000	-8.858677e-001	-4.657615e-001
27944088.000	-8.859472e-001	-4.656472e-001
27950082.000	-8.859481e-001	-4.655566e-001
27956076.000	-8.860286e-001	-4.654791e-001
27962070.000	-8.860449e-001	-4.653898e-001
27968064.000	-8.860838e-001	-4.652903e-001
27974058.000	-8.861664e-001	-4.651660e-001
27980052.000	-8.861992e-001	-4.651048e-001
27986046.000	-8.862284e-001	-4.650462e-001
27992040.000	-8.862746e-001	-4.649057e-001
27998034.000	-8.862590e-001	-4.648317e-001
28004028.000	-8.863760e-001	-4.647615e-001
28010022.000	-8.863971e-001	-4.646813e-001
28016016.000	-8.864477e-001	-4.645757e-001
28022010.000	-8.865076e-001	-4.645113e-001
28028004.000	-8.865664e-001	-4.643996e-001
28033998.000	-8.866154e-001	-4.643486e-001
28039992.000	-8.867307e-001	-4.642811e-001
28045986.000	-8.867157e-001	-4.641069e-001
28051980.000	-8.867348e-001	-4.640899e-001
28057974.000	-8.868122e-001	-4.639685e-001
28063968.000	-8.868599e-001	-4.639126e-001
28069962.000	-8.868987e-001	-4.638069e-001
28075956.000	-8.869182e-001	-4.637354e-001
28081950.000	-8.869672e-001	-4.635711e-001
28087944.000	-8.870677e-001	-4.635693e-001
28093938.000	-8.871059e-001	-4.634751e-001
28099932.000	-8.871280e-001	-4.633325e-001
28105926.000	-8.871402e-001	-4.632697e-001
28111920.000	-8.872145e-001	-4.632051e-001
28117914.000	-8.872516e-001	-4.630791e-001
28123908.000	-8.873346e-001	-4.629756e-001
28129902.000	-8.873233e-001	-4.629139e-001
28135896.000	-8.873637e-001	-4.628520e-001
28141890.000	-8.874540e-001	-4.626963e-001
28147884.000	-8.874881e-001	-4.626631e-001
28153878.000	-8.875519e-001	-4.625568e-001
28159872.000	-8.875645e-001	-4.624847e-001
28165866.000	-8.876395e-001	-4.624043e-001
28171860.000	-8.876572e-001	-4.623266e-001
28177854.000	-8.877239e-001	-4.622208e-001
28183848.000	-8.877222e-001	-4.620915e-001
28189842.000	-8.878049e-001	-4.620421e-001
28195836.000	-8.878505e-001	-4.619365e-001
28201830.000	-8.879028e-001	-4.618109e-001
28207824.000	-8.878854e-001	-4.617553e-001
28213818.000	-8.879988e-001	-4.617098e-001
28219812.000	-8.879873e-001	-4.615911e-001
28225806.000	-8.880484e-001	-4.615064e-001
28231800.000	-8.880939e-001	-4.614084e-001
28237794.000	-8.881459e-001	-4.612982e-001
28243788.000	-8.881902e-001	-4.612225e-001
28249782.000	-8.882725e-001	-4.611435e-001
28255776.000	-8.882830e-001	-4.610539e-001
28261770.000	-8.883897e-001	-4.610164e-001
28267764.000	-8.883818e-001	-4.608872e-001
28273758.000	-8.883956e-001	-4.608284e-001
28279752.000	-8.884573e-001	-4.607055e-001
28285746.000	-8.885181e-001	-4.606390e-001
28291740.000	-8.886029e-001	-4.605744e-001
28297734.000	-8.886487e-001	-4.604477e-001
28303728.000	-8.886343e-001	-4.603416e-001
28309722.000	-8.887334e-001	-4.603579e-001
28315716.000	-8.887362e-001	-4.602148e-001
28321710.000	-8.888072e-001	-4.601226e-001
28327704.000	-8.888627e-001	-4.599939e-001
28333698.000	-8.888935e-001	-4.599469e-001
28339692.000	-8.889398e-001	-4.598144e-001
28345686.000	-8.889684e-001	-4.597537e-001
28351680.000	-8.890215e-001	-4.596848e-001
28357674.000	-8.890707e-001	-4.596043e-001
28363668.000	-8.891113e-001	-4.594971e-001
28369662.000	-8.891717e-001	-4.594226e-001
28375656.000	-8.892051e-001	-4.593314e-001
28381650.000	-8.892425e-001	-4.592080e-001
28387644.000	-8.893299e-001	-4.591109e-001
28393638.000	-8.893497e-001	-4.591092e-001
28399632.000	-8.893766e-001	-4.590077e-001
28405626.000	-8.894530e-001	-4.589110e-001
28411620.000	-8.894294e-001	-4.588124e-001
28417614.000	-8.895196e-001	-4.587325e-001
28423608.000	-8.895446e-001	-4.586701e-001
28429602.000	-8.895934e-001	-4.585137e-001
28435596.000	-8.896118e-001	-4.584310e-001
28441590.000	-8.896658e-001	-4.583781e-001
28447584.000	-8.897454e-001	-4.583276e-001
28453578.000	-8.897734e-001	-4.581968e-001
28459572.000	-8.897926e-001	-4.581042e-001
28465566.000	-8.898434e-001	-4.580364e-001
28471560.000	-8.898869e-001	-4.579499e-001
28477554.000	-8.900140e-001	-4.578573e-001
28483548.000	-8.900002e-001	-4.578040e-001
28489542.000	-8.900395e-001	-4.577111e-001
28495536.000	-8.900836e-001	-4.575601e-001
28501530.000	-8.901296e-001	-4.575072e-001
28507524.000	-8.901537e-001	-4.574809e-001
28513518.000	-8.902157e-001	-4.573872e-001
28519512.000	-8.902598e-001	-4.572781e-001
28525506.000	-8.902647e-001	-4.571514e-001
28531500.000	-8.903633e-001	-4.571122e-001
28537494.000	-8.903879e-001	-4.569858e-001
28543488.000	-8.904275e-001	-4.569223e-001
28549482.000	-8.904244e-001	-4.567842e-001
28555476.000	-8.904914e-001	-4.567498e-001
28561470.000	-8.905186e-001	-4.566800e-001
28567464.000	-8.905796e-001	-4.566080e-001
28573458.000	-8.905991e-001	-4.564631e-001
28579452.000	-8.906886e-001	-4.563750e-001
28585446.000	-8.907440e-001	-4.563315e-001
28591440.000	-8.908024e-001	-4.562301e-001
28597434.000	-8.908404e-001	-4.561617e-001
28603428.000	-8.908283e-001	-4.560786e-001
28609422.000	-8.909145e-001	-4.560121e-001
28615416.000	-8.909909e-001	-4.558779e-001
28621410.000	-8.910312e-001	-4.558291e-001
28627404.000	-8.910553e-001	-4.556972e-001
28633398.000	-8.910953e-001	-4.555736e-001
28639392.000	-8.911856e-001	-4.555833e-001
28645386.000	-8.911774e-001	-4.554576e-001
28651380.000	-8.912088e-001	-4.554284e-001
28657374.000	-8.912491e-001	-4.552403e-001
28663368.000	-8.912815e-001	-4.551882e-001
28669362.000	-8.913000e-001	-4.550795e-001
28675356.000	-8.914103e-001	-4.550427e-001
28681350.000	-8.913886e-001	-4.549224e-001
28687344.000	-8.914252e-001	-4.548524e-001
28693338.000	-8.915109e-001	-4.547609e-001
28699332.000	-8.915211e-001	-4.547072e-001
28705326.000	-8.916507e-001	-4.546119e-001
28711320.000	-8.916563e-001	-4.545121e-001
28717314.000	-8.916871e-001	-4.544655e-001
28723308.000	-8.917020e-001	-4.543569e-001
28729302.000	-8.917786e-001	-4.543160e-001
28735296.000	-8.918245e-001	-4.542286e-001
28741290.000	-8.918339e-001	-4.541415e-001
28747284.000	-8.918537e-001	-4.540341e-001
28753278.000	-8.919531e-001	-4.539185e-001
28759272.000	-8.920149e-001	-4.538581e-001
28765266.000	-8.920742e-001	-4.537978e-001
28771260.000	-8.920663e-001	-4.536625e-001
28777254.000	-8.921175e-001	-4.536481e-001
28783248.000	-8.921311e-001	-4.534849e-001
28789242.000	-8.921584e-001	-4.534273e-001
28795236.000	-8.922009e-001	-4.533200e-001
28801230.000	-8.922667e-001	-4.532317e-001
28807224.000	-8.923161e-001	-4.531727e-001
28813218.000	-8.923509e-001	-4.531225e-001
28819212.000	-8.923374e-001	-4.529948e-001
28825206.000	-8.924109e-001	-4.529173e-001
28831200.000	-8.924779e-001	-4.528233e-001
28837194.000	-8.925519e-001	-4.527310e-001
28843188.000	-8.925552e-001	-4.526783e-001
28849182.000	-8.926183e-001	-4.525806e-001
28855176.000	-8.926086e-001	-4.524704e-001
28861170.000	-8.926778e-001	-4.524671e-001
28867164.000	-8.927364e-001	-4.523344e-001
28873158.000	-8.927624e-001	-4.522253e-001
28879152.000	-8.928032e-001	-4.521243e-001
28885146.000	-8.928353e-001	-4.520702e-001
28891140.000	-8.929262e-001	-4.519997e-001
28897134.000	-8.929504e-001	-4.518579e-001
28903128.000	-8.929495e-001	-4.517767e-001
28909122.000	-8.930149e-001	-4.516361e-001
28915116.000	-8.930322e-001	-4.516290e-001
28921110.000	-8.931144e-001	-4.515622e-001
28927104.000	-8.931835e-001	-4.514539e-001
28933098.000	-8.932157e-001	-4.513813e-001
28939092.000	-8.932139e-001	-4.512955e-001
28945086.000	-8.932729e-001	-4.511922e-001
28951080.000	-8.933368e-001	-4.511021e-001
28957074.000	-8.933580e-001	-4.510656e-001
28963068.000	-8.934062e-001	-4.509831e-001
28969062.000	-8.934348e-001	-4.509146e-001
28975056.000	-8.934331e-001	-4.508329e-001
28981050.000	-8.935747e-001	-4.507706e-001
28987044.000	-8.936037e-001	-4.506899e-001
28993038.000	-8.936488e-001	-4.505443e-001
28999032.000	-8.937192e-001	-4.504964e-001
29005026.000	-8.936919e-001	-4.504269e-001
29011020.000	-8.937130e-001	-4.503044e-001
29017014.000	-8.937570e-001	-4.501924e-001
29023008.000	-8.938142e-001	-4.501183e-001
29029002.000	-8.938850e-001	-4.500633e-001
29034996.000	-8.939011e-001	-4.500081e-001
29040990.000	-8.939350e-001	-4.498970e-001
29046984.000	-8.939761e-001	-4.498125e-001
29052978.000	-8.940393e-001	-4.497209e-001
29058972.000	-8.941265e-001	-4.496565e-001
29064966.000	-8.941608e-001	-4.496501e-001
29070960.000	-8.941265e-001	-4.495323e-001
29076954.000	-8.941942e-001	-4.493796e-001
29082948.000	-8.942145e-001	-4.492686e-001
29088942.000	-8.942546e-001	-4.492146e-001
29094936.000	-8.942926e-001	-4.491593e-001
29100930.000	-8.943612e-001	-4.490577e-001
29106924.000	-8.943927e-001	-4.489791e-001
29112918.000	-8.944395e-001	-4.489002e-001
29118912.000	-8.945195e-001	-4.488422e-001
29124906.000	-8.945664e-001	-4.486912e-001
29130900.000	-8.945481e-001	-4.486452e-001
29136894.000	-8.946181e-001	-4.485251e-001
29142888.000	-8.946577e-001	-4.484688e-001
29148882.000	-8.947181e-001	-4.483566e-001
29154876.000	-8.947477e-001	-4.482655e-001
29160870.000	-8.947727e-001	-4.482295e-001
29166864.000	-8.947973e-001	-4.481429e-001
29172858.000	-8.948364e-001	-4.480570e-001
29178852.000	-8.948551e-001	-4.479273e-001
29184846.000	-8.949272e-001	-4.479501e-001
29190840.000	-8.949944e-001	-4.478238e-001
29196834.000	-8.949914e-001	-4.477075e-001
29202828.000	-8.950413e-001	-4.476309e-001
29208822.000	-8.950981e-001	-4.475440e-001
29214816.000	-8.950446e-001	-4.474461e-001
29220810.000	-8.951682e-001	-4.473886e-001
29226804.000	-8.952098e-001	-4.473134e-001
29232798.000	-8.952361e-001	-4.472370e-001
29238792.000	-8.952867e-001	-4.471444e-001
29244786.000	-8.953607e-001	-4.470489e-001
29250780.000	-8.953662e-001	-4.469775e-001
29256774.000	-8.953861e-001	-4.469000e-001
29262768.000	-8.955110e-001	-4.468075e-001
29268762.000	-8.954979e-001	-4.467308e-001
29274756.000	-8.955554e-001	-4.466638e-001
29280750.000	-8.955157e-001	-4.465835e-001
29286744.000	-8.956173e-001	-4.464943e-001
29292738.000	-8.956513e-001	-4.463798e-001
29298732.000	-8.956954e-001	-4.463407e-001
29304726.000	-8.957554e-001	-4.462237e-001
29310720.000	-8.957674e-001	-4.461470e-001
29316714.000	-8.958365e-001	-4.460604e-001
29322708.000	-8.958161e-001	-4.459830e-001
29328702.000	-8.958671e-001	-4.458440e-001
29334696.000	-8.959410e-001	-4.458278e-001
29340690.000	-8.959894e-001	-4.457730e-001
29346684.000	-8.960224e-001	-4.456521e-001
29352678.000	-8.960697e-001	-4.456149e-001
29358672.000	-8.961590e-001	-4.455145e-001
29364666.000	-8.961247e-001	-4.453986e-001
29370660.000	-8.961409e-001	-4.453186e-001
29376654.000	-8.962047e-001	-4.452632e-001
29382648.000	-8.962572e-001	-4.451365e-001
29388642.000	-8.963003e-001	-4.450891e-001
29394636.000	-8.963668e-001	-4.450195e-001
29400630.000	-8.964219e-001	-4.449286e-001
29406624.000	-8.964107e-001	-4.447992e-001
29412618.000	-8.964137e-001	-4.447336e-001
29418612.000	-8.964479e-001	-4.446584e-001
29424606.000	-8.965638e-001	-4.446116e-001
29430600.000	-8.965714e-001	-4.445310e-001
29436594.000	-8.966234e-001	-4.444307e-001
29442588.000	-8.966425e-001	-4.443630e-001
29448582.000	-8.967018e-001	-4.442671e-001
29454576.000	-8.967231e-001	-4.441513e-001
29460570.000	-8.968483e-001	-4.440908e-001
29466564.000	-8.968521e-001	-4.440200e-001
29472558.000	-8.968510e-001	-4.438987e-001
29478552.000	-8.969148e-001	-4.438851e-001
29484546.000	-8.969478e-001	-4.437840e-001
29490540.000	-8.969817e-001	-4.437134e-001
29496534.000	-8.970080e-001	-4.436255e-001
29502528.000	-8.970561e-001	-4.435538e-001
29508522.000	-8.971096e-001	-4.434232e-001
29514516.000	-8.971317e-001	-4.433662e-001
29520510.000	-8.971903e-001	-4.432841e-001
29526504.000	-8.972596e-001	-4.432116e-001
29532498.000	-8.972902e-001	-4.431161e-001
29538492.000	-8.973335e-001	-4.430520e-001
29544486.000	-8.973333e-001	-4.429770e-001
29550480.000	-8.973357e-001	-4.428738e-001
29556474.000	-8.973796e-001	-4.427826e-001
29562468.000	-8.974578e-001	-4.427423e-001
29568462.000	-8.974767e-001	-4.426231e-001
29574456.000	-8.975412e-001	-4.425532e-001
29580450.000	-8.975602e-001	-4.424613e-001
29586444.000	-8.976211e-001	-4.424248e-001
29592438.000	-8.976729e-001	-4.423081e-001
29598432.000	-8.976611e-001	-4.421873e-001
29604426.000	-8.977710e-001	-4.421502e-001
29610420.000	-8.977943e-001	-4.420626e-001
29616414.000	-8.978387e-001	-4.420407e-001
29622408.000	-8.978392e-001	-4.418611e-001
29628402.000	-8.979054e-001	-4.418398e-001
29634396.000	-8.979221e-001	-4.417321e-001
29640390.000	-8.979749e-001	-4.416845e-001
29646384.000	-8.980108e-001	-4.415527e-001
29652378.000	-8.980587e-001	-4.415398e-001
29658372.000	-8.980669e-001	-4.414290e-001
29664366.000	-8.981483e-001	-4.413322e-001
29670360.000	-8.981691e-001	-4.412798e-001
29676354.000	-8.982105e-001	-4.412287e-001
29682348.000	-8.982352e-001	-4.410901e-001
29688342.000	-8.982720e-001	-4.410206e-001
29694336.000	-8.982927e-001	-4.409010e-001
29700330.000	-8.983507e-001	-4.408585e-001
29706324.000	-8.983727e-001	-4.407644e-001
29712318.000	-8.984176e-001	-4.406944e-001
29718312.000	-8.985096e-001	-4.406625e-001
29724306.000	-8.985532e-001	-4.405586e-001
29730300.000	-8.985415e-001	-4.404249e-001
29736294.000	-8.985978e-001	-4.404391e-001
29742288.000	-8.986791e-001	-4.402912e-001
29748282.000	-8.986790e-001	-4.402690e-001
29754276.000	-8.987614e-001	-4.401452e-001
29760270.000	-8.987943e-001	-4.401396e-001
29766264.000	-8.988272e-001	-4.399857e-001
29772258.000	-8.989072e-001	-4.399079e-001
29778252.000	-8.988777e-001	-4.398838e-001
29784246.000	-8.989371e-001	-4.397359e-001
29790240.000	-8.989140e-001	-4.396929e-001
29796234.000	-8.990534e-001	-4.396019e-001
29802228.000	-8.990275e-001	-4.395317e-001
29808222.000	-8.990615e-001	-4.394667e-001
29814216.000	-8.991130e-001	-4.393139e-001
29820210.000	-8.991438e-001	-4.392873e-001
29826204.000	-8.991525e-001	-4.391839e-001
29832198.000	-8.992080e-001	-4.391064e-001
29838192.000	-8.991887e-001	-4.390300e-001
29844186.000	-8.992845e-001	-4.389105e-001
29850180.000	-8.993008e-001	-4.388799e-001
29856174.000	-8.993204e-001	-4.387897e-001
29862168.000	-8.993918e-001	-4.387308e-001
29868162.000	-8.994437e-001	-4.386303e-001
29874156.000	-8.994793e-001	-4.385581e-001
29880150.000	-8.994990e-001	-4.384783e-001
29886144.000	-8.995583e-001	-4.383848e-001
29892138.000	-8.996410e-001	-4.383159e-001
29898132.000	-8.997321e-001	-4.383169e-001
29904126.000	-8.997072e-001	-4.381528e-001
29910120.000	-8.997206e-001	-4.380626e-001
29916114.000	-8.997102e-001	-4.379968e-001
29922108.000	-8.997696e-001	-4.379405e-001
29928102.000	-8.997964e-001	-4.378710e-001
29934096.000	-8.998777e-001	-4.377724e-001
29940090.000	-8.999426e-001	-4.377052e-001
29946084.000	-8.999434e-001	-4.376068e-001
29952078.000	-8.999997e-001	-4.375604e-001
29958072.000	-9.000116e-001	-4.374541e-001
29964066.000	-9.000791e-001	-4.373911e-001
29970060.000	-9.001115e-001	-4.372927e-001
29976054.000	-9.001486e-001	-4.372224e-001
29982048.000	-9.001659e-001	-4.371150e-001
29988042.000	-9.002487e-001	-4.370517e-001
29994036.000	-9.003118e-001	-4.369958e-001
30000030.000	-9.003316e-001	-4.368973e-001
30006024.000	-9.003323e-001	-4.368749e-001
30012018.000	-9.003857e-001	-4.367268e-001
30018012.000	-9.004717e-001	-4.366707e-001
30024006.000	-9.004407e-001	-4.365621e-001
30030000.000	-9.005030e-001	-4.364649e-001
30035994.000	-9.004780e-001	-4.363990e-001
30041988.000	-9.004786e-001	-4.363401e-001
30047982.000	-9.006201e-001	-4.362489e-001
30053976.000	-9.006095e-001	-4.361770e-001
30059970.000	-9.006590e-001	-4.360614e-001
30065964.000	-9.006987e-001	-4.360699e-001
30071958.000	-9.007482e-001	-4.359378e-001
30077952.000	-9.007697e-001	-4.358278e-001
30083946.000	-9.008418e-001	-4.358089e-001
30089940.000	-9.008537e-001	-4.357534e-001
30095934.000	-9.009306e-001	-4.356463e-001
30101928.000	-9.009287e-001	-4.355186e-001
30107922.000	-9.009301e-001	-4.354927e-001
30113916.000	-9.009323e-001	-4.353665e-001
30119910.000	-9.010065e-001	-4.353117e-001
30125904.000	-9.010359e-001	-4.352172e-001
30131898.000	-9.010700e-001	-4.351047e-001
30137892.000	-9.011297e-001	-4.350697e-001
30143886.000	-9.012121e-001	-4.350087e-001
30149880.000	-9.012562e-001	-4.349501e-001
30155874.000	-9.012290e-001	-4.348695e-001
30161868.000	-9.012379e-001	-4.347522e-001
30167862.000	-9.013445e-001	-4.346781e-001
30173856.000	-9.013699e-001	-4.346176e-001
30179850.000	-9.014081e-001	-4.345205e-001
30185844.000	-9.014678e-001	-4.344239e-001
30191838.000	-9.014244e-001	-4.343430e-001
30197832.000	-9.015233e-001	-4.342384e-001
30203826.000	-9.015272e-001	-4.342405e-001
30209820.000	-9.015649e-001	-4.341130e-001
30215814.000	-9.016536e-001	-4.340575e-001
30221808.000	-9.016470e-001	-4.339551e-001
30227802.000	-9.017166e-001	-4.339038e-001
30233796.000	-9.017408e-001	-4.338583e-001
30239790.000	-9.017880e-001	-4.337672e-001
30245784.000	-9.018002e-001	-4.336377e-001
30251778.000	-9.018411e-001	-4.335672e-001
30257772.000	-9.018944e-001	-4.334857e-001
30263766.000	-9.019022e-001	-4.334337e-001
30269760.000	-9.019368e-001	-4.333655e-001
30275754.000	-9.019845e-001	-4.333081e-001
30281748.000	-9.020077e-001	-4.332176e-001
30287742.000	-9.020926e-001	-4.331298e-001
30293736.000	-9.020502e-001	-4.330337e-001
30299730.000	-9.021422e-001	-4.329753e-001
30305724.000	-9.021559e-001	-4.328974e-001
30311718.000	-9.022189e-001	-4.328566e-001
30317712.000	-9.022484e-001	-4.326862e-001
30323706.000	-9.023298e-001	-4.326286e-001
30329700.000	-9.022726e-001	-4.325484e-001
30335694.000	-9.023275e-001	-4.324533e-001
30341688.000	-9.023712e-001	-4.323989e-001
30347682.000	-9.024073e-001	-4.323812e-001
30353676.000	-9.024349e-001	-4.322582e-001
30359670.000	-9.025134e-001	-4.322156e-001
30365664.000	-9.025129e-001	-4.320743e-001
30371658.000	-9.025879e-001	-4.320100e-001
30377652.000	-9.026345e-001	-4.319666e-001
30383646.000	-9.025817e-001	-4.318465e-001
30389640.000	-9.026878e-001	-4.317757e-001
30395634.000	-9.026543e-001	-4.317353e-001
30401628.000	-9.027331e-001	-4.316564e-001
30407622.000	-9.027845e-001	-4.315622e-001
30413616.000	-9.028020e-001	-4.314519e-001
30419610.000	-9.027676e-001	-4.313901e-001
30425604.000	-9.028596e-001	-4.312919e-001
30431598.000	-9.029194e-001	-4.312313e-001
30437592.000	-9.029578e-001	-4.311614e-001
30443586.000	-9.029991e-001	-4.311166e-001
30449580.000	-9.030705e-001	-4.310165e-001
30455574.000	-9.030725e-001	-4.309361e-001
30461568.000	-9.031221e-001	-4.308543e-001
30467562.000	-9.031458e-001	-4.308168e-001
30473556.000	-9.031701e-001	-4.306953e-001
30479550.000	-9.032223e-001	-4.306106e-001
30485544.000	-9.032455e-001	-4.305596e-001
30491538.000	-9.032654e-001	-4.304297e-001
30497532.000	-9.033081e-001	-4.303785e-001
30503526.000	-9.033468e-001	-4.303139e-001
30509520.000	-9.033857e-001	-4.302737e-001
30515514.000	-9.034158e-001	-4.301749e-001
30521508.000	-9.034961e-001	-4.300960e-001
30527502.000	-9.035262e-001	-4.300306e-001
30533496.000	-9.035594e-001	-4.299368e-001
30539490.000	-9.035050e-001	-4.298403e-001
30545484.000	-9.035804e-001	-4.297932e-001
30551478.000	-9.036154e-001	-4.297023e-001
30557472.000	-9.036674e-001	-4.296093e-001
30563466.000	-9.036551e-001	-4.295521e-001
30569460.000	-9.037385e-001	-4.294439e-001
30575454.000	-9.038161e-001	-4.294140e-001
30581448.000	-9.038421e-001	-4.293358e-001
30587442.000	-9.038897e-001	-4.292928e-001
30593436.000	-9.039494e-001	-4.291659e-001
30599430.000	-9.039602e-001	-4.291425e-001
30605424.000	-9.039849e-001	-4.290268e-001
30611418.000	-9.039929e-001	-4.289766e-001
30617412.000	-9.039804e-001	-4.288943e-001
30623406.000	-9.041257e-001	-4.287823e-001
30629400.000	-9.040844e-001	-4.287185e-001
30635394.000	-9.041063e-001	-4.286615e-001
30641388.000	-9.042174e-001	-4.285709e-001
30647382.000	-9.042259e-001	-4.284662e-001
30653376.000	-9.042255e-001	-4.284290e-001
30659370.000	-9.043048e-001	-4.283903e-001
30665364.000	-9.043560e-001	-4.282701e-001
30671358.000	-9.043941e-001	-4.281864e-001
30677352.000	-9.044096e-001	-4.281135e-001
30683346.000	-9.044062e-001	-4.280059e-001
30689340.000	-9.044686e-001	-4.279622e-001
30695334.000	-9.045290e-001	-4.278985e-001
30701328.000	-9.045777e-001	-4.278387e-001
30707322.000	-9.045266e-001	-4.277392e-001
30713316.000	-9.045738e-001	-4.276576e-001
30719310.000	-9.046602e-001	-4.276049e-001
30725304.000	-9.046871e-001	-4.275414e-001
30731298.000	-9.047351e-001	-4.274557e-001
30737292.000	-9.047537e-001	-4.273583e-001
30743286.000	-9.047614e-001	-4.272594e-001
30749280.000	-9.048502e-001	-4.271750e-001
30755274.000	-9.048723e-001	-4.271015e-001
30761268.000	-9.049220e-001	-4.270485e-001
30767262.000	-9.048808e-001	-4.269694e-001
30773256.000	-9.050437e-001	-4.269305e-001
30779250.000	-9.049813e-001	-4.268541e-001
30785244.000	-9.050283e-001	-4.267753e-001
30791238.000	-9.050620e-001	-4.266540e-001
30797232.000	-9.051014e-001	-4.265775e-001
30803226.000	-9.051164e-001	-4.265295e-001
30809220.000	-9.051891e-001	-4.264596e-001
30815214.000	-9.052452e-001	-4.264118e-001
30821208.000	-9.052689e-001	-4.263110e-001
30827202.000	-9.052587e-001	-4.262028e-001
30833196.000	-9.053237e-001	-4.261593e-001
30839190.000	-9.053036e-001	-4.260510e-001
30845184.000	-9.053891e-001	-4.260017e-001
30851178.000	-9.054351e-001	-4.259070e-001
30857172.000	-9.054866e-001	-4.258898e-001
30863166.000	-9.055038e-001	-4.257665e-001
30869160.000	-9.055329e-001	-4.257183e-001
30875154.000	-9.055573e-001	-4.255930e-001
30881148.000	-9.056073e-001	-4.255398e-001
30887142.000	-9.056723e-001	-4.254887e-001
30893136.000	-9.056541e-001	-4.253834e-001
30899130.000	-9.057020e-001	-4.253187e-001
30905124.000	-9.056972e-001	-4.252652e-001
30911118.000	-9.057842e-001	-4.251814e-001
30917112.000	-9.058034e-001	-4.250738e-001
30923106.000	-9.058431e-001	-4.250266e-001
30929100.000	-9.058817e-001	-4.249302e-001
30935094.000	-9.058957e-001	-4.248605e-001
30941088.000	-9.059433e-001	-4.247826e-001
30947082.000	-9.059579e-001	-4.247140e-001
30953076.000	-9.060639e-001	-4.246548e-001
30959070.000	-9.060500e-001	-4.245536e-001
30965064.000	-9.060358e-001	-4.244266e-001
30971058.000	-9.061280e-001	-4.244195e-001
30977052.000	-9.061500e-001	-4.243545e-001
30983046.000	-9.061871e-001	-4.242879e-001
30989040.000	-9.062457e-001	-4.241823e-001
30995034.000	-9.062894e-001	-4.241524e-001
31001028.000	-9.062855e-001	-4.240368e-001
31007022.000	-9.063034e-001	-4.239550e-001
31013016.000	-9.063544e-001	-4.239110e-001
31019010.000	-9.063898e-001	-4.238009e-001
31025004.000	-9.064373e-001	-4.236459e-001
31030998.000	-9.064183e-001	-4.236803e-001
31036992.000	-9.064945e-001	-4.235877e-001
31042986.000	-9.065591e-001	-4.235017e-001
31048980.000	-9.065287e-001	-4.234660e-001
31054974.000	-9.065911e-001	-4.233443e-001
31060968.000	-9.066244e-001	-4.233210e-001
31066962.000	-9.067000e-001	-4.232520e-001
31072956.000	-9.067217e-001	-4.231160e-001
31078950.000	-9.066895e-001	-4.230640e-001
31084944.000	-9.067719e-001	-4.230029e-001
31090938.000	-9.067808e-001	-4.228832e-001
31096932.000	-9.068139e-001	-4.228628e-001
31102926.000	-9.068734e-001	-4.227620e-001
31108920.000	-9.068753e-001	-4.226927e-001
31114914.000	-9.069412e-001	-4.225918e-001
31120908.000	-9.069953e-001	-4.225513e-001
31126902.000	-9.069597e-001	-4.224683e-001
31132896.000	-9.070456e-001	-4.223938e-001
31138890.000	-9.070303e-001	-4.223151e-001
31144884.000	-9.071249e-001	-4.222346e-001
31150878.000	-9.071078e-001	-4.221567e-001
31156872.000	-9.071608e-001	-4.221296e-001
31162866.000	-9.072368e-001	-4.220212e-001
31168860.000	-9.072117e-001	-4.219116e-001
31174854.000	-9.073064e-001	-4.218785e-001
31180848.000	-9.073357e-001	-4.217997e-001
31186842.000	-9.073638e-001	-4.217727e-001
31192836.000	-9.073495e-001	-4.217064e-001
31198830.000	-9.074402e-001	-4.216522e-001
31204824.000	-9.074247e-001	-4.215083e-001
31210818.000	-9.074611e-001	-4.214804e-001
31216812.000	-9.075110e-001	-4.213992e-001
31222806.000	-9.075532e-001	-4.212950e-001
31228800.000	-9.075263e-001	-4.212086e-001
31234794.000	-9.076279e-001	-4.211355e-001
31240788.000	-9.076447e-001	-4.210599e-001
31246782.000	-9.076815e-001	-4.210111e-001
31252776.000	-9.076966e-001	-4.209708e-001
31258770.000	-9.077215e-001	-4.208670e-001
31264764.000	-9.077617e-001	-4.207916e-001
31270758.000	-9.078096e-001	-4.206855e-001
31276752.000	-9.078301e-001	-4.206196e-001
31282746.000	-9.078505e-001	-4.205835e-001
31288740.000	-9.079216e-001	-4.204869e-001
31294734.000	-9.079469e-001	-4.203884e-001
31300728.000	-9.080043e-001	-4.203204e-001
31306722.000	-9.080281e-001	-4.202511e-001
31312716.000	-9.079952e-001	-4.201597e-001
31318710.000	-9.080359e-001	-4.201177e-001
31324704.000	-9.081020e-001	-4.200622e-001
31330698.000	-9.081709e-001	-4.199415e-001
31336692.000	-9.081848e-001	-4.198682e-001
31342686.000	-9.081745e-001	-4.198223e-001
31348680.000	-9.082486e-001	-4.197494e-001
31354674.000	-9.082714e-001	-4.196657e-001
31360668.000	-9.082932e-001	-4.196102e-001
31366662.000	-9.083439e-001	-4.195037e-001
31372656.000	-9.083593e-001	-4.194184e-001
31378650.000	-9.084039e-001	-4.193785e-001
31384644.000	-9.084591e-001	-4.193252e-001
31390638.000	-9.084831e-001	-4.192340e-001
31396632.000	-9.085551e-001	-4.191616e-001
31402626.000	-9.086511e-001	-4.191265e-001
31408620.000	-9.086727e-001	-4.190438e-001
31414614.000	-9.086973e-001	-4.189842e-001
31420608.000	-9.087578e-001	-4.188965e-001
31426602.000	-9.087616e-001	-4.188118e-001
31432596.000	-9.088428e-001	-4.187505e-001
31438590.000	-9.088534e-001	-4.187455e-001
31444584.000	-9.088381e-001	-4.186467e-001
31450578.000	-9.088812e-001	-4.185072e-001
31456572.000	-9.088908e-001	-4.184495e-001
31462566.000	-9.089536e-001	-4.183698e-001
31468560.000	-9.090264e-001	-4.183096e-001
31474554.000	-9.090471e-001	-4.182986e-001
31480548.000	-9.090246e-001	-4.181872e-001
31486542.000	-9.090792e-001	-4.181041e-001
31492536.000	-9.091333e-001	-4.180126e-001
31498530.000	-9.091865e-001	-4.179291e-001
31504524.000	-9.091915e-001	-4.178684e-001
31510518.000	-9.092810e-001	-4.178278e-001
31516512.000	-9.092759e-001	-4.177145e-001
31522506.000	-9.093429e-001	-4.176662e-001
31528500.000	-9.093645e-001	-4.176177e-001
31534494.000	-9.094171e-001	-4.174825e-001
31540488.000	-9.094415e-001	-4.174844e-001
31546482.000	-9.094816e-001	-4.173591e-001
31552476.000	-9.094726e-001	-4.173138e-001
31558470.000	-9.094887e-001	-4.172253e-001
31564464.000	-9.094948e-001	-4.171726e-001
31570458.000	-9.095578e-001	-4.170659e-001
31576452.000	-9.096341e-001	-4.170452e-001
31582446.000	-9.096433e-001	-4.169725e-001
31588440.000	-9.096895e-001	-4.168698e-001
31594434.000	-9.097508e-001	-4.168488e-001
31600428.000	-9.097018e-001	-4.167376e-001
31606422.000	-9.097718e-001	-4.166905e-001
31612416.000	-9.098228e-001	-4.165700e-001
31618410.000	-9.098239e-001	-4.165686e-001
31624404.000	-9.098140e-001	-4.164027e-001
31630398.000	-9.099183e-001	-4.163346e-001
31636392.000	-9.099276e-001	-4.163017e-001
31642386.000	-9.099455e-001	-4.162527e-001
31648380.000	-9.099726e-001	-4.161444e-001
31654374.000	-9.100387e-001	-4.161243e-001
31660368.000	-9.100399e-001	-4.160298e-001
31666362.000	-9.100954e-001	-4.159587e-001
31672356.000	-9.101378e-001	-4.158837e-001
31678350.000	-9.101586e-001	-4.158150e-001
31684344.000	-9.101437e-001	-4.157404e-001
31690338.000	-9.101950e-001	-4.156546e-001
31696332.000	-9.102333e-001	-4.155735e-001
31702326.000	-9.102439e-001	-4.155041e-001
31708320.000	-9.102975e-001	-4.154895e-001
31714314.000	-9.103365e-001	-4.153596e-001
31720308.000	-9.103398e-001	-4.152449e-001
31726302.000	-9.103156e-001	-4.152184e-001
31732296.000	-9.104243e-001	-4.151556e-001
31738290.000	-9.104910e-001	-4.151021e-001
31744284.000	-9.104577e-001	-4.149993e-001
31750278.000	-9.105171e-001	-4.148811e-001
31756272.000	-9.105289e-001	-4.148598e-001
31762266.000	-9.105716e-001	-4.147837e-001
31768260.000	-9.105678e-001	-4.146615e-001
31774254.000	-9.106316e-001	-4.146677e-001
31780248.000	-9.106374e-001	-4.145609e-001
31786242.000	-9.106973e-001	-4.144599e-001
31792236.000	-9.107652e-001	-4.144971e-001
31798230.000	-9.107553e-001	-4.143113e-001
31804224.000	-9.108100e-001	-4.142688e-001
31810218.000	-9.108367e-001	-4.142048e-001
31816212.000	-9.108786e-001	-4.141346e-001
31822206.000	-9.109022e-001	-4.140901e-001
31828200.000	-9.109692e-001	-4.140124e-001
31834194.000	-9.109989e-001	-4.139323e-001
31840188.000	-9.109940e-001	-4.138300e-001
31846182.000	-9.110509e-001	-4.137555e-001
31852176.000	-9.110765e-001	-4.136923e-001
31858170.000	-9.110801e-001	-4.136271e-001
31864164.000	-9.111233e-001	-4.135946e-001
31870158.000	-9.111920e-001	-4.135319e-001
31876152.000	-9.111655e-001	-4.134510e-001
31882146.000	-9.112589e-001	-4.133705e-001
31888140.000	-9.112969e-001	-4.133003e-001
31894134.000	-9.112867e-001	-4.132201e-001
31900128.000	-9.113430e-001	-4.131575e-001
31906122.000	-9.113611e-001	-4.131051e-001
31912116.000	-9.114730e-001	-4.130563e-001
31918110.000	-9.114682e-001	-4.129516e-001
31924104.000	-9.114811e-001	-4.128099e-001
31930098.000	-9.115113e-001	-4.128022e-001
31936092.000	-9.114849e-001	-4.126969e-001
31942086.000	-9.115847e-001	-4.126656e-001
31948080.000	-9.116014e-001	-4.125896e-001
31954074.000	-9.116013e-001	-4.125129e-001
31960068.000	-9.116967e-001	-4.124320e-001
31966062.000	-9.116618e-001	-4.123588e-001
31972056.000	-9.117058e-001	-4.123436e-001
31978050.000	-9.117652e-001	-4.122468e-001
31984044.000	-9.117448e-001	-4.121674e-001
31990038.000	-9.118391e-001	-4.121239e-001
31996032.000	-9.118686e-001	-4.120328e-001
32002026.000	-9.119041e-001	-4.118788e-001
32008020.000	-9.118763e-001	-4.118522e-001
32014014.000	-9.119860e-001	-4.118164e-001
32020008.000	-9.119516e-001	-4.117092e-001
32026002.000	-9.119790e-001	-4.116636e-001
32031996.000	-9.120484e-001	-4.116031e-001
32037990.000	-9.120711e-001	-4.115456e-001
32043984.000	-9.120443e-001	-4.114320e-001
32049978.000	-9.121244e-001	-4.113628e-001
32055972.000	-9.121659e-001	-4.112991e-001
32061966.000	-9.121991e-001	-4.112357e-001
32067960.000	-9.122071e-001	-4.111630e-001
32073954.000	-9.122631e-001	-4.111519e-001
32079948.000	-9.122409e-001	-4.110009e-001
32085942.000	-9.123311e-001	-4.109614e-001
32091936.000	-9.123133e-001	-4.108897e-001
32097930.000	-9.123875e-001	-4.108048e-001
32103924.000	-9.123945e-001	-4.107739e-001
32109918.000	-9.124521e-001	-4.107649e-001
32115912.000	-9.124961e-001	-4.106019e-001
32121906.000	-9.124742e-001	-4.105396e-001
32127900.000	-9.125686e-001	-4.105194e-001
32133894.000	-9.126255e-001	-4.103778e-001
32139888.000	-9.125866e-001	-4.103415e-001
32145882.000	-9.126977e-001	-4.102517e-001
32151876.000	-9.126699e-001	-4.102168e-001
32157870.000	-9.126838e-001	-4.100893e-001
32163864.000	-9.127281e-001	-4.100767e-001
32169858.000	-9.127807e-001	-4.100178e-001
32175852.000	-9.127972e-001	-4.098963e-001
32181846.000	-9.127892e-001	-4.098706e-001
32187840.000	-9.128748e-001	-4.098060e-001
32193834.000	-9.128562e-001	-4.096937e-001
32199828.000	-9.129232e-001	-4.096444e-001
32205822.000	-9.129399e-001	-4.095415e-001
32211816.000	-9.129955e-001	-4.094725e-001
32217810.000	-9.129996e-001	-4.094665e-001
32223804.000	-9.130291e-001	-4.093662e-001
32229798.000	-9.130837e-001	-4.092598e-001
32235792.000	-9.130693e-001	-4.091832e-001
32241786.000	-9.130886e-001	-4.091173e-001
32247780.000	-9.131430e-001	-4.090598e-001
32253774.000	-9.132161e-001	-4.090101e-001
32259768.000	-9.131699e-001	-4.089306e-001
32265762.000	-9.132470e-001	-4.088798e-001
32271756.000	-9.132566e-001	-4.087875e-001
32277750.000	-9.133031e-001	-4.086939e-001
32283744.000	-9.133331e-001	-4.086089e-001
32289738.000	-9.133903e-001	-4.086183e-001
32295732.000	-9.133823e-001	-4.085123e-001
32301726.000	-9.134240e-001	-4.084219e-001
32307720.000	-9.134629e-001	-4.083840e-001
32313714.000	-9.134787e-001	-4.082933e-001
32319708.000	-9.135406e-001	-4.082735e-001
32325702.000	-9.135973e-001	-4.081935e-001
32331696.000	-9.136079e-001	-4.081373e-001
32337690.000	-9.136177e-001	-4.080498e-001
32343684.000	-9.136954e-001	-4.079497e-001
32349678.000	-9.137529e-001	-4.079073e-001
32355672.000	-9.137422e-001	-4.078504e-001
32361666.000	-9.137446e-001	-4.077766e-001
32367660.000	-9.138070e-001	-4.076969e-001
32373654.000	-9.138448e-001	-4.075857e-001
32379648.000	-9.138792e-001	-4.075629e-001
32385642.000	-9.138741e-001	-4.075101e-001
32391636.000	-9.138714e-001	-4.074183e-001
32397630.000	-9.139692e-001	-4.073625e-001
32403624.000	-9.139535e-001	-4.072459e-001
32409618.000	-9.140064e-001	-4.072866e-001
32415612.000	-9.140038e-001	-4.070942e-001
32421606.000	-9.141012e-001	-4.070761e-001
32427600.000	-9.140337e-001	-4.069939e-001
32433594.000	-9.141292e-001	-4.069326e-001
32439588.000	-9.141436e-001	-4.068887e-001
32445582.000	-9.141692e-001	-4.067764e-001
32451576.000	-9.142120e-001	-4.067186e-001
32457570.000	-9.142146e-001	-4.066443e-001
32463564.000	-9.142584e-001	-4.065851e-001
32469558.000	-9.142719e-001	-4.064991e-001
32475552.000	-9.142700e-001	-4.064424e-001
32481546.000	-9.143808e-001	-4.063975e-001
32487540.000	-9.143132e-001	-4.062873e-001
32493534.000	-9.144144e-001	-4.062090e-001
32499528.000	-9.144546e-001	-4.061632e-001
32505522.000	-9.144668e-001	-4.060953e-001
32511516.000	-9.144832e-001	-4.059997e-001
32517510.000	-9.145282e-001	-4.059409e-001
32523504.000	-9.145153e-001	-4.058787e-001
32529498.000	-9.145728e-001	-4.058041e-001
32535492.000	-9.146088e-001	-4.057889e-001
32541486.000	-9.146496e-001	-4.057295e-001
32547480.000	-9.146667e-001	-4.056207e-001
32553474.000	-9.147037e-001	-4.055748e-001
32559468.000	-9.146966e-001	-4.054574e-001
32565462.000	-9.148130e-001	-4.054099e-001
32571456.000	-9.148259e-001	-4.053545e-001
32577450.000	-9.148372e-001	-4.052922e-001
32583444.000	-9.148837e-001	-4.052221e-001
32589438.000	-9.148678e-001	-4.051492e-001
32595432.000	-9.149640e-001	-4.050745e-001
32601426.000	-9.149428e-001	-4.050389e-001
32607420.000	-9.149687e-001	-4.049557e-001
32613414.000	-9.150754e-001	-4.048266e-001
32619408.000	-9.150702e-001	-4.048214e-001
32625402.000	-9.151285e-001	-4.047866e-001
32631396.000	-9.151181e-001	-4.046751e-001
32637390.000	-9.151225e-001	-4.046030e-001
32643384.000	-9.152100e-001	-4.044893e-001
32649378.000	-9.152449e-001	-4.044754e-001
32655372.000	-9.152615e-001	-4.043597e-001
32661366.000	-9.153104e-001	-4.043603e-001
32667360.000	-9.152890e-001	-4.042533e-001
32673354.000	-9.153441e-001	-4.042199e-001
32679348.000	-9.153386e-001	-4.040849e-001
32685342.000	-9.153537e-001	-4.040683e-001
32691336.000	-9.154234e-001	-4.040086e-001
32697330.000	-9.153853e-001	-4.038933e-001
32703324.000	-9.154593e-001	-4.038434e-001
32709318.000	-9.154669e-001	-4.037968e-001
32715312.000	-9.155521e-001	-4.037007e-001
32721306.000	-9.155449e-001	-4.036616e-001
32727300.000	-9.156078e-001	-4.035670e-001
32733294.000	-9.156015e-001	-4.035132e-001
32739288.000	-9.156506e-001	-4.034830e-001
32745282.000	-9.156928e-001	-4.033957e-001
32751276.000	-9.156871e-001	-4.033382e-001
32757270.000	-9.156734e-001	-4.032783e-001
32763264.000	-9.156775e-001	-4.031113e-001
32769258.000	-9.157300e-001	-4.030454e-001
32775252.000	-9.158282e-001	-4.030384e-001
32781246.000	-9.157798e-001	-4.030117e-001
32787240.000	-9.158627e-001	-4.028763e-001
32793234.000	-9.158536e-001	-4.028167e-001
32799228.000	-9.159256e-001	-4.027665e-001
32805222.000	-9.159446e-001	-4.026937e-001
32811216.000	-9.159767e-001	-4.026457e-001
32817210.000	-9.160382e-001	-4.025677e-001
32823204.000	-9.160507e-001	-4.024744e-001
32829198.000	-9.160595e-001	-4.024115e-001
32835192.000	-9.161151e-001	-4.023328e-001
32841186.000	-9.161039e-001	-4.023128e-001
32847180.000	-9.162176e-001	-4.022320e-001
32853174.000	-9.162563e-001	-4.021952e-001
32859168.000	-9.162199e-001	-4.021640e-001
32865162.000	-9.163239e-001	-4.020492e-001
32871156.000	-9.163207e-001	-4.020257e-001
32877150.000	-9.162748e-001	-4.018838e-001
32883144.000	-9.163766e-001	-4.018073e-001
32889138.000	-9.162918e-001	-4.017567e-001
32895132.000	-9.163513e-001	-4.017159e-001
32901126.000	-9.163794e-001	-4.016402e-001
32907120.000	-9.164496e-001	-4.015739e-001
32913114.000	-9.164507e-001	-4.015127e-001
32919108.000	-9.164940e-001	-4.014410e-001
32925102.000	-9.166120e-001	-4.013981e-001
32931096.000	-9.165794e-001	-4.012829e-001
32937090.000	-9.166313e-001	-4.012396e-001
32943084.000	-9.166303e-001	-4.011697e-001
32949078.000	-9.166456e-001	-4.011538e-001
32955072.000	-9.166605e-001	-4.010289e-001
32961066.000	-9.167417e-001	-4.009598e-001
32967060.000	-9.167419e-001	-4.009032e-001
32973054.000	-9.167850e-001	-4.008490e-001
32979048.000	-9.168095e-001	-4.007525e-001
32985042.000	-9.168062e-001	-4.007017e-001
32991036.000	-9.168689e-001	-4.005816e-001
32997030.000	-9.169065e-001	-4.005697e-001
33003024.000	-9.169605e-001	-4.005088e-001
33009018.000	-9.169323e-001	-4.004309e-001
33015012.000	-9.169500e-001	-4.003740e-001
33021006.000	-9.170050e-001	-4.002985e-001
33027000.000	-9.170324e-001	-4.002124e-001
33032994.000	-9.170700e-001	-4.001751e-001
33038988.000	-9.171044e-001	-4.000703e-001
33044982.000	-9.171485e-001	-4.000095e-001
33050976.000	-9.171471e-001	-3.999295e-001
33056970.000	-9.171518e-001	-3.998783e-001
33062964.000	-9.171705e-001	-3.997972e-001
33068958.000	-9.172042e-001	-3.997458e-001
33074952.000	-9.172890e-001	-3.996820e-001
33080946.000	-9.172662e-001	-3.996124e-001
33086940.000	-9.173251e-001	-3.995626e-001
33092934.000	-9.172970e-001	-3.994848e-001
33098928.000	-9.173905e-001	-3.994172e-001
33104922.000	-9.173886e-001	-3.993805e-001
33110916.000	-9.174261e-001	-3.992813e-001
33116910.000	-9.174391e-001	-3.992123e-001
33122904.000	-9.175204e-001	-3.991814e-001
33128898.000	-9.175181e-001	-3.990711e-001
33134892.000	-9.175284e-001	-3.990048e-001
33140886.000	-9.175695e-001	-3.989525e-001
33146880.000	-9.175831e-001	-3.988668e-001
33152874.000	-9.175961e-001	-3.988282e-001
33158868.000	-9.176534e-001	-3.987463e-001
33164862.000	-9.176490e-001	-3.986747e-001
33170856.000	-9.176823e-001	-3.986204e-001
33176850.000	-9.177244e-001	-3.985925e-001
33182844.000	-9.177833e-001	-3.985056e-001
33188838.000	-9.177709e-001	-3.984543e-001
33194832.000	-9.178326e-001	-3.983525e-001
33200826.000	-9.178623e-001	-3.983049e-001
33206820.000	-9.179075e-001	-3.981994e-001
33212814.000	-9.178974e-001	-3.981910e-001
33218808.000	-9.179396e-001	-3.980679e-001
33224802.000	-9.179628e-001	-3.980382e-001
33230796.000	-9.179688e-001	-3.979414e-001
33236790.000	-9.179870e-001	-3.978488e-001
33242784.000	-9.179913e-001	-3.978264e-001
33248778.000	-9.180728e-001	-3.977750e-001
33254772.000	-9.180871e-001	-3.976708e-001
33260766.000	-9.181374e-001	-3.976339e-001
33266760.000	-9.181409e-001	-3.975426e-001
33272754.000	-9.182154e-001	-3.974857e-001
33278748.000	-9.182374e-001	-3.974583e-001
33284742.000	-9.182096e-001	-3.973500e-001
33290736.000	-9.182584e-001	-3.973145e-001
33296730.000	-9.183231e-001	-3.972573e-001
33302724.000	-9.183376e-001	-3.972027e-001
33308718.000	-9.183235e-001	-3.971304e-001
33314712.000	-9.183729e-001	-3.970528e-001
33320706.000	-9.184117e-001	-3.969926e-001
33326700.000	-9.184969e-001	-3.969337e-001
33332694.000	-9.184974e-001	-3.968528e-001
33338688.000	-9.184981e-001	-3.968108e-001
33344682.000	-9.185192e-001	-3.967347e-001
33350676.000	-9.185757e-001	-3.966543e-001
33356670.000	-9.185901e-001	-3.965955e-001
33362664.000	-9.186158e-001	-3.965408e-001
33368658.000	-9.186549e-001	-3.964345e-001
33374652.000	-9.186855e-001	-3.964065e-001
33380646.000	-9.187130e-001	-3.963513e-001
33386640.000	-9.187104e-001	-3.962377e-001
33392634.000	-9.187492e-001	-3.962066e-001
33398628.000	-9.187539e-001	-3.960952e-001
33404622.000	-9.187880e-001	-3.960784e-001
33410616.000	-9.188283e-001	-3.959897e-001
33416610.000	-9.188604e-001	-3.959759e-001
33422604.000	-9.188662e-001	-3.958247e-001
33428598.000	-9.189098e-001	-3.957812e-001
33434592.000	-9.189585e-001	-3.957314e-001
33440586.000	-9.189843e-001	-3.956381e-001
33446580.000	-9.189769e-001	-3.955438e-001
33452574.000	-9.190037e-001	-3.955147e-001
33458568.000	-9.190527e-001	-3.954960e-001
33464562.000	-9.191042e-001	-3.953962e-001
33470556.000	-9.191142e-001	-3.953400e-001
33476550.000	-9.191016e-001	-3.952467e-001
33482544.000	-9.191345e-001	-3.952136e-001
33488538.000	-9.191756e-001	-3.951408e-001
33494532.000	-9.191564e-001	-3.950151e-001
33500526.000	-9.192295e-001	-3.950302e-001
33506520.000	-9.192872e-001	-3.949761e-001
33512514.000	-9.193330e-001	-3.948738e-001
33518508.000	-9.193243e-001	-3.948299e-001
33524502.000	-9.193542e-001	-3.947394e-001
33530496.000	-9.193954e-001	-3.946579e-001
33536490.000	-9.193945e-001	-3.945984e-001
33542484.000	-9.193774e-001	-3.945184e-001
33548478.000	-9.195235e-001	-3.944512e-001
33554472.000	-9.194751e-001	-3.943880e-001
33560466.000	-9.194805e-001	-3.943220e-001
33566460.000	-9.195908e-001	-3.943038e-001
33572454.000	-9.195244e-001	-3.942329e-001
33578448.000	-9.195843e-001	-3.941402e-001
33584442.000	-9.196190e-001	-3.940411e-001
33590436.000	-9.196710e-001	-3.939967e-001
33596430.000	-9.196525e-001	-3.939940e-001
33602424.000	-9.196512e-001	-3.938940e-001
33608418.000	-9.197265e-001	-3.938032e-001
33614412.000	-9.197482e-001	-3.937539e-001
33620406.000	-9.197530e-001	-3.936757e-001
33626400.000	-9.198278e-001	-3.936638e-001
33632394.000	-9.198137e-001	-3.935442e-001
33638388.000	-9.198582e-001	-3.934907e-001
33644382.000	-9.198778e-001	-3.934354e-001
33650376.000	-9.199413e-001	-3.933816e-001
33656370.000	-9.199140e-001	-3.933128e-001
33662364.000	-9.199418e-001	-3.931992e-001
33668358.000	-9.199742e-001	-3.931876e-001
33674352.000	-9.200350e-001	-3.931436e-001
33680346.000	-9.200376e-001	-3.930127e-001
33686340.000	-9.200766e-001	-3.929896e-001
33692334.000	-9.200695e-001	-3.929260e-001
33698328.000	-9.201022e-001	-3.928687e-001
33704322.000	-9.201597e-001	-3.927755e-001
33710316.000	-9.201470e-001	-3.927538e-001
33716310.000	-9.202524e-001	-3.926408e-001
33722304.000	-9.202407e-001	-3.926254e-001
33728298.000	-9.202756e-001	-3.925340e-001
33734292.000	-9.203048e-001	-3.924884e-001
33740286.000	-9.203004e-001	-3.924141e-001
33746280.000	-9.203824e-001	-3.923400e-001
33752274.000	-9.203961e-001	-3.923297e-001
33758268.000	-9.203941e-001	-3.922181e-001
33764262.000	-9.204033e-001	-3.921143e-001
33770256.000	-9.204864e-001	-3.920773e-001
33776250.000	-9.204689e-001	-3.920268e-001
33782244.000	-9.205214e-001	-3.919707e-001
33788238.000	-9.205309e-001	-3.918801e-001
33794232.000	-9.205474e-001	-3.918456e-001
33800226.000	-9.205468e-001	-3.917774e-001
33806220.000	-9.206374e-001	-3.916882e-001
33812214.000	-9.206356e-001	-3.916338e-001
33818208.000	-9.206811e-001	-3.915820e-001
33824202.000	-9.207152e-001	-3.914914e-001
33830196.000	-9.206938e-001	-3.914559e-001
33836190.000	-9.207561e-001	-3.913665e-001
33842184.000	-9.207439e-001	-3.913225e-001
33848178.000	-9.208769e-001	-3.912403e-001
33854172.000	-9.208723e-001	-3.912560e-001
33860166.000	-9.208417e-001	-3.911596e-001
33866160.000	-9.208799e-001	-3.910841e-001
33872154.000	-9.209061e-001	-3.910066e-001
33878148.000	-9.209675e-001	-3.908900e-001
33884142.000	-9.209462e-001	-3.908612e-001
33890136.000	-9.209935e-001	-3.908064e-001
33896130.000	-9.210434e-001	-3.907375e-001
33902124.000	-9.211049e-001	-3.906731e-001
33908118.000	-9.210751e-001	-3.905773e-001
33914112.000	-9.211470e-001	-3.905148e-001
33920106.000	-9.211391e-001	-3.904436e-001
33926100.000	-9.211696e-001	-3.903617e-001
33932094.000	-9.212047e-001	-3.903125e-001
33938088.000	-9.211720e-001	-3.902826e-001
33944082.000	-9.212617e-001	-3.901981e-001
33950076.000	-9.213036e-001	-3.901114e-001
33956070.000	-9.212683e-001	-3.901339e-001
33962064.000	-9.213868e-001	-3.900444e-001
33968058.000	-9.213735e-001	-3.899370e-001
33974052.000	-9.213834e-001	-3.899317e-001
33980046.000	-9.214254e-001	-3.898155e-001
33986040.000	-9.214257e-001	-3.897734e-001
33992034.000	-9.214776e-001	-3.896815e-001
33998028.000	-9.215136e-001	-3.896689e-001
34004022.000	-9.215246e-001	-3.895433e-001
34010016.000	-9.215277e-001	-3.894895e-001
34016010.000	-9.215591e-001	-3.894423e-001
34022004.000	-9.215345e-001	-3.893301e-001
34027998.000	-9.216339e-001	-3.893192e-001
34033992.000	-9.216552e-001	-3.892294e-001
34039986.000	-9.216702e-001	-3.892207e-001
34045980.000	-9.216921e-001	-3.891361e-001
34051974.000	-9.216696e-001	-3.889888e-001
34057968.000	-9.217229e-001	-3.889960e-001
34063962.000	-9.217369e-001	-3.889298e-001
34069956.000	-9.217719e-001	-3.888082e-001
34075950.000	-9.218044e-001	-3.887642e-001
34081944.000	-9.218612e-001	-3.887147e-001
34087938.000	-9.219051e-001	-3.887121e-001
34093932.000	-9.218898e-001	-3.885611e-001
34099926.000	-9.219270e-001	-3.885130e-001
34105920.000	-9.219475e-001	-3.884879e-001
34111914.000	-9.220123e-001	-3.884285e-001
34117908.000	-9.219789e-001	-3.883993e-001
34123902.000	-9.220523e-001	-3.883079e-001
34129896.000	-9.220654e-001	-3.882538e-001
34135890.000	-9.221028e-001	-3.881816e-001
34141884.000	-9.220992e-001	-3.881220e-001
34147878.000	-9.221247e-001	-3.880446e-001
34153872.000	-9.221245e-001	-3.879850e-001
34159866.000	-9.221538e-001	-3.879054e-001
34165860.000	-9.222385e-001	-3.878748e-001
34171854.000	-9.222450e-001	-3.877670e-001
34177848.000	-9.222541e-001	-3.876933e-001
34183842.000	-9.223090e-001	-3.876524e-001
34189836.000	-9.223495e-001	-3.876303e-001
34195830.000	-9.223978e-001	-3.875201e-001
34201824.000	-9.223583e-001	-3.874482e-001
34207818.000	-9.223502e-001	-3.873738e-001
34213812.000	-9.224125e-001	-3.873234e-001
34219806.000	-9.224405e-001	-3.872643e-001
34225800.000	-9.224704e-001	-3.872095e-001
34231794.000	-9.224762e-001	-3.871688e-001
34237788.000	-9.225522e-001	-3.871032e-001
34243782.000	-9.225369e-001	-3.870172e-001
34249776.000	-9.225672e-001	-3.869268e-001
34255770.000	-9.226443e-001	-3.869351e-001
34261764.000	-9.226690e-001	-3.869013e-001
34267758.000	-9.226642e-001	-3.868008e-001
34273752.000	-9.227235e-001	-3.866994e-001
34279746.000	-9.227838e-001	-3.866845e-001
34285740.000	-9.228059e-001	-3.865949e-001
34291734.000	-9.227688e-001	-3.865686e-001
34297728.000	-9.228548e-001	-3.865086e-001
34303722.000	-9.228284e-001	-3.864184e-001
34309716.000	-9.228291e-001	-3.864053e-001
34315710.000	-9.228866e-001	-3.862835e-001
34321704.000	-9.229245e-001	-3.862350e-001
34327698.000	-9.229946e-001	-3.861571e-001
34333692.000	-9.229851e-001	-3.861624e-001
34339686.000	-9.230047e-001	-3.860865e-001
34345680.000	-9.229465e-001	-3.859801e-001
34351674.000	-9.230228e-001	-3.859232e-001
34357668.000	-9.231336e-001	-3.858405e-001
34363662.000	-9.231078e-001	-3.857969e-001
34369656.000	-9.231431e-001	-3.857084e-001
34375650.000	-9.231628e-001	-3.857285e-001
34381644.000	-9.232058e-001	-3.855781e-001
34387638.000	-9.232028e-001	-3.855570e-001
34393632.000	-9.231945e-001	-3.854723e-001
34399626.000	-9.231899e-001	-3.853649e-001
34405620.000	-9.232417e-001	-3.853840e-001
34411614.000	-9.232564e-001	-3.852886e-001
34417608.000	-9.232494e-001	-3.851923e-001
34423602.000	-9.232868e-001	-3.851522e-001
34429596.000	-9.233445e-001	-3.850577e-001
34435590.000	-9.233809e-001	-3.850623e-001
34441584.000	-9.233703e-001	-3.849550e-001
34447578.000	-9.234584e-001	-3.849279e-001
34453572.000	-9.234349e-001	-3.848152e-001
34459566.000	-9.234769e-001	-3.848216e-001
34465560.000	-9.235007e-001	-3.847082e-001
34471554.000	-9.235479e-001	-3.846651e-001
34477548.000	-9.235794e-001	-3.845945e-001
34483542.000	-9.235369e-001	-3.845163e-001
34489536.000	-9.236316e-001	-3.844934e-001
34495530.000	-9.236658e-001	-3.843630e-001
34501524.000	-9.236490e-001	-3.843851e-001
34507518.000	-9.237166e-001	-3.843529e-001
34513512.000	-9.237109e-001	-3.842122e-001
34519506.000	-9.237684e-001	-3.841561e-001
34525500.000	-9.237849e-001	-3.841363e-001
34531494.000	-9.238077e-001	-3.840176e-001
34537488.000	-9.238125e-001	-3.839684e-001
34543482.000	-9.238262e-001	-3.839117e-001
34549476.000	-9.238613e-001	-3.838574e-001
34555470.000	-9.239003e-001	-3.838249e-001
34561464.000	-9.238524e-001	-3.836959e-001
34567458.000	-9.238905e-001	-3.836885e-001
34573452.000	-9.239460e-001	-3.836093e-001
34579446.000	-9.239897e-001	-3.835764e-001
34585440.000	-9.239811e-001	-3.834779e-001
34591434.000	-9.239926e-001	-3.834015e-001
34597428.000	-9.240435e-001	-3.833709e-001
34603422.000	-9.240373e-001	-3.832327e-001
34609416.000	-9.240669e-001	-3.831878e-001
34615410.000	-9.240757e-001	-3.831731e-001
34621404.000	-9.241540e-001	-3.830944e-001
34627398.000	-9.241779e-001	-3.830096e-001
34633392.000	-9.241827e-001	-3.829906e-001
34639386.000	-9.242048e-001	-3.828832e-001
34645380.000	-9.242786e-001	-3.829010e-001
34651374.000	-9.242434e-001	-3.827653e-001
34657368.000	-9.243285e-001	-3.827532e-001
34663362.000	-9.242867e-001	-3.826677e-001
34669356.000	-9.243222e-001	-3.825789e-001
34675350.000	-9.244141e-001	-3.825332e-001
34681344.000	-9.243497e-001	-3.824816e-001
34687338.000	-9.244107e-001	-3.824431e-001
34693332.000	-9.244721e-001	-3.823860e-001
34699326.000	-9.244947e-001	-3.822782e-001
34705320.000	-9.245549e-001	-3.822474e-001
34711314.000	-9.245155e-001	-3.822083e-001
34717308.000	-9.245651e-001	-3.821222e-001
34723302.000	-9.245727e-001	-3.820756e-001
34729296.000	-9.245909e-001	-3.819819e-001
34735290.000	-9.246483e-001	-3.819750e-001
34741284.000	-9.246721e-001	-3.818515e-001
34747278.000	-9.246968e-001	-3.818210e-001
34753272.000	-9.246957e-001	-3.817588e-001
34759266.000	-9.247701e-001	-3.817329e-001
34765260.000	-9.247283e-001	-3.816065e-001
34771254.000	-9.247532e-001	-3.815642e-001
34777248.000	-9.247911e-001	-3.815885e-001
34783242.000	-9.247953e-001	-3.814726e-001
34789236.000	-9.248912e-001	-3.813860e-001
34795230.000	-9.249259e-001	-3.813814e-001
34801224.000	-9.249075e-001	-3.813186e-001
34807218.000	-9.249020e-001	-3.812163e-001
34813212.000	-9.249765e-001	-3.811542e-001
34819206.000	-9.249878e-001	-3.810856e-001
34825200.000	-9.249819e-001	-3.810350e-001
34831194.000	-9.250854e-001	-3.810134e-001
34837188.000	-9.250694e-001	-3.809153e-001
34843182.000	-9.251579e-001	-3.808780e-001
34849176.000	-9.251064e-001	-3.807933e-001
34855170.000	-9.251769e-001	-3.807353e-001
34861164.000	-9.251924e-001	-3.807136e-001
34867158.000	-9.252207e-001	-3.806295e-001
34873152.000	-9.252409e-001	-3.805633e-001
34879146.000	-9.252714e-001	-3.805060e-001
34885140.000	-9.252855e-001	-3.804426e-001
34891134.000	-9.252413e-001	-3.803352e-001
34897128.000	-9.253063e-001	-3.803267e-001
34903122.000	-9.253189e-001	-3.802364e-001
34909116.000	-9.253789e-001	-3.801615e-001
34915110.000	-9.253540e-001	-3.801093e-001
34921104.000	-9.254497e-001	-3.800627e-001
34927098.000	-9.254278e-001	-3.800269e-001
34933092.000	-9.254249e-001	-3.798832e-001
34939086.000	-9.254857e-001	-3.798884e-001
34945080.000	-9.254797e-001	-3.797989e-001
34951074.000	-9.255068e-001	-3.797653e-001
34957068.000	-9.255641e-001	-3.796836e-001
34963062.000	-9.255319e-001	-3.796206e-001
34969056.000	-9.255769e-001	-3.795885e-001
34975050.000	-9.255845e-001	-3.794936e-001
34981044.000	-9.256359e-001	-3.794830e-001
34987038.000	-9.256670e-001	-3.793704e-001
34993032.000	-9.257257e-001	-3.793207e-001
34999026.000	-9.257285e-001	-3.792665e-001
35005020.000	-9.257745e-001	-3.791770e-001
35011014.000	-9.257753e-001	-3.791535e-001
35017008.000	-9.257365e-001	-3.790862e-001
35023002.000	-9.257849e-001	-3.790542e-001
35028996.000	-9.257960e-001	-3.789772e-001
35034990.000	-9.258456e-001	-3.788737e-001
35040984.000	-9.259073e-001	-3.788583e-001
35046978.000	-9.258764e-001	-3.787402e-001
35052972.000	-9.259056e-001	-3.787204e-001
35058966.000	-9.258828e-001	-3.786255e-001
35064960.000	-9.259677e-001	-3.786038e-001
35070954.000	-9.259899e-001	-3.785344e-001
35076948.000	-9.260650e-001	-3.785000e-001
35082942.000	-9.260592e-001	-3.784372e-001
35088936.000	-9.260158e-001	-3.783216e-001
35094930.000	-9.261301e-001	-3.783085e-001
35100924.000	-9.261318e-001	-3.782598e-001
35106918.000	-9.261246e-001	-3.781801e-001
35112912.000	-9.261770e-001	-3.781438e-001
35118906.000	-9.262089e-001	-3.781124e-001
35124900.000	-9.262156e-001	-3.779638e-001
35130894.000	-9.262325e-001	-3.778746e-001
35136888.000	-9.262438e-001	-3.778600e-001
35142882.000	-9.262560e-001	-3.778497e-001
35148876.000	-9.263335e-001	-3.777633e-001
35154870.000	-9.263329e-001	-3.776518e-001
35160864.000	-9.263649e-001	-3.776498e-001
35166858.000	-9.263972e-001	-3.776200e-001
35172852.000	-9.263454e-001	-3.775571e-001
35178846.000	-9.264194e-001	-3.774160e-001
35184840.000	-9.264833e-001	-3.773803e-001
35190834.000	-9.265258e-001	-3.773679e-001
35196828.000	-9.265289e-001	-3.772951e-001
35202822.000	-9.265688e-001	-3.772132e-001
35208816.000	-9.266194e-001	-3.772027e-001
35214810.000	-9.266240e-001	-3.771412e-001
35220804.000	-9.265962e-001	-3.770523e-001
35226798.000	-9.266314e-001	-3.769789e-001
35232792.000	-9.266362e-001	-3.769033e-001
35238786.000	-9.266957e-001	-3.768812e-001
35244780.000	-9.266988e-001	-3.768353e-001
35250774.000	-9.267227e-001	-3.767387e-001
35256768.000	-9.267696e-001	-3.766824e-001
35262762.000	-9.268026e-001	-3.766713e-001
35268756.000	-9.268135e-001	-3.765847e-001
35274750.000	-9.268475e-001	-3.765487e-001
35280744.000	-9.268511e-001	-3.764367e-001
35286738.000	-9.268957e-001	-3.764237e-001
35292732.000	-9.269044e-001	-3.763446e-001
35298726.000	-9.269742e-001	-3.762524e-001
35304720.000	-9.269905e-001	-3.762769e-001
35310714.000	-9.270072e-001	-3.761442e-001
35316708.000	-9.270178e-001	-3.761165e-001
35322702.000	-9.270591e-001	-3.760640e-001
35328696.000	-9.270565e-001	-3.759835e-001
35334690.000	-9.270784e-001	-3.759396e-001
35340684.000	-9.271290e-001	-3.758948e-001
35346678.000	-9.271304e-001	-3.757411e-001
35352672.000	-9.271361e-001	-3.757428e-001
35358666.000	-9.271192e-001	-3.756392e-001
35364660.000	-9.272112e-001	-3.756307e-001
35370654.000	-9.271713e-001	-3.755817e-001
35376648.000	-9.272350e-001	-3.754941e-001
35382642.000	-9.272326e-001	-3.754218e-001
35388636.000	-9.272788e-001	-3.753500e-001
35394630.000	-9.273013e-001	-3.753242e-001
35400624.000	-9.273319e-001	-3.752543e-001
35406618.000	-9.273039e-001	-3.752207e-001
35412612.000	-9.274016e-001	-3.751490e-001
35418606.000	-9.273914e-001	-3.750558e-001
35424600.000	-9.274175e-001	-3.750296e-001
35430594.000	-9.274016e-001	-3.749813e-001
35436588.000	-9.274860e-001	-3.748710e-001
35442582.000	-9.274657e-001	-3.748210e-001
35448576.000	-9.275624e-001	-3.748035e-001
35454570.000	-9.275704e-001	-3.747480e-001
35460564.000	-9.276287e-001	-3.746578e-001
35466558.000	-9.276025e-001	-3.746037e-001
35472552.000	-9.276614e-001	-3.746024e-001
35478546.000	-9.276797e-001	-3.745072e-001
35484540.000	-9.276774e-001	-3.744368e-001
35490534.000	-9.277271e-001	-3.744305e-001
35496528.000	-9.277280e-001	-3.743567e-001
35502522.000	-9.276786e-001	-3.742359e-001
35508516.000	-9.277638e-001	-3.742079e-001
35514510.000	-9.278212e-001	-3.741556e-001
35520504.000	-9.278720e-001	-3.740968e-001
35526498.000	-9.278179e-001	-3.740459e-001
35532492.000	-9.278723e-001	-3.739885e-001
35538486.000	-9.278738e-001	-3.738790e-001
35544480.000	-9.278752e-001	-3.738975e-001
35550474.000	-9.278790e-001	-3.737845e-001
35556468.000	-9.279587e-001	-3.737110e-001
35562462.000	-9.279567e-001	-3.736274e-001
35568456.000	-9.280008e-001	-3.736451e-001
35574450.000	-9.280220e-001	-3.736189e-001
35580444.000	-9.280928e-001	-3.734766e-001
35586438.000	-9.280938e-001	-3.734783e-001
35592432.000	-9.280594e-001	-3.733677e-001
35598426.000	-9.281420e-001	-3.733312e-001
35604420.000	-9.281892e-001	-3.732981e-001
35610414.000	-9.281551e-001	-3.732151e-001
35616408.000	-9.281759e-001	-3.731482e-001
35622402.000	-9.282439e-001	-3.731182e-001
35628396.000	-9.282668e-001	-3.730932e-001
35634390.000	-9.282226e-001	-3.729384e-001
35640384.000	-9.283070e-001	-3.729071e-001
35646378.000	-9.282645e-001	-3.728379e-001
35652372.000	-9.283251e-001	-3.727915e-001
35658366.000	-9.283238e-001	-3.727439e-001
35664360.000	-9.283814e-001	-3.726856e-001
35670354.000	-9.284078e-001	-3.726239e-001
35676348.000	-9.283965e-001	-3.725424e-001
35682342.000	-9.284010e-001	-3.724794e-001
35688336.000	-9.284587e-001	-3.724543e-001
35694330.000	-9.284393e-001	-3.724036e-001
35700324.000	-9.285341e-001	-3.723439e-001
35706318.000	-9.285462e-001	-3.722746e-001
35712312.000	-9.285660e-001	-3.722433e-001
35718306.000	-9.285777e-001	-3.721980e-001
35724300.000	-9.285922e-001	-3.720939e-001
35730294.000	-9.286089e-001	-3.720541e-001
35736288.000	-9.286663e-001	-3.719584e-001
35742282.000	-9.286654e-001	-3.719700e-001
35748276.000	-9.287251e-001	-3.718937e-001
35754270.000	-9.286805e-001	-3.718097e-001
35760264.000	-9.287474e-001	-3.717384e-001
35766258.000	-9.287784e-001	-3.717129e-001
35772252.000	-9.287687e-001	-3.716402e-001
35778246.000	-9.287453e-001	-3.715681e-001
35784240.000	-9.288283e-001	-3.715237e-001
35790234.000	-9.288056e-001	-3.714526e-001
35796228.000	-9.288393e-001	-3.713737e-001
35802222.000	-9.288642e-001	-3.713663e-001
35808216.000	-9.288958e-001	-3.712434e-001
35814210.000	-9.288891e-001	-3.712105e-001
35820204.000	-9.289699e-001	-3.711549e-001
35826198.000	-9.289221e-001	-3.710623e-001
35832192.000	-9.289393e-001	-3.710663e-001
35838186.000	-9.290294e-001	-3.709851e-001
35844180.000	-9.290115e-001	-3.709504e-001
35850174.000	-9.290638e-001	-3.708466e-001
35856168.000	-9.290626e-001	-3.708302e-001
35862162.000	-9.291167e-001	-3.707481e-001
35868156.000	-9.291275e-001	-3.707007e-001
35874150.000	-9.291540e-001	-3.706024e-001
35880144.000	-9.291709e-001	-3.706175e-001
35886138.000	-9.291858e-001	-3.705252e-001
35892132.000	-9.292153e-001	-3.704801e-001
35898126.000	-9.292086e-001	-3.704041e-001
35904120.000	-9.292001e-001	-3.703455e-001
35910114.000	-9.292723e-001	-3.702629e-001
35916108.000	-9.293220e-001	-3.702698e-001
35922102.000	-9.293106e-001	-3.701877e-001
35928096.000	-9.293350e-001	-3.701454e-001
35934090.000	-9.293760e-001	-3.700331e-001
35940084.000	-9.293578e-001	-3.699723e-001
35946078.000	-9.294530e-001	-3.699770e-001
35952072.000	-9.293977e-001	-3.699142e-001
35958066.000	-9.294861e-001	-3.697593e-001
35964060.000	-9.294987e-001	-3.697639e-001
35970054.000	-9.295401e-001	-3.697166e-001
35976048.000	-9.295424e-001	-3.696251e-001
35982042.000	-9.295386e-001	-3.695759e-001
35988036.000	-9.295620e-001	-3.695593e-001
35994030.000	-9.295854e-001	-3.694616e-001
36000024.000	-9.296139e-001	-3.694558e-001
36006018.000	-9.296584e-001	-3.693676e-001
36012012.000	-9.296435e-001	-3.693211e-001
36018006.000	-9.296800e-001	-3.692882e-001
36024000.000	-9.297558e-001	-3.692325e-001
36029994.000	-9.297078e-001	-3.691744e-001
36035988.000	-9.297356e-001	-3.690502e-001
36041982.000	-9.297426e-001	-3.690267e-001
36047976.000	-9.298346e-001	-3.689622e-001
36053970.000	-9.298369e-001	-3.689332e-001
36059964.000	-9.298662e-001	-3.689163e-001
36065958.000	-9.299092e-001	-3.688215e-001
36071952.000	-9.299246e-001	-3.687148e-001
36077946.000	-9.298867e-001	-3.687130e-001
36083940.000	-9.299378e-001	-3.685957e-001
36089934.000	-9.298968e-001	-3.685732e-001
36095928.000	-9.299476e-001	-3.684696e-001
36101922.000	-9.300376e-001	-3.684713e-001
36107916.000	-9.300323e-001	-3.684261e-001
36113910.000	-9.300186e-001	-3.682804e-001
36119904.000	-9.300675e-001	-3.683089e-001
36125898.000	-9.300865e-001	-3.682407e-001
36131892.000	-9.301065e-001	-3.681670e-001
36137886.000	-9.301485e-001	-3.681298e-001
36143880.000	-9.301400e-001	-3.680591e-001
36149874.000	-9.301549e-001	-3.679975e-001
36155868.000	-9.302211e-001	-3.679332e-001
36161862.000	-9.302152e-001	-3.678744e-001
36167856.000	-9.302460e-001	-3.678150e-001
36173850.000	-9.303050e-001	-3.677854e-001
36179844.000	-9.303525e-001	-3.677368e-001
36185838.000	-9.303738e-001	-3.677149e-001
36191832.000	-9.303253e-001	-3.676105e-001
36197826.000	-9.303971e-001	-3.675292e-001
36203820.000	-9.303986e-001	-3.675011e-001
36209814.000	-9.304021e-001	-3.674421e-001
36215808.000	-9.303780e-001	-3.673507e-001
36221802.000	-9.304451e-001	-3.673323e-001
36227796.000	-9.304732e-001	-3.672693e-001
36233790.000	-9.304938e-001	-3.671844e-001
36239784.000	-9.305336e-001	-3.671321e-001
36245778.000	-9.305191e-001	-3.670963e-001
36251772.000	-9.305411e-001	-3.670344e-001
36257766.000	-9.306119e-001	-3.669075e-001
36263760.000	-9.305743e-001	-3.668671e-001
36269754.000	-9.306664e-001	-3.668448e-001
36275748.000	-9.306280e-001	-3.667485e-001
36281742.000	-9.306756e-001	-3.667604e-001
36287736.000	-9.306882e-001	-3.666990e-001
36293730.000	-9.306797e-001	-3.666041e-001
36299724.000	-9.307382e-001	-3.665895e-001
36305718.000	-9.307560e-001	-3.665238e-001
36311712.000	-9.307724e-001	-3.664782e-001
36317706.000	-9.308459e-001	-3.664478e-001
36323700.000	-9.308192e-001	-3.663831e-001
36329694.000	-9.308517e-001	-3.663364e-001
36335688.000	-9.308601e-001	-3.662274e-001
36341682.000	-9.308773e-001	-3.661239e-001
36347676.000	-9.309358e-001	-3.661749e-001
36353670.000	-9.309409e-001	-3.660983e-001
36359664.000	-9.308977e-001	-3.659914e-001
36365658.000	-9.309675e-001	-3.659561e-001
36371652.000	-9.310025e-001	-3.659003e-001
36377646.000	-9.310074e-001	-3.658876e-001
36383640.000	-9.310267e-001	-3.658059e-001
36389634.000	-9.311028e-001	-3.657609e-001
36395628.000	-9.310827e-001	-3.657183e-001
36401622.000	-9.310924e-001	-3.655943e-001
36407616.000	-9.311754e-001	-3.655689e-001
36413610.000	-9.311711e-001	-3.655053e-001
36419604.000	-9.311786e-001	-3.654369e-001
36425598.000	-9.311744e-001	-3.654196e-001
36431592.000	-9.312192e-001	-3.653631e-001
36437586.000	-9.311896e-001	-3.652962e-001
36443580.000	-9.312607e-001	-3.652402e-001
36449574.000	-9.312578e-001	-3.651571e-001
36455568.000	-9.312283e-001	-3.651060e-001
36461562.000	-9.313187e-001	-3.650956e-001
36467556.000	-9.313493e-001	-3.649899e-001
36473550.000	-9.313519e-001	-3.649079e-001
36479544.000	-9.314005e-001	-3.648699e-001
36485538.000	-9.313625e-001	-3.648445e-001
36491532.000	-9.313903e-001	-3.647405e-001
36497526.000	-9.314035e-001	-3.647223e-001
36503520.000	-9.314288e-001	-3.646492e-001
36509514.000	-9.314380e-001	-3.645834e-001
36515508.000	-9.315236e-001	-3.646026e-001
36521502.000	-9.315146e-001	-3.645173e-001
36527496.000	-9.315406e-001	-3.644259e-001
36533490.000	-9.315517e-001	-3.643710e-001
36539484.000	-9.316357e-001	-3.643400e-001
36545478.000	-9.316359e-001	-3.642598e-001
36551472.000	-9.316827e-001	-3.642026e-001
36557466.000	-9.316549e-001	-3.641832e-001
36563460.000	-9.316953e-001	-3.640767e-001
36569454.000	-9.317114e-001	-3.640794e-001
36575448.000	-9.317139e-001	-3.640031e-001
36581442.000	-9.317458e-001	-3.639426e-001
36587436.000	-9.318000e-001	-3.638628e-001
36593430.000	-9.317947e-001	-3.638502e-001
36599424.000	-9.318355e-001	-3.637890e-001
36605418.000	-9.318597e-001	-3.636608e-001
36611412.000	-9.319319e-001	-3.636664e-001
36617406.000	-9.319061e-001	-3.636168e-001
36623400.000	-9.318647e-001	-3.635808e-001
36629394.000	-9.318584e-001	-3.635121e-001
36635388.000	-9.319023e-001	-3.634201e-001
36641382.000	-9.319409e-001	-3.633791e-001
36647376.000	-9.320126e-001	-3.633428e-001
36653370.000	-9.320455e-001	-3.632804e-001
36659364.000	-9.320316e-001	-3.632130e-001
36665358.000	-9.321119e-001	-3.632012e-001
36671352.000	-9.320656e-001	-3.631082e-001
36677346.000	-9.320998e-001	-3.630386e-001
36683340.000	-9.321336e-001	-3.630524e-001
36689334.000	-9.321711e-001	-3.629339e-001
36695328.000	-9.321837e-001	-3.629442e-001
36701322.000	-9.322179e-001	-3.628388e-001
36707316.000	-9.322020e-001	-3.627586e-001
36713310.000	-9.322441e-001	-3.626893e-001
36719304.000	-9.322670e-001	-3.626244e-001
36725298.000	-9.322867e-001	-3.626305e-001
36731292.000	-9.322820e-001	-3.625566e-001
36737286.000	-9.322999e-001	-3.624791e-001
36743280.000	-9.323098e-001	-3.624055e-001
36749274.000	-9.323359e-001	-3.624055e-001
36755268.000	-9.323845e-001	-3.622949e-001
36761262.000	-9.324406e-001	-3.622930e-001
36767256.000	-9.324324e-001	-3.621965e-001
36773250.000	-9.324591e-001	-3.621803e-001
36779244.000	-9.324804e-001	-3.621573e-001
36785238.000	-9.324935e-001	-3.620555e-001
36791232.000	-9.324751e-001	-3.619705e-001
36797226.000	-9.325460e-001	-3.619649e-001
36803220.000	-9.325700e-001	-3.619391e-001
36809214.000	-9.325773e-001	-3.618736e-001
36815208.000	-9.325486e-001	-3.618179e-001
36821202.000	-9.325821e-001	-3.616992e-001
36827196.000	-9.326542e-001	-3.616947e-001
36833190.000	-9.326319e-001	-3.616245e-001
36839184.000	-9.326772e-001	-3.615577e-001
36845178.000	-9.327053e-001	-3.615011e-001
36851172.000	-9.326800e-001	-3.614494e-001
36857166.000	-9.327056e-001	-3.614081e-001
36863160.000	-9.327794e-001	-3.613184e-001
36869154.000	-9.327690e-001	-3.612963e-001
36875148.000	-9.327870e-001	-3.611941e-001
36881142.000	-9.327956e-001	-3.611436e-001
36887136.000	-9.328309e-001	-3.611098e-001
36893130.000	-9.328670e-001	-3.610352e-001
36899124.000	-9.328383e-001	-3.609541e-001
36905118.000	-9.328531e-001	-3.609810e-001
36911112.000	-9.329212e-001	-3.608927e-001
36917106.000	-9.328594e-001	-3.608231e-001
36923100.000	-9.329214e-001	-3.607502e-001
36929094.000	-9.329487e-001	-3.607205e-001
36935088.000	-9.329673e-001	-3.606499e-001
36941082.000	-9.329507e-001	-3.606259e-001
36947076.000	-9.329675e-001	-3.605293e-001
36953070.000	-9.330314e-001	-3.605062e-001
36959064.000	-9.330766e-001	-3.604304e-001
36965058.000	-9.331090e-001	-3.603514e-001
36971052.000	-9.330898e-001	-3.603741e-001
36977046.000	-9.331419e-001	-3.602889e-001
36983040.000	-9.331175e-001	-3.602370e-001
36989034.000	-9.332026e-001	-3.601953e-001
36995028.000	-9.331808e-001	-3.601242e-001
37001022.000	-9.332264e-001	-3.600395e-001
37007016.000	-9.332208e-001	-3.599797e-001
37013010.000	-9.332579e-001	-3.599600e-001
37019004.000	-9.333053e-001	-3.599511e-001
37024998.000	-9.332560e-001	-3.598604e-001
37030992.000	-9.332987e-001	-3.597295e-001
37036986.000	-9.333214e-001	-3.597231e-001
37042980.000	-9.333661e-001	-3.596972e-001
37048974.000	-9.333436e-001	-3.595772e-001
37054968.000	-9.333290e-001	-3.595599e-001
37060962.000	-9.333914e-001	-3.595039e-001
37066956.000	-9.334365e-001	-3.594935e-001
37072950.000	-9.334576e-001	-3.593978e-001
37078944.000	-9.333992e-001	-3.593631e-001
37084938.000	-9.334691e-001	-3.592503e-001
37090932.000	-9.334970e-001	-3.592186e-001
37096926.000	-9.335329e-001	-3.591899e-001
37102920.000	-9.335380e-001	-3.590918e-001
37108914.000	-9.335521e-001	-3.590900e-001
37114908.000	-9.335995e-001	-3.590497e-001
37120902.000	-9.336165e-001	-3.589667e-001
37126896.000	-9.336217e-001	-3.589201e-001
37132890.000	-9.336510e-001	-3.588788e-001
37138884.000	-9.336809e-001	-3.587553e-001
37144878.000	-9.336801e-001	-3.587671e-001
37150872.000	-9.337446e-001	-3.587110e-001
37156866.000	-9.337223e-001	-3.586034e-001
37162860.000	-9.337545e-001	-3.585420e-001
37168854.000	-9.337617e-001	-3.585157e-001
37174848.000	-9.337633e-001	-3.585068e-001
37180842.000	-9.337707e-001	-3.584282e-001
37186836.000	-9.338349e-001	-3.583397e-001
37192830.000	-9.338681e-001	-3.582763e-001
37198824.000	-9.339080e-001	-3.582526e-001
37204818.000	-9.339039e-001	-3.582482e-001
37210812.000	-9.339004e-001	-3.581701e-001
37216806.000	-9.339863e-001	-3.581012e-001
37222800.000	-9.339541e-001	-3.580610e-001
37228794.000	-9.339874e-001	-3.580140e-001
37234788.000	-9.340600e-001	-3.579729e-001
37240782.000	-9.340581e-001	-3.578753e-001
37246776.000	-9.340331e-001	-3.578832e-001
37252770.000	-9.340779e-001	-3.577901e-001
37258764.000	-9.340793e-001	-3.577015e-001
37264758.000	-9.340927e-001	-3.577465e-001
37270752.000	-9.341869e-001	-3.576630e-001
37276746.000	-9.342229e-001	-3.576162e-001
37282740.000	-9.341814e-001	-3.574931e-001
37288734.000	-9.342042e-001	-3.574142e-001
37294728.000	-9.342052e-001	-3.574187e-001
37300722.000	-9.342451e-001	-3.573438e-001
37306716.000	-9.342417e-001	-3.572724e-001
37312710.000	-9.342677e-001	-3.572520e-001
37318704.000	-9.342612e-001	-3.571773e-001
37324698.000	-9.343142e-001	-3.571518e-001
37330692.000	-9.343300e-001	-3.571013e-001
37336686.000	-9.343893e-001	-3.570289e-001
37342680.000	-9.343648e-001	-3.569405e-001
37348674.000	-9.343884e-001	-3.569105e-001
37354668.000	-9.344094e-001	-3.568871e-001
37360662.000	-9.344309e-001	-3.568373e-001
37366656.000	-9.345074e-001	-3.568298e-001
37372650.000	-9.344935e-001	-3.566938e-001
37378644.000	-9.344622e-001	-3.566553e-001
37384638.000	-9.345415e-001	-3.566661e-001
37390632.000	-9.345663e-001	-3.565398e-001
37396626.000	-9.345457e-001	-3.565397e-001
37402620.000	-9.345604e-001	-3.564730e-001
37408614.000	-9.346005e-001	-3.563924e-001
37414608.000	-9.346222e-001	-3.563673e-001
37420602.000	-9.346189e-001	-3.562500e-001
37426596.000	-9.346188e-001	-3.562215e-001
37432590.000	-9.346221e-001	-3.561276e-001
37438584.000	-9.345880e-001	-3.560758e-001
37444578.000	-9.346683e-001	-3.560380e-001
37450572.000	-9.346773e-001	-3.559946e-001
37456566.000	-9.347306e-001	-3.559155e-001
37462560.000	-9.347361e-001	-3.558600e-001
37468554.000	-9.347380e-001	-3.558239e-001
37474548.000	-9.347831e-001	-3.557784e-001
37480542.000	-9.347714e-001	-3.557129e-001
37486536.000	-9.347782e-001	-3.556383e-001
37492530.000	-9.348013e-001	-3.556093e-001
37498524.000	-9.348070e-001	-3.555765e-001
37504518.000	-9.348882e-001	-3.555466e-001
37510512.000	-9.349016e-001	-3.554944e-001
37516506.000	-9.349236e-001	-3.554074e-001
37522500.000	-9.349566e-001	-3.553794e-001
37528494.000	-9.349541e-001	-3.552938e-001
37534488.000	-9.349620e-001	-3.553095e-001
37540482.000	-9.349795e-001	-3.552457e-001
37546476.000	-9.350347e-001	-3.551590e-001
37552470.000	-9.350647e-001	-3.550714e-001
37558464.000	-9.350695e-001	-3.549891e-001
37564458.000	-9.350583e-001	-3.549726e-001
37570452.000	-9.350836e-001	-3.549047e-001
37576446.000	-9.351255e-001	-3.548409e-001
37582440.000	-9.351253e-001	-3.548109e-001
37588434.000	-9.351558e-001	-3.547975e-001
37594428.000	-9.351565e-001	-3.547128e-001
37600422.000	-9.351717e-001	-3.546597e-001
37606416.000	-9.351981e-001	-3.546227e-001
37612410.000	-9.352137e-001	-3.545839e-001
37618404.000	-9.352037e-001	-3.544704e-001
37624398.000	-9.352051e-001	-3.544432e-001
37630392.000	-9.352923e-001	-3.543765e-001
37636386.000	-9.352930e-001	-3.543378e-001
37642380.000	-9.352845e-001	-3.542805e-001
37648374.000	-9.353102e-001	-3.542072e-001
37654368.000	-9.353179e-001	-3.541911e-001
37660362.000	-9.353449e-001	-3.541416e-001
37666356.000	-9.354158e-001	-3.540673e-001
37672350.000	-9.354727e-001	-3.540207e-001
37678344.000	-9.354718e-001	-3.539452e-001
37684338.000	-9.354643e-001	-3.539319e-001
37690332.000	-9.355227e-001	-3.539094e-001
37696326.000	-9.355145e-001	-3.538207e-001
37702320.000	-9.355025e-001	-3.537441e-001
37708314.000	-9.355747e-001	-3.537509e-001
37714308.000	-9.356450e-001	-3.536843e-001
37720302.000	-9.355373e-001	-3.535818e-001
37726296.000	-9.355841e-001	-3.535183e-001
37732290.000	-9.356411e-001	-3.535007e-001
37738284.000	-9.356680e-001	-3.534135e-001
37744278.000	-9.356791e-001	-3.534112e-001
37750272.000	-9.357036e-001	-3.533337e-001
37756266.000	-9.357044e-001	-3.533124e-001
37762260.000	-9.357421e-001	-3.532226e-001
37768254.000	-9.357206e-001	-3.531834e-001
37774248.000	-9.357846e-001	-3.531292e-001
37780242.000	-9.357585e-001	-3.530811e-001
37786236.000	-9.358082e-001	-3.530289e-001
37792230.000	-9.358483e-001	-3.530079e-001
37798224.000	-9.358320e-001	-3.529228e-001
37804218.000	-9.358497e-001	-3.528958e-001
37810212.000	-9.358639e-001	-3.528481e-001
37816206.000	-9.358908e-001	-3.527469e-001
37822200.000	-9.358733e-001	-3.526723e-001
37828194.000	-9.359187e-001	-3.526348e-001
37834188.000	-9.359412e-001	-3.526272e-001
37840182.000	-9.359678e-001	-3.525349e-001
37846176.000	-9.360033e-001	-3.524897e-001
37852170.000	-9.360314e-001	-3.524176e-001
37858164.000	-9.360184e-001	-3.523656e-001
37864158.000	-9.359699e-001	-3.522952e-001
37870152.000	-9.360520e-001	-3.522968e-001
37876146.000	-9.360749e-001	-3.522485e-001
37882140.000	-9.360805e-001	-3.521965e-001
37888134.000	-9.361346e-001	-3.521433e-001
37894128.000	-9.361708e-001	-3.520921e-001
37900122.000	-9.361283e-001	-3.520303e-001
37906116.000	-9.361353e-001	-3.519191e-001
37912110.000	-9.362009e-001	-3.518839e-001
37918104.000	-9.362292e-001	-3.518609e-001
37924098.000	-9.362235e-001	-3.518382e-001
37930092.000	-9.362346e-001	-3.518115e-001
37936086.000	-9.363504e-001	-3.517401e-001
37942080.000	-9.362503e-001	-3.516945e-001
37948074.000	-9.363438e-001	-3.516027e-001
37954068.000	-9.363403e-001	-3.515778e-001
37960062.000	-9.363637e-001	-3.515110e-001
37966056.000	-9.364170e-001	-3.514977e-001
37972050.000	-9.364630e-001	-3.514529e-001
37978044.000	-9.364564e-001	-3.513331e-001
37984038.000	-9.364705e-001	-3.513241e-001
37990032.000	-9.365508e-001	-3.512580e-001
37996026.000	-9.365084e-001	-3.512379e-001
38002020.000	-9.365628e-001	-3.511703e-001
38008014.000	-9.365073e-001	-3.511343e-001
38014008.000	-9.365052e-001	-3.510170e-001
38020002.000	-9.365789e-001	-3.510263e-001
38025996.000	-9.366363e-001	-3.509297e-001
38031990.000	-9.366055e-001	-3.508518e-001
38037984.000	-9.365772e-001	-3.508307e-001
38043978.000	-9.366001e-001	-3.507820e-001
38049972.000	-9.366375e-001	-3.507226e-001
38055966.000	-9.366678e-001	-3.506803e-001
38061960.000	-9.367103e-001	-3.506639e-001
38067954.000	-9.367289e-001	-3.505687e-001
38073948.000	-9.367604e-001	-3.504938e-001
38079942.000	-9.367371e-001	-3.505126e-001
38085936.000	-9.367148e-001	-3.504057e-001
38091930.000	-9.368015e-001	-3.503554e-001
38097924.000	-9.367895e-001	-3.502948e-001
38103918.000	-9.368141e-001	-3.502506e-001
38109912.000	-9.368384e-001	-3.502507e-001
38115906.000	-9.368343e-001	-3.501281e-001
38121900.000	-9.368912e-001	-3.500875e-001
38127894.000	-9.369092e-001	-3.500524e-001
38133888.000	-9.368699e-001	-3.500038e-001
38139882.000	-9.369313e-001	-3.499626e-001
38145876.000	-9.369793e-001	-3.498976e-001
38151870.000	-9.369662e-001	-3.498153e-001
38157864.000	-9.369782e-001	-3.497866e-001
38163858.000	-9.370717e-001	-3.497206e-001
38169852.000	-9.370439e-001	-3.497089e-001
38175846.000	-9.370725e-001	-3.496727e-001
38181840.000	-9.370825e-001	-3.496472e-001
38187834.000	-9.371324e-001	-3.495634e-001
38193828.000	-9.371021e-001	-3.494755e-001
38199822.000	-9.371420e-001	-3.494298e-001
38205816.000	-9.371341e-001	-3.493452e-001
38211810.000	-9.371315e-001	-3.492922e-001
38217804.000	-9.371922e-001	-3.492573e-001
38223798.000	-9.371816e-001	-3.492306e-001
38229792.000	-9.372181e-001	-3.491684e-001
38235786.000	-9.371984e-001	-3.490621e-001
38241780.000	-9.372696e-001	-3.491042e-001
38247774.000	-9.372238e-001	-3.489852e-001
38253768.000	-9.372710e-001	-3.489446e-001
38259762.000	-9.373043e-001	-3.489044e-001
38265756.000	-9.373170e-001	-3.488639e-001
38271750.000	-9.373631e-001	-3.488156e-001
38277744.000	-9.373393e-001	-3.487857e-001
38283738.000	-9.373722e-001	-3.487042e-001
38289732.000	-9.373827e-001	-3.486624e-001
38295726.000	-9.373959e-001	-3.485877e-001
38301720.000	-9.374304e-001	-3.485193e-001
38307714.000	-9.374642e-001	-3.485272e-001
38313708.000	-9.374915e-001	-3.484910e-001
38319702.000	-9.375278e-001	-3.483556e-001
38325696.000	-9.375340e-001	-3.483287e-001
38331690.000	-9.375314e-001	-3.483156e-001
38337684.000	-9.376043e-001	-3.482448e-001
38343678.000	-9.375780e-001	-3.482116e-001
38349672.000	-9.375894e-001	-3.482110e-001
38355666.000	-9.375980e-001	-3.481045e-001
38361660.000	-9.376533e-001	-3.480457e-001
38367654.000	-9.377116e-001	-3.479762e-001
38373648.000	-9.377353e-001	-3.479184e-001
38379642.000	-9.377026e-001	-3.479660e-001
38385636.000	-9.377677e-001	-3.478464e-001
38391630.000	-9.377518e-001	-3.478300e-001
38397624.000	-9.377668e-001	-3.477592e-001
38403618.000	-9.377913e-001	-3.476786e-001
38409612.000	-9.377748e-001	-3.476268e-001
38415606.000	-9.378391e-001	-3.475691e-001
38421600.000	-9.378438e-001	-3.475744e-001
38427594.000	-9.378181e-001	-3.474969e-001
38433588.000	-9.378894e-001	-3.474370e-001
38439582.000	-9.378728e-001	-3.474078e-001
38445576.000	-9.378658e-001	-3.473054e-001
38451570.000	-9.379750e-001	-3.473490e-001
38457564.000	-9.379514e-001	-3.472447e-001
38463558.000	-9.379664e-001	-3.471820e-001
38469552.000	-9.379693e-001	-3.471445e-001
38475546.000	-9.380626e-001	-3.471016e-001
38481540.000	-9.379867e-001	-3.470151e-001
38487534.000	-9.380512e-001	-3.470243e-001
38493528.000	-9.380821e-001	-3.469599e-001
38499522.000	-9.380541e-001	-3.468941e-001
38505516.000	-9.381084e-001	-3.468382e-001
38511510.000	-9.381171e-001	-3.467823e-001
38517504.000	-9.381521e-001	-3.467314e-001
38523498.000	-9.381800e-001	-3.466645e-001
38529492.000	-9.381638e-001	-3.466215e-001
38535486.000	-9.381890e-001	-3.465999e-001
38541480.000	-9.381981e-001	-3.465661e-001
38547474.000	-9.382325e-001	-3.464918e-001
38553468.000	-9.382565e-001	-3.464269e-001
38559462.000	-9.381949e-001	-3.463933e-001
38565456.000	-9.382730e-001	-3.463625e-001
38571450.000	-9.383232e-001	-3.462998e-001
38577444.000	-9.383234e-001	-3.462584e-001
38583438.000	-9.383553e-001	-3.462040e-001
38589432.000	-9.383240e-001	-3.460792e-001
38595426.000	-9.383292e-001	-3.460514e-001
38601420.000	-9.383730e-001	-3.460492e-001
38607414.000	-9.383923e-001	-3.460204e-001
38613408.000	-9.384196e-001	-3.459467e-001
38619402.000	-9.384647e-001	-3.458931e-001
38625396.000	-9.385258e-001	-3.458257e-001
38631390.000	-9.384644e-001	-3.457548e-001
38637384.000	-9.384282e-001	-3.457300e-001
38643378.000	-9.385495e-001	-3.456833e-001
38649372.000	-9.385298e-001	-3.455947e-001
38655366.000	-9.385583e-001	-3.455710e-001
38661360.000	-9.385695e-001	-3.455362e-001
38667354.000	-9.385335e-001	-3.454516e-001
38673348.000	-9.385717e-001	-3.454070e-001
38679342.000	-9.385918e-001	-3.453415e-001
38685336.000	-9.386136e-001	-3.452752e-001
38691330.000	-9.386478e-001	-3.452188e-001
38697324.000	-9.386453e-001	-3.451741e-001
38703318.000	-9.387027e-001	-3.451659e-001
38709312.000	-9.386787e-001	-3.451099e-001
38715306.000	-9.387153e-001	-3.450998e-001
38721300.000	-9.387493e-001	-3.450176e-001
38727294.000	-9.387231e-001	-3.449000e-001
38733288.000	-9.387428e-001	-3.448945e-001
38739282.000	-9.387670e-001	-3.448500e-001
38745276.000	-9.388517e-001	-3.448382e-001
38751270.000	-9.388704e-001	-3.447684e-001
38757264.000	-9.388774e-001	-3.447158e-001
38763258.000	-9.388319e-001	-3.446554e-001
38769252.000	-9.388768e-001	-3.445611e-001
38775246.000	-9.389365e-001	-3.445756e-001
38781240.000	-9.388829e-001	-3.445112e-001
38787234.000	-9.388706e-001	-3.444567e-001
38793228.000	-9.389607e-001	-3.443835e-001
38799222.000	-9.389304e-001	-3.443926e-001
38805216.000	-9.390153e-001	-3.443282e-001
38811210.000	-9.390039e-001	-3.442640e-001
38817204.000	-9.390708e-001	-3.442129e-001
38823198.000	-9.390203e-001	-3.441634e-001
38829192.000	-9.390313e-001	-3.441117e-001
38835186.000	-9.390726e-001	-3.441300e-001
38841180.000	-9.390874e-001	-3.440445e-001
38847174.000	-9.391141e-001	-3.439389e-001
38853168.000	-9.391014e-001	-3.439230e-001
38859162.000	-9.391894e-001	-3.439071e-001
38865156.000	-9.391848e-001	-3.438103e-001
38871150.000	-9.392254e-001	-3.437708e-001
38877144.000	-9.392209e-001	-3.437248e-001
38883138.000	-9.392251e-001	-3.437007e-001
38889132.000	-9.392863e-001	-3.436454e-001
38895126.000	-9.392252e-001	-3.435405e-001
38901120.000	-9.393313e-001	-3.435492e-001
38907114.000	-9.392885e-001	-3.434766e-001
38913108.000	-9.393310e-001	-3.434307e-001
38919102.000	-9.393234e-001	-3.433582e-001
38925096.000	-9.393885e-001	-3.433260e-001
38931090.000	-9.393783e-001	-3.432940e-001
38937084.000	-9.393824e-001	-3.432293e-001
38943078.000	-9.393470e-001	-3.431571e-001
38949072.000	-9.393919e-001	-3.430635e-001
38955066.000	-9.394325e-001	-3.430636e-001
38961060.000	-9.394762e-001	-3.430374e-001
38967054.000	-9.395057e-001	-3.429728e-001
38973048.000	-9.395159e-001	-3.429186e-001
38979042.000	-9.395528e-001	-3.428603e-001
38985036.000	-9.394528e-001	-3.428106e-001
38991030.000	-9.395022e-001	-3.427595e-001
38997024.000	-9.395454e-001	-3.427581e-001
39003018.000	-9.395580e-001	-3.426209e-001
39009012.000	-9.395711e-001	-3.426532e-001
39015006.000	-9.396169e-001	-3.425514e-001
39021000.000	-9.396638e-001	-3.425537e-001
39026994.000	-9.396366e-001	-3.424667e-001
39032988.000	-9.396282e-001	-3.424517e-001
39038982.000	-9.396370e-001	-3.423732e-001
39044976.000	-9.396775e-001	-3.423078e-001
39050970.000	-9.396853e-001	-3.422645e-001
39056964.000	-9.397260e-001	-3.422284e-001
39062958.000	-9.397283e-001	-3.422104e-001
39068952.000	-9.398118e-001	-3.421450e-001
39074946.000	-9.398199e-001	-3.420546e-001
39080940.000	-9.397685e-001	-3.420278e-001
39086934.000	-9.397878e-001	-3.419706e-001
39092928.000	-9.397982e-001	-3.419253e-001
39098922.000	-9.398461e-001	-3.418763e-001
39104916.000	-9.398313e-001	-3.418082e-001
39110910.000	-9.398781e-001	-3.417631e-001
39116904.000	-9.399153e-001	-3.417170e-001
39122898.000	-9.399248e-001	-3.416633e-001
39128892.000	-9.399236e-001	-3.416019e-001
39134886.000	-9.399656e-001	-3.415846e-001
39140880.000	-9.399553e-001	-3.415365e-001
39146874.000	-9.399586e-001	-3.415089e-001
39152868.000	-9.400083e-001	-3.414445e-001
39158862.000	-9.400071e-001	-3.413909e-001
39164856.000	-9.400303e-001	-3.412907e-001
39170850.000	-9.400809e-001	-3.412545e-001
39176844.000	-9.401040e-001	-3.412017e-001
39182838.000	-9.400435e-001	-3.412014e-001
39188832.000	-9.401188e-001	-3.411782e-001
39194826.000	-9.401491e-001	-3.410948e-001
39200820.000	-9.401874e-001	-3.410569e-001
39206814.000	-9.402019e-001	-3.410185e-001
39212808.000	-9.401821e-001	-3.409759e-001
39218802.000	-9.402053e-001	-3.408873e-001
39224796.000	-9.401713e-001	-3.408091e-001
39230790.000	-9.401926e-001	-3.407797e-001
39236784.000	-9.402854e-001	-3.407303e-001
39242778.000	-9.402372e-001	-3.406845e-001
39248772.000	-9.402694e-001	-3.406392e-001
39254766.000	-9.402566e-001	-3.405751e-001
39260760.000	-9.403276e-001	-3.405124e-001
39266754.000	-9.403842e-001	-3.405432e-001
39272748.000	-9.403982e-001	-3.404502e-001
39278742.000	-9.403785e-001	-3.403894e-001
39284736.000	-9.403718e-001	-3.403561e-001
39290730.000	-9.403687e-001	-3.402870e-001
39296724.000	-9.404514e-001	-3.402758e-001
39302718.000	-9.404099e-001	-3.402292e-001
39308712.000	-9.404419e-001	-3.401372e-001
39314706.000	-9.404581e-001	-3.400969e-001
39320700.000	-9.404624e-001	-3.400497e-001
39326694.000	-9.404894e-001	-3.399785e-001
39332688.000	-9.405320e-001	-3.399997e-001
39338682.000	-9.405398e-001	-3.399161e-001
39344676.000	-9.405113e-001	-3.398464e-001
39350670.000	-9.406021e-001	-3.398478e-001
39356664.000	-9.406245e-001	-3.398115e-001
39362658.000	-9.406009e-001	-3.396963e-001
39368652.000	-9.406351e-001	-3.397057e-001
39374646.000	-9.406605e-001	-3.396267e-001
39380640.000	-9.406662e-001	-3.395982e-001
39386634.000	-9.406205e-001	-3.394418e-001
39392628.000	-9.406888e-001	-3.394645e-001
39398622.000	-9.408070e-001	-3.394318e-001
39404616.000	-9.407144e-001	-3.393482e-001
39410610.000	-9.407482e-001	-3.393490e-001
39416604.000	-9.407706e-001	-3.392685e-001
39422598.000	-9.407944e-001	-3.392334e-001
39428592.000	-9.407872e-001	-3.391571e-001
39434586.000	-9.408054e-001	-3.391437e-001
39440580.000	-9.407979e-001	-3.390864e-001
39446574.000	-9.408776e-001	-3.389901e-001
39452568.000	-9.409433e-001	-3.389689e-001
39458562.000	-9.409093e-001	-3.390104e-001
39464556.000	-9.408967e-001	-3.388899e-001
39470550.000	-9.409129e-001	-3.388594e-001
39476544.000	-9.409441e-001	-3.387602e-001
39482538.000	-9.409559e-001	-3.387644e-001
39488532.000	-9.409782e-001	-3.387069e-001
39494526.000	-9.409821e-001	-3.386055e-001
39500520.000	-9.410156e-001	-3.386014e-001
39506514.000	-9.410130e-001	-3.385472e-001
39512508.000	-9.410602e-001	-3.385085e-001
39518502.000	-9.410472e-001	-3.384575e-001
39524496.000	-9.411005e-001	-3.384410e-001
39530490.000	-9.410796e-001	-3.383335e-001
39536484.000	-9.411274e-001	-3.382812e-001
39542478.000	-9.410786e-001	-3.382512e-001
39548472.000	-9.411078e-001	-3.381839e-001
39554466.000	-9.411490e-001	-3.381350e-001
39560460.000	-9.411657e-001	-3.381046e-001
39566454.000	-9.412063e-001	-3.379883e-001
39572448.000	-9.412224e-001	-3.380077e-001
39578442.000	-9.412564e-001	-3.379758e-001
39584436.000	-9.412865e-001	-3.379065e-001
39590430.000	-9.412279e-001	-3.378711e-001
39596424.000	-9.413013e-001	-3.378080e-001
39602418.000	-9.412527e-001	-3.377514e-001
39608412.000	-9.413254e-001	-3.377387e-001
39614406.000	-9.413312e-001	-3.376791e-001
39620400.000	-9.413822e-001	-3.376029e-001
39626394.000	-9.413879e-001	-3.375836e-001
39632388.000	-9.413572e-001	-3.374929e-001
39638382.000	-9.413819e-001	-3.374544e-001
39644376.000	-9.414151e-001	-3.374211e-001
39650370.000	-9.414246e-001	-3.374040e-001
39656364.000	-9.414784e-001	-3.373195e-001
39662358.000	-9.415108e-001	-3.373000e-001
39668352.000	-9.414880e-001	-3.372490e-001
39674346.000	-9.414935e-001	-3.371574e-001
39680340.000	-9.415083e-001	-3.371131e-001
39686334.000	-9.415325e-001	-3.370881e-001
39692328.000	-9.415216e-001	-3.370208e-001
39698322.000	-9.415575e-001	-3.369770e-001
39704316.000	-9.415479e-001	-3.369116e-001
39710310.000	-9.415684e-001	-3.369065e-001
39716304.000	-9.416028e-001	-3.368184e-001
39722298.000	-9.416614e-001	-3.367977e-001
39728292.000	-9.416550e-001	-3.367600e-001
39734286.000	-9.416838e-001	-3.367410e-001
39740280.000	-9.416621e-001	-3.366324e-001
39746274.000	-9.416546e-001	-3.365577e-001
39752268.000	-9.416856e-001	-3.365728e-001
39758262.000	-9.417405e-001	-3.365173e-001
39764256.000	-9.417502e-001	-3.364454e-001
39770250.000	-9.417204e-001	-3.364105e-001
39776244.000	-9.417517e-001	-3.363733e-001
39782238.000	-9.417402e-001	-3.362991e-001
39788232.000	-9.417924e-001	-3.362724e-001
39794226.000	-9.417889e-001	-3.362036e-001
39800220.000	-9.418636e-001	-3.362340e-001
39806214.000	-9.418529e-001	-3.361292e-001
39812208.000	-9.418397e-001	-3.360433e-001
39818202.000	-9.418491e-001	-3.360032e-001
39824196.000	-9.419162e-001	-3.359871e-001
39830190.000	-9.419186e-001	-3.359439e-001
39836184.000	-9.419556e-001	-3.358725e-001
39842178.000	-9.419638e-001	-3.358291e-001
39848172.000	-9.420386e-001	-3.357785e-001
39854166.000	-9.420044e-001	-3.357495e-001
39860160.000	-9.420701e-001	-3.357525e-001
39866154.000	-9.420941e-001	-3.357096e-001
39872148.000	-9.420386e-001	-3.355865e-001
39878142.000	-9.421363e-001	-3.355894e-001
39884136.000	-9.420889e-001	-3.355183e-001
39890130.000	-9.421294e-001	-3.355065e-001
39896124.000	-9.421715e-001	-3.354817e-001
39902118.000	-9.421604e-001	-3.354162e-001
39908112.000	-9.422032e-001	-3.353492e-001
39914106.000	-9.422052e-001	-3.353530e-001
39920100.000	-9.422446e-001	-3.352832e-001
39926094.000	-9.421876e-001	-3.351793e-001
39932088.000	-9.422217e-001	-3.351996e-001
39938082.000	-9.422237e-001	-3.350638e-001
39944076.000	-9.422614e-001	-3.351167e-001
39950070.000	-9.422908e-001	-3.350359e-001
39956064.000	-9.422904e-001	-3.349131e-001
39962058.000	-9.422746e-001	-3.348842e-001
39968052.000	-9.422711e-001	-3.348468e-001
39974046.000	-9.423670e-001	-3.347970e-001
39980040.000	-9.423307e-001	-3.347488e-001
39986034.000	-9.423587e-001	-3.346744e-001
39992028.000	-9.423855e-001	-3.346549e-001
39998022.000	-9.423513e-001	-3.345770e-001
40004016.000	-9.424283e-001	-3.345604e-001
40010010.000	-9.424162e-001	-3.345188e-001
40016004.000	-9.424951e-001	-3.344816e-001
40021998.000	-9.424774e-001	-3.344559e-001
40027992.000	-9.424943e-001	-3.343444e-001
40033986.000	-9.425257e-001	-3.343072e-001
40039980.000	-9.425199e-001	-3.343165e-001
40045974.000	-9.425180e-001	-3.342285e-001
40051968.000	-9.425825e-001	-3.341784e-001
40057962.000	-9.425839e-001	-3.341877e-001
40063956.000	-9.425991e-001	-3.340715e-001
40069950.000	-9.425664e-001	-3.340169e-001
40075944.000	-9.426482e-001	-3.339889e-001
40081938.000	-9.426502e-001	-3.339704e-001
40087932.000	-9.426577e-001	-3.339276e-001
40093926.000	-9.426754e-001	-3.338650e-001
40099920.000	-9.427161e-001	-3.338596e-001
40105914.000	-9.427129e-001	-3.337897e-001
40111908.000	-9.427623e-001	-3.336874e-001
40117902.000	-9.427335e-001	-3.336695e-001
40123896.000	-9.427484e-001	-3.336493e-001
40129890.000	-9.427772e-001	-3.335919e-001
40135884.000	-9.428260e-001	-3.335620e-001
40141878.000	-9.428001e-001	-3.334906e-001
40147872.000	-9.428323e-001	-3.334196e-001
40153866.000	-9.428171e-001	-3.333452e-001
40159860.000	-9.428261e-001	-3.333343e-001
40165854.000	-9.428194e-001	-3.332883e-001
40171848.000	-9.428697e-001	-3.332704e-001
40177842.000	-9.428600e-001	-3.331866e-001
40183836.000	-9.429265e-001	-3.331620e-001
40189830.000	-9.429518e-001	-3.330891e-001
40195824.000	-9.429320e-001	-3.330424e-001
40201818.000	-9.429464e-001	-3.330044e-001
40207812.000	-9.429753e-001	-3.329475e-001
40213806.000	-9.430050e-001	-3.329545e-001
40219800.000	-9.430330e-001	-3.328966e-001
40225794.000	-9.430730e-001	-3.328624e-001
40231788.000	-9.430107e-001	-3.327546e-001
40237782.000	-9.430908e-001	-3.327386e-001
40243776.000	-9.431546e-001	-3.327103e-001
40249770.000	-9.430784e-001	-3.326222e-001
40255764.000	-9.431021e-001	-3.326131e-001
40261758.000	-9.431449e-001	-3.325682e-001
40267752.000	-9.431814e-001	-3.325227e-001
40273746.000	-9.431513e-001	-3.323915e-001
40279740.000	-9.431894e-001	-3.323619e-001
40285734.000	-9.431946e-001	-3.323558e-001
40291728.000	-9.431983e-001	-3.323230e-001
40297722.000	-9.432420e-001	-3.322756e-001
40303716.000	-9.432037e-001	-3.322328e-001
40309710.000	-9.431957e-001	-3.321333e-001
40315704.000	-9.432564e-001	-3.321270e-001
40321698.000	-9.432993e-001	-3.320176e-001
40327692.000	-9.433313e-001	-3.320256e-001
40333686.000	-9.433495e-001	-3.319590e-001
40339680.000	-9.433442e-001	-3.319371e-001
40345674.000	-9.433480e-001	-3.318909e-001
40351668.000	-9.433583e-001	-3.318426e-001
40357662.000	-9.434061e-001	-3.318077e-001
40363656.000	-9.433680e-001	-3.317046e-001
40369650.000	-9.434560e-001	-3.316925e-001
40375644.000	-9.434591e-001	-3.317030e-001
40381638.000	-9.434964e-001	-3.316040e-001
40387632.000	-9.434771e-001	-3.315750e-001
40393626.000	-9.435136e-001	-3.315381e-001
40399620.000	-9.434893e-001	-3.314856e-001
40405614.000	-9.435082e-001	-3.314471e-001
40411608.000	-9.435355e-001	-3.313859e-001
40417602.000	-9.435800e-001	-3.313166e-001
40423596.000	-9.435408e-001	-3.312115e-001
40429590.000	-9.435577e-001	-3.312418e-001
40435584.000	-9.435988e-001	-3.311401e-001
40441578.000	-9.435893e-001	-3.311283e-001
40447572.000	-9.436155e-001	-3.311320e-001
40453566.000	-9.436884e-001	-3.310164e-001
40459560.000	-9.436200e-001	-3.309913e-001
40465554.000	-9.437207e-001	-3.310252e-001
40471548.000	-9.436569e-001	-3.309463e-001
40477542.000	-9.437090e-001	-3.308578e-001
40483536.000	-9.437292e-001	-3.308008e-001
40489530.000	-9.437102e-001	-3.307733e-001
40495524.000	-9.437425e-001	-3.307363e-001
40501518.000	-9.437771e-001	-3.306405e-001
40507512.000	-9.438424e-001	-3.306671e-001
40513506.000	-9.438584e-001	-3.305897e-001
40519500.000	-9.438948e-001	-3.306051e-001
40525494.000	-9.438976e-001	-3.305161e-001
40531488.000	-9.438524e-001	-3.304866e-001
40537482.000	-9.438691e-001	-3.304107e-001
40543476.000	-9.438738e-001	-3.303371e-001
40549470.000	-9.439219e-001	-3.303561e-001
40555464.000	-9.438703e-001	-3.302303e-001
40561458.000	-9.438978e-001	-3.301396e-001
40567452.000	-9.438809e-001	-3.301745e-001
40573446.000	-9.439160e-001	-3.300961e-001
40579440.000	-9.439575e-001	-3.300253e-001
40585434.000	-9.440069e-001	-3.300316e-001
40591428.000	-9.440314e-001	-3.299876e-001
40597422.000	-9.440376e-001	-3.299032e-001
40603416.000	-9.440542e-001	-3.299183e-001
40609410.000	-9.440302e-001	-3.298551e-001
40615404.000	-9.440718e-001	-3.297523e-001
40621398.000	-9.440735e-001	-3.297557e-001
40627392.000	-9.441023e-001	-3.296390e-001
40633386.000	-9.441117e-001	-3.296292e-001
40639380.000	-9.440770e-001	-3.295720e-001
40645374.000	-9.441460e-001	-3.295680e-001
40651368.000	-9.441451e-001	-3.295357e-001
40657362.000	-9.441750e-001	-3.294805e-001
40663356.000	-9.441960e-001	-3.294252e-001
40669350.000	-9.441708e-001	-3.293609e-001
40675344.000	-9.441942e-001	-3.293072e-001
40681338.000	-9.442201e-001	-3.293225e-001
40687332.000	-9.442673e-001	-3.292476e-001
40693326.000	-9.442609e-001	-3.291860e-001
40699320.000	-9.442908e-001	-3.291479e-001
40705314.000	-9.442945e-001	-3.290932e-001
40711308.000	-9.442924e-001	-3.290742e-001
40717302.000	-9.443629e-001	-3.289992e-001
40723296.000	-9.443881e-001	-3.289700e-001
40729290.000	-9.443303e-001	-3.289285e-001
40735284.000	-9.444090e-001	-3.288706e-001
40741278.000	-9.443334e-001	-3.287926e-001
40747272.000	-9.444058e-001	-3.287918e-001
40753266.000	-9.443989e-001	-3.287428e-001
40759260.000	-9.444707e-001	-3.287093e-001
40765254.000	-9.444395e-001	-3.286526e-001
40771248.000	-9.445271e-001	-3.286641e-001
40777242.000	-9.444561e-001	-3.285533e-001
40783236.000	-9.445142e-001	-3.284931e-001
40789230.000	-9.445169e-001	-3.284446e-001
40795224.000	-9.445490e-001	-3.283902e-001
40801218.000	-9.445470e-001	-3.283908e-001
40807212.000	-9.445318e-001	-3.282924e-001
40813206.000	-9.445872e-001	-3.282869e-001
40819200.000	-9.446013e-001	-3.282305e-001
40825194.000	-9.445937e-001	-3.281692e-001
40831188.000	-9.446544e-001	-3.281326e-001
40837182.000	-9.446165e-001	-3.281337e-001
40843176.000	-9.446477e-001	-3.280695e-001
40849170.000	-9.446708e-001	-3.280130e-001
40855164.000	-9.447027e-001	-3.279659e-001
40861158.000	-9.446791e-001	-3.278869e-001
40867152.000	-9.446506e-001	-3.278772e-001
40873146.000	-9.447150e-001	-3.278090e-001
40879140.000	-9.447607e-001	-3.277650e-001
40885134.000	-9.447598e-001	-3.277385e-001
40891128.000	-9.447740e-001	-3.276639e-001
40897122.000	-9.448082e-001	-3.276221e-001
40903116.000	-9.447233e-001	-3.275833e-001
40909110.000	-9.448068e-001	-3.275083e-001
40915104.000	-9.448077e-001	-3.275028e-001
40921098.000	-9.448491e-001	-3.274084e-001
40927092.000	-9.448767e-001	-3.274282e-001
40933086.000	-9.448773e-001	-3.273410e-001
40939080.000	-9.448816e-001	-3.272538e-001
40945074.000	-9.449085e-001	-3.272138e-001
40951068.000	-9.449159e-001	-3.271983e-001
40957062.000	-9.449387e-001	-3.271532e-001
40963056.000	-9.449650e-001	-3.270916e-001
40969050.000	-9.449022e-001	-3.270615e-001
40975044.000	-9.449734e-001	-3.270111e-001
40981038.000	-9.449408e-001	-3.269651e-001
40987032.000	-9.450198e-001	-3.269250e-001
40993026.000	-9.449939e-001	-3.268611e-001
40999020.000	-9.450291e-001	-3.268694e-001
41005014.000	-9.449877e-001	-3.268132e-001
41011008.000	-9.450410e-001	-3.267779e-001
41017002.000	-9.450632e-001	-3.267014e-001
41022996.000	-9.450892e-001	-3.266785e-001
41028990.000	-9.451087e-001	-3.266338e-001
41034984.000	-9.451205e-001	-3.265271e-001
41040978.000	-9.451414e-001	-3.265294e-001
41046972.000	-9.452106e-001	-3.265002e-001
41052966.000	-9.451350e-001	-3.263908e-001
41058960.000	-9.451748e-001	-3.263658e-001
41064954.000	-9.452092e-001	-3.263654e-001
41070948.000	-9.452265e-001	-3.263097e-001
41076942.000	-9.451896e-001	-3.262516e-001
41082936.000	-9.452263e-001	-3.262262e-001
41088930.000	-9.452682e-001	-3.261726e-001
41094924.000	-9.452860e-001	-3.261781e-001
41100918.000	-9.452654e-001	-3.260544e-001
41106912.000	-9.452952e-001	-3.259965e-001
41112906.000	-9.452882e-001	-3.259845e-001
41118900.000	-9.453637e-001	-3.259348e-001
41124894.000	-9.453592e-001	-3.259087e-001
41130888.000	-9.453848e-001	-3.258438e-001
41136882.000	-9.453860e-001	-3.258004e-001
41142876.000	-9.453746e-001	-3.257478e-001
41148870.000	-9.453683e-001	-3.256533e-001
41154864.000	-9.453995e-001	-3.256668e-001
41160858.000	-9.454315e-001	-3.256288e-001
41166852.000	-9.454477e-001	-3.255748e-001
41172846.000	-9.454141e-001	-3.255229e-001
41178840.000	-9.454221e-001	-3.254789e-001
41184834.000	-9.454551e-001	-3.253941e-001
41190828.000	-9.454967e-001	-3.253407e-001
41196822.000	-9.455159e-001	-3.253087e-001
41202816.000	-9.455152e-001	-3.253095e-001
41208810.000	-9.455375e-001	-3.252319e-001
41214804.000	-9.456007e-001	-3.252363e-001
41220798.000	-9.455873e-001	-3.252006e-001
41226792.000	-9.456399e-001	-3.250900e-001
41232786.000	-9.456034e-001	-3.251036e-001
41238780.000	-9.456508e-001	-3.250577e-001
41244774.000	-9.456631e-001	-3.249980e-001
41250768.000	-9.456559e-001	-3.249191e-001
41256762.000	-9.457138e-001	-3.248981e-001
41262756.000	-9.456922e-001	-3.248904e-001
41268750.000	-9.456969e-001	-3.248022e-001
41274744.000	-9.457078e-001	-3.247854e-001
41280738.000	-9.457515e-001	-3.247053e-001
41286732.000	-9.457793e-001	-3.246292e-001
41292726.000	-9.457708e-001	-3.245766e-001
41298720.000	-9.457362e-001	-3.246066e-001
41304714.000	-9.457636e-001	-3.245660e-001
41310708.000	-9.458057e-001	-3.244746e-001
41316702.000	-9.458455e-001	-3.244759e-001
41322696.000	-9.458051e-001	-3.244031e-001
41328690.000	-9.458536e-001	-3.244203e-001
41334684.000	-9.458845e-001	-3.243508e-001
41340678.000	-9.458769e-001	-3.242856e-001
41346672.000	-9.459442e-001	-3.242060e-001
41352666.000	-9.459382e-001	-3.242369e-001
41358660.000	-9.459471e-001	-3.241567e-001
41364654.000	-9.459323e-001	-3.241223e-001
41370648.000	-9.459809e-001	-3.240493e-001
41376642.000	-9.459834e-001	-3.240592e-001
41382636.000	-9.459188e-001	-3.239964e-001
41388630.000	-9.459950e-001	-3.238959e-001
41394624.000	-9.460447e-001	-3.238751e-001
41400618.000	-9.460075e-001	-3.238202e-001
41406612.000	-9.460005e-001	-3.237563e-001
41412606.000	-9.461057e-001	-3.237643e-001
41418600.000	-9.460804e-001	-3.237121e-001
41424594.000	-9.460953e-001	-3.236159e-001
41430588.000	-9.461491e-001	-3.236287e-001
41436582.000	-9.460953e-001	-3.235335e-001
41442576.000	-9.461690e-001	-3.235086e-001
41448570.000	-9.461437e-001	-3.234507e-001
41454564.000	-9.461352e-001	-3.233957e-001
41460558.000	-9.461897e-001	-3.234098e-001
41466552.000	-9.461963e-001	-3.232894e-001
41472546.000	-9.461997e-001	-3.233277e-001
41478540.000	-9.462319e-001	-3.232026e-001
41484534.000	-9.462760e-001	-3.232418e-001
41490528.000	-9.462659e-001	-3.231658e-001
41496522.000	-9.462526e-001	-3.230798e-001
41502516.000	-9.463024e-001	-3.231127e-001
41508510.000	-9.463067e-001	-3.229906e-001
41514504.000	-9.463466e-001	-3.229685e-001
41520498.000	-9.462428e-001	-3.229338e-001
41526492.000	-9.463125e-001	-3.228759e-001
41532486.000	-9.463195e-001	-3.228222e-001
41538480.000	-9.463946e-001	-3.227909e-001
41544474.000	-9.463722e-001	-3.227448e-001
41550468.000	-9.463886e-001	-3.227341e-001
41556462.000	-9.464146e-001	-3.226907e-001
41562456.000	-9.464759e-001	-3.226166e-001
41568450.000	-9.464445e-001	-3.226059e-001
41574444.000	-9.464603e-001	-3.225251e-001
41580438.000	-9.465011e-001	-3.225115e-001
41586432.000	-9.464668e-001	-3.224506e-001
41592426.000	-9.465466e-001	-3.224447e-001
41598420.000	-9.465111e-001	-3.223575e-001
41604414.000	-9.465382e-001	-3.222706e-001
41610408.000	-9.465489e-001	-3.222660e-001
41616402.000	-9.465744e-001	-3.222412e-001
41622396.000	-9.465462e-001	-3.221356e-001
41628390.000	-9.466354e-001	-3.221257e-001
41634384.000	-9.466249e-001	-3.220868e-001
41640378.000	-9.465922e-001	-3.220169e-001
41646372.000	-9.466920e-001	-3.219928e-001
41652366.000	-9.466631e-001	-3.219764e-001
41658360.000	-9.466422e-001	-3.219331e-001
41664354.000	-9.466668e-001	-3.218511e-001
41670348.000	-9.466427e-001	-3.218316e-001
41676342.000	-9.466681e-001	-3.217782e-001
41682336.000	-9.467693e-001	-3.216869e-001
41688330.000	-9.467256e-001	-3.217184e-001
41694324.000	-9.467376e-001	-3.216605e-001
41700318.000	-9.467357e-001	-3.215799e-001
41706312.000	-9.467732e-001	-3.215422e-001
41712306.000	-9.468065e-001	-3.214935e-001
41718300.000	-9.467927e-001	-3.214937e-001
41724294.000	-9.468264e-001	-3.214257e-001
41730288.000	-9.467969e-001	-3.213405e-001
41736282.000	-9.468669e-001	-3.213226e-001
41742276.000	-9.468651e-001	-3.212805e-001
41748270.000	-9.468888e-001	-3.212423e-001
41754264.000	-9.468902e-001	-3.212523e-001
41760258.000	-9.469060e-001	-3.211717e-001
41766252.000	-9.469423e-001	-3.211617e-001
41772246.000	-9.469103e-001	-3.210773e-001
41778240.000	-9.469305e-001	-3.210584e-001
41784234.000	-9.469189e-001	-3.209891e-001
41790228.000	-9.469842e-001	-3.209650e-001
41796222.000	-9.469772e-001	-3.209140e-001
41802216.000	-9.469979e-001	-3.208166e-001
41808210.000	-9.470274e-001	-3.207948e-001
41814204.000	-9.470076e-001	-3.207919e-001
41820198.000	-9.470511e-001	-3.207256e-001
41826192.000	-9.470666e-001	-3.206842e-001
41832186.000	-9.471175e-001	-3.206755e-001
41838180.000	-9.470718e-001	-3.205835e-001
41844174.000	-9.470560e-001	-3.205176e-001
41850168.000	-9.471478e-001	-3.204933e-001
41856162.000	-9.471284e-001	-3.204743e-001
41862156.000	-9.471082e-001	-3.204276e-001
41868150.000	-9.471800e-001	-3.203878e-001
41874144.000	-9.472018e-001	-3.203129e-001
41880138.000	-9.472376e-001	-3.203168e-001
41886132.000	-9.472249e-001	-3.202139e-001
41892126.000	-9.472414e-001	-3.202422e-001
41898120.000	-9.472407e-001	-3.201381e-001
41904114.000	-9.472186e-001	-3.201425e-001
41910108.000	-9.472688e-001	-3.201091e-001
41916102.000	-9.472951e-001	-3.200547e-001
41922096.000	-9.472687e-001	-3.199485e-001
41928090.000	-9.472915e-001	-3.199425e-001
41934084.000	-9.473387e-001	-3.199061e-001
41940078.000	-9.473326e-001	-3.198607e-001
41946072.000	-9.473457e-001	-3.197302e-001
41952066.000	-9.473709e-001	-3.197927e-001
41958060.000	-9.473139e-001	-3.197370e-001
41964054.000	-9.473322e-001	-3.196308e-001
41970048.000	-9.474107e-001	-3.196341e-001
41976042.000	-9.474002e-001	-3.196095e-001
41982036.000	-9.474034e-001	-3.195024e-001
41988030.000	-9.474513e-001	-3.194802e-001
41994024.000	-9.474530e-001	-3.194512e-001
42000018.000	-9.474793e-001	-3.193890e-001
42006012.000	-9.474827e-001	-3.193860e-001
42012006.000	-9.475013e-001	-3.192809e-001
42018000.000	-9.475689e-001	-3.193354e-001
42023994.000	-9.475437e-001	-3.192628e-001
42029988.000	-9.475590e-001	-3.192112e-001
42035982.000	-9.475499e-001	-3.191396e-001
42041976.000	-9.475770e-001	-3.191148e-001
42047970.000	-9.475967e-001	-3.190661e-001
42053964.000	-9.476095e-001	-3.190066e-001
42059958.000	-9.476088e-001	-3.189901e-001
42065952.000	-9.476433e-001	-3.189443e-001
42071946.000	-9.476722e-001	-3.188588e-001
42077940.000	-9.476506e-001	-3.188294e-001
42083934.000	-9.476436e-001	-3.187813e-001
42089928.000	-9.476706e-001	-3.187705e-001
42095922.000	-9.476642e-001	-3.186904e-001
42101916.000	-9.477003e-001	-3.186406e-001
42107910.000	-9.477603e-001	-3.186233e-001
42113904.000	-9.477274e-001	-3.185586e-001
42119898.000	-9.477537e-001	-3.185082e-001
42125892.000	-9.477688e-001	-3.184884e-001
42131886.000	-9.477384e-001	-3.184624e-001
42137880.000	-9.478302e-001	-3.184243e-001
42143874.000	-9.478306e-001	-3.183673e-001
42149868.000	-9.478681e-001	-3.183569e-001
42155862.000	-9.478831e-001	-3.182740e-001
42161856.000	-9.478446e-001	-3.182186e-001
42167850.000	-9.478436e-001	-3.182358e-001
42173844.000	-9.478942e-001	-3.181776e-001
42179838.000	-9.479348e-001	-3.180987e-001
42185832.000	-9.479727e-001	-3.181091e-001
42191826.000	-9.479172e-001	-3.180827e-001
42197820.000	-9.479373e-001	-3.179870e-001
42203814.000	-9.479914e-001	-3.179675e-001
42209808.000	-9.480153e-001	-3.179444e-001
42215802.000	-9.480299e-001	-3.178501e-001
42221796.000	-9.479950e-001	-3.178116e-001
42227790.000	-9.480095e-001	-3.177657e-001
42233784.000	-9.480285e-001	-3.177164e-001
42239778.000	-9.480501e-001	-3.176697e-001
42245772.000	-9.480448e-001	-3.176495e-001
42251766.000	-9.480615e-001	-3.176032e-001
42257760.000	-9.481057e-001	-3.175665e-001
42263754.000	-9.480942e-001	-3.175256e-001
42269748.000	-9.481302e-001	-3.174854e-001
42275742.000	-9.481302e-001	-3.173573e-001
42281736.000	-9.481050e-001	-3.173512e-001
42287730.000	-9.481236e-001	-3.173392e-001
42293724.000	-9.481843e-001	-3.172922e-001
42299718.000	-9.482380e-001	-3.172917e-001
42305712.000	-9.482036e-001	-3.172068e-001
42311706.000	-9.482109e-001	-3.171760e-001
42317700.000	-9.482205e-001	-3.171490e-001
42323694.000	-9.482530e-001	-3.170910e-001
42329688.000	-9.482020e-001	-3.170531e-001
42335682.000	-9.482887e-001	-3.169657e-001
42341676.000	-9.482865e-001	-3.169043e-001
42347670.000	-9.482869e-001	-3.168777e-001
42353664.000	-9.483011e-001	-3.168381e-001
42359658.000	-9.482849e-001	-3.168185e-001
42365652.000	-9.482976e-001	-3.167807e-001
42371646.000	-9.483541e-001	-3.167015e-001
42377640.000	-9.483277e-001	-3.166547e-001
42383634.000	-9.483646e-001	-3.166424e-001
42389628.000	-9.483672e-001	-3.166142e-001
42395622.000	-9.483483e-001	-3.165188e-001
42401616.000	-9.484040e-001	-3.165482e-001
42407610.000	-9.484160e-001	-3.164923e-001
42413604.000	-9.484665e-001	-3.164646e-001
42419598.000	-9.484491e-001	-3.163902e-001
42425592.000	-9.484418e-001	-3.163694e-001
42431586.000	-9.484534e-001	-3.163367e-001
42437580.000	-9.484632e-001	-3.162735e-001
42443574.000	-9.484958e-001	-3.162616e-001
42449568.000	-9.484773e-001	-3.162107e-001
42455562.000	-9.485469e-001	-3.161268e-001
42461556.000	-9.485397e-001	-3.160638e-001
42467550.000	-9.486023e-001	-3.160873e-001
42473544.000	-9.486100e-001	-3.161072e-001
42479538.000	-9.486186e-001	-3.160177e-001
42485532.000	-9.486367e-001	-3.159628e-001
42491526.000	-9.486266e-001	-3.158664e-001
42497520.000	-9.486483e-001	-3.158287e-001
42503514.000	-9.486491e-001	-3.157876e-001
42509508.000	-9.486256e-001	-3.157314e-001
42515502.000	-9.486489e-001	-3.157391e-001
42521496.000	-9.486741e-001	-3.156366e-001
42527490.000	-9.487107e-001	-3.156868e-001
42533484.000	-9.486839e-001	-3.155885e-001
42539478.000	-9.487944e-001	-3.155406e-001
42545472.000	-9.487656e-001	-3.154669e-001
42551466.000	-9.486984e-001	-3.154755e-001
42557460.000	-9.487610e-001	-3.154689e-001
42563454.000	-9.488079e-001	-3.154248e-001
42569448.000	-9.488151e-001	-3.153216e-001
42575442.000	-9.488588e-001	-3.153053e-001
42581436.000	-9.488254e-001	-3.152370e-001
42587430.000	-9.488507e-001	-3.152463e-001
42593424.000	-9.488558e-001	-3.151676e-001
42599418.000	-9.488978e-001	-3.151427e-001
42605412.000	-9.488581e-001	-3.150748e-001
42611406.000	-9.488931e-001	-3.150842e-001
42617400.000	-9.489077e-001	-3.150392e-001
42623394.000	-9.489447e-001	-3.149685e-001
42629388.000	-9.489065e-001	-3.148896e-001
42635382.000	-9.489291e-001	-3.148565e-001
42641376.000	-9.489895e-001	-3.148879e-001
42647370.000	-9.489893e-001	-3.147780e-001
42653364.000	-9.489829e-001	-3.147869e-001
42659358.000	-9.489954e-001	-3.147092e-001
42665352.000	-9.489775e-001	-3.146539e-001
42671346.000	-9.490388e-001	-3.146569e-001
42677340.000	-9.490014e-001	-3.145863e-001
42683334.000	-9.491150e-001	-3.145575e-001
42689328.000	-9.490881e-001	-3.145430e-001
42695322.000	-9.490858e-001	-3.145001e-001
42701316.000	-9.490952e-001	-3.144270e-001
42707310.000	-9.491549e-001	-3.143780e-001
42713304.000	-9.491056e-001	-3.143603e-001
42719298.000	-9.491561e-001	-3.142637e-001
42725292.000	-9.491646e-001	-3.142750e-001
42731286.000	-9.491863e-001	-3.142252e-001
42737280.000	-9.491557e-001	-3.141260e-001
42743274.000	-9.492112e-001	-3.141772e-001
42749268.000	-9.492502e-001	-3.141207e-001
42755262.000	-9.492345e-001	-3.140747e-001
42761256.000	-9.492299e-001	-3.139942e-001
42767250.000	-9.492974e-001	-3.139607e-001
42773244.000	-9.493189e-001	-3.139113e-001
42779238.000	-9.492779e-001	-3.138415e-001
42785232.000	-9.493174e-001	-3.138628e-001
42791226.000	-9.493390e-001	-3.138161e-001
42797220.000	-9.493262e-001	-3.137736e-001
42803214.000	-9.493225e-001	-3.137485e-001
42809208.000	-9.493477e-001	-3.136828e-001
42815202.000	-9.493605e-001	-3.136363e-001
42821196.000	-9.493878e-001	-3.135762e-001
42827190.000	-9.493686e-001	-3.135649e-001
42833184.000	-9.494164e-001	-3.134980e-001
42839178.000	-9.494268e-001	-3.134281e-001
42845172.000	-9.494027e-001	-3.134062e-001
42851166.000	-9.494341e-001	-3.133770e-001
42857160.000	-9.494396e-001	-3.132890e-001
42863154.000	-9.494361e-001	-3.132868e-001
42869148.000	-9.494734e-001	-3.132335e-001
42875142.000	-9.494934e-001	-3.131622e-001
42881136.000	-9.494631e-001	-3.131533e-001
42887130.000	-9.495355e-001	-3.131162e-001
42893124.000	-9.495518e-001	-3.131075e-001
42899118.000	-9.495366e-001	-3.130340e-001
42905112.000	-9.495139e-001	-3.129808e-001
42911106.000	-9.495365e-001	-3.129792e-001
42917100.000	-9.495583e-001	-3.128923e-001
42923094.000	-9.496061e-001	-3.129203e-001
42929088.000	-9.496175e-001	-3.128242e-001
42935082.000	-9.496311e-001	-3.127618e-001
42941076.000	-9.496624e-001	-3.127794e-001
42947070.000	-9.496664e-001	-3.127501e-001
42953064.000	-9.496855e-001	-3.126560e-001
42959058.000	-9.496700e-001	-3.126685e-001
42965052.000	-9.496793e-001	-3.126315e-001
42971046.000	-9.497101e-001	-3.125597e-001
42977040.000	-9.496941e-001	-3.125150e-001
42983034.000	-9.497476e-001	-3.124170e-001
42989028.000	-9.496884e-001	-3.124328e-001
42995022.000	-9.497425e-001	-3.123957e-001
43001016.000	-9.498041e-001	-3.122986e-001
43007010.000	-9.498362e-001	-3.122743e-001
43013004.000	-9.497718e-001	-3.122760e-001
43018998.000	-9.497804e-001	-3.121833e-001
43024992.000	-9.498674e-001	-3.121474e-001
43030986.000	-9.497944e-001	-3.121537e-001
43036980.000	-9.498142e-001	-3.120476e-001
43042974.000	-9.498561e-001	-3.120694e-001
43048968.000	-9.498604e-001	-3.119855e-001
43054962.000	-9.498826e-001	-3.119765e-001
43060956.000	-9.498506e-001	-3.118379e-001
43066950.000	-9.499127e-001	-3.118628e-001
43072944.000	-9.498810e-001	-3.118270e-001
43078938.000	-9.499366e-001	-3.117423e-001
43084932.000	-9.499124e-001	-3.117109e-001
43090926.000	-9.499320e-001	-3.117001e-001
43096920.000	-9.499413e-001	-3.116334e-001
43102914.000	-9.499704e-001	-3.116147e-001
43108908.000	-9.499603e-001	-3.115868e-001
43114902.000	-9.499612e-001	-3.114905e-001
43120896.000	-9.500377e-001	-3.115044e-001
43126890.000	-9.500708e-001	-3.114660e-001
43132884.000	-9.500677e-001	-3.114110e-001
43138878.000	-9.500845e-001	-3.113790e-001
43144872.000	-9.501063e-001	-3.113194e-001
43150866.000	-9.501178e-001	-3.112870e-001
43156860.000	-9.501425e-001	-3.112592e-001
43162854.000	-9.501126e-001	-3.112185e-001
43168848.000	-9.501457e-001	-3.111955e-001
43174842.000	-9.501365e-001	-3.110903e-001
43180836.000	-9.501915e-001	-3.111016e-001
43186830.000	-9.501855e-001	-3.110416e-001
43192824.000	-9.501751e-001	-3.110152e-001
43198818.000	-9.502213e-001	-3.109701e-001
43204812.000	-9.502269e-001	-3.109427e-001
43210806.000	-9.502069e-001	-3.108540e-001
43216800.000	-9.502379e-001	-3.108220e-001
43222794.000	-9.502336e-001	-3.108098e-001
43228788.000	-9.502987e-001	-3.107926e-001
43234782.000	-9.502719e-001	-3.107237e-001
43240776.000	-9.502876e-001	-3.106453e-001
43246770.000	-9.502482e-001	-3.106243e-001
43252764.000	-9.502690e-001	-3.106149e-001
43258758.000	-9.503111e-001	-3.105809e-001
43264752.000	-9.503468e-001	-3.105050e-001
43270746.000	-9.503083e-001	-3.104698e-001
43276740.000	-9.503581e-001	-3.104035e-001
43282734.000	-9.503709e-001	-3.103972e-001
43288728.000	-9.503972e-001	-3.103017e-001
43294722.000	-9.503716e-001	-3.103208e-001
43300716.000	-9.503943e-001	-3.102652e-001
43306710.000	-9.504244e-001	-3.102092e-001
43312704.000	-9.504610e-001	-3.102302e-001
43318698.000	-9.504076e-001	-3.100823e-001
43324692.000	-9.504595e-001	-3.101196e-001
43330686.000	-9.504912e-001	-3.100818e-001
43336680.000	-9.504963e-001	-3.100444e-001
43342674.000	-9.504963e-001	-3.099626e-001
43348668.000	-9.504687e-001	-3.098853e-001
43354662.000	-9.505264e-001	-3.099055e-001
43360656.000	-9.505115e-001	-3.098029e-001
43366650.000	-9.505190e-001	-3.098188e-001
43372644.000	-9.505924e-001	-3.098044e-001
43378638.000	-9.505824e-001	-3.097347e-001
43384632.000	-9.505963e-001	-3.096604e-001
43390626.000	-9.505926e-001	-3.096409e-001
43396620.000	-9.506041e-001	-3.096155e-001
43402614.000	-9.506093e-001	-3.095685e-001
43408608.000	-9.506271e-001	-3.094393e-001
43414602.000	-9.506598e-001	-3.094743e-001
43420596.000	-9.506544e-001	-3.094013e-001
43426590.000	-9.506585e-001	-3.093987e-001
43432584.000	-9.506499e-001	-3.093501e-001
43438578.000	-9.507238e-001	-3.093305e-001
43444572.000	-9.506660e-001	-3.092555e-001
43450566.000	-9.506961e-001	-3.091851e-001
43456560.000	-9.506969e-001	-3.091720e-001
43462554.000	-9.507197e-001	-3.091035e-001
43468548.000	-9.507257e-001	-3.091157e-001
43474542.000	-9.507959e-001	-3.090984e-001
43480536.000	-9.507353e-001	-3.090263e-001
43486530.000	-9.507611e-001	-3.089773e-001
43492524.000	-9.508158e-001	-3.089373e-001
43498518.000	-9.508004e-001	-3.088978e-001
43504512.000	-9.507886e-001	-3.088580e-001
43510506.000	-9.508038e-001	-3.087514e-001
43516500.000	-9.508480e-001	-3.087897e-001
43522494.000	-9.508499e-001	-3.087488e-001
43528488.000	-9.508673e-001	-3.086882e-001
43534482.000	-9.509501e-001	-3.086851e-001
43540476.000	-9.509292e-001	-3.086541e-001
43546470.000	-9.509341e-001	-3.086166e-001
43552464.000	-9.509263e-001	-3.085247e-001
43558458.000	-9.509320e-001	-3.084947e-001
43564452.000	-9.509515e-001	-3.084748e-001
43570446.000	-9.509869e-001	-3.084469e-001
43576440.000	-9.509500e-001	-3.083631e-001
43582434.000	-9.509930e-001	-3.083211e-001
43588428.000	-9.510061e-001	-3.082747e-001
43594422.000	-9.510282e-001	-3.082574e-001
43600416.000	-9.509849e-001	-3.081964e-001
43606410.000	-9.510667e-001	-3.081937e-001
43612404.000	-9.510522e-001	-3.081228e-001
43618398.000	-9.510403e-001	-3.080964e-001
43624392.000	-9.510592e-001	-3.079864e-001
43630386.000	-9.511437e-001	-3.080250e-001
43636380.000	-9.511330e-001	-3.079158e-001
43642374.000	-9.510511e-001	-3.079513e-001
43648368.000	-9.511233e-001	-3.078763e-001
43654362.000	-9.511298e-001	-3.078801e-001
43660356.000	-9.511507e-001	-3.077594e-001
43666350.000	-9.511418e-001	-3.077208e-001
43672344.000	-9.511535e-001	-3.077088e-001
43678338.000	-9.511341e-001	-3.076355e-001
43684332.000	-9.512030e-001	-3.076123e-001
43690326.000	-9.511962e-001	-3.075907e-001
43696320.000	-9.512373e-001	-3.075513e-001
43702314.000	-9.512914e-001	-3.074983e-001
43708308.000	-9.512244e-001	-3.074795e-001
43714302.000	-9.512236e-001	-3.074083e-001
43720296.000	-9.512800e-001	-3.074149e-001
43726290.000	-9.512552e-001	-3.074050e-001
43732284.000	-9.512862e-001	-3.073835e-001
43738278.000	-9.512797e-001	-3.072367e-001
43744272.000	-9.512889e-001	-3.072234e-001
43750266.000	-9.513013e-001	-3.071976e-001
43756260.000	-9.513185e-001	-3.071550e-001
43762254.000	-9.513512e-001	-3.070844e-001
43768248.000	-9.513645e-001	-3.070829e-001
43774242.000	-9.513459e-001	-3.070292e-001
43780236.000	-9.513909e-001	-3.070372e-001
43786230.000	-9.514524e-001	-3.070209e-001
43792224.000	-9.514318e-001	-3.069352e-001
43798218.000	-9.513923e-001	-3.068622e-001
43804212.000	-9.514393e-001	-3.068324e-001
43810206.000	-9.513792e-001	-3.067844e-001
43816200.000	-9.514540e-001	-3.067338e-001
43822194.000	-9.514987e-001	-3.066905e-001
43828188.000	-9.514840e-001	-3.067031e-001
43834182.000	-9.514894e-001	-3.066348e-001
43840176.000	-9.514837e-001	-3.065730e-001
43846170.000	-9.515555e-001	-3.065448e-001
43852164.000	-9.515728e-001	-3.064923e-001
43858158.000	-9.515026e-001	-3.064582e-001
43864152.000	-9.515666e-001	-3.064421e-001
43870146.000	-9.515739e-001	-3.063795e-001
43876140.000	-9.516191e-001	-3.063446e-001
43882134.000	-9.515794e-001	-3.063113e-001
43888128.000	-9.515342e-001	-3.062694e-001
43894122.000	-9.516307e-001	-3.062492e-001
43900116.000	-9.516232e-001	-3.061917e-001
43906110.000	-9.516461e-001	-3.061878e-001
43912104.000	-9.516671e-001	-3.061134e-001
43918098.000	-9.516741e-001	-3.060529e-001
43924092.000	-9.516603e-001	-3.059942e-001
43930086.000	-9.517327e-001	-3.060044e-001
43936080.000	-9.517312e-001	-3.060032e-001
43942074.000	-9.517530e-001	-3.059442e-001
43948068.000	-9.517256e-001	-3.058927e-001
43954062.000	-9.517005e-001	-3.058165e-001
43960056.000	-9.517450e-001	-3.057633e-001
43966050.000	-9.517753e-001	-3.057681e-001
43972044.000	-9.517324e-001	-3.056865e-001
43978038.000	-9.518176e-001	-3.056933e-001
43984032.000	-9.517539e-001	-3.055952e-001
43990026.000	-9.517919e-001	-3.055283e-001
43996020.000	-9.517931e-001	-3.055518e-001
44002014.000	-9.518879e-001	-3.055232e-001
44008008.000	-9.518828e-001	-3.054503e-001
44014002.000	-9.518922e-001	-3.054881e-001
44019996.000	-9.518635e-001	-3.053882e-001
44025990.000	-9.519083e-001	-3.054105e-001
44031984.000	-9.519522e-001	-3.053570e-001
44037978.000	-9.519262e-001	-3.053143e-001
44043972.000	-9.519512e-001	-3.052717e-001
44049966.000	-9.519752e-001	-3.052514e-001
44055960.000	-9.519927e-001	-3.051824e-001
44061954.000	-9.519514e-001	-3.050910e-001
44067948.000	-9.519578e-001	-3.051096e-001
44073942.000	-9.520443e-001	-3.050635e-001
44079936.000	-9.519748e-001	-3.049833e-001
44085930.000	-9.520281e-001	-3.050020e-001
44091924.000	-9.520029e-001	-3.048804e-001
44097918.000	-9.520486e-001	-3.048736e-001
44103912.000	-9.520561e-001	-3.048628e-001
44109906.000	-9.520670e-001	-3.047717e-001
44115900.000	-9.520694e-001	-3.047876e-001
44121894.000	-9.520741e-001	-3.047346e-001
44127888.000	-9.521078e-001	-3.046361e-001
44133882.000	-9.521541e-001	-3.046817e-001
44139876.000	-9.521390e-001	-3.046281e-001
44145870.000	-9.521556e-001	-3.046134e-001
44151864.000	-9.521598e-001	-3.045452e-001
44157858.000	-9.521609e-001	-3.045153e-001
44163852.000	-9.521579e-001	-3.044664e-001
44169846.000	-9.521940e-001	-3.044285e-001
44175840.000	-9.521904e-001	-3.044004e-001
44181834.000	-9.522218e-001	-3.043473e-001
44187828.000	-9.522605e-001	-3.043044e-001
44193822.000	-9.522186e-001	-3.042753e-001
44199816.000	-9.522590e-001	-3.042182e-001
44205810.000	-9.522192e-001	-3.041692e-001
44211804.000	-9.522527e-001	-3.041619e-001
44217798.000	-9.523282e-001	-3.041458e-001
44223792.000	-9.523173e-001	-3.040512e-001
44229786.000	-9.522998e-001	-3.040076e-001
44235780.000	-9.523782e-001	-3.039858e-001
44241774.000	-9.523481e-001	-3.039470e-001
44247768.000	-9.523387e-001	-3.038838e-001
44253762.000	-9.523564e-001	-3.038370e-001
44259756.000	-9.523159e-001	-3.038106e-001
44265750.000	-9.523908e-001	-3.037736e-001
44271744.000	-9.524187e-001	-3.037637e-001
44277738.000	-9.524028e-001	-3.037340e-001
44283732.000	-9.524196e-001	-3.036077e-001
44289726.000	-9.524826e-001	-3.036607e-001
44295720.000	-9.525343e-001	-3.035989e-001
44301714.000	-9.525298e-001	-3.035665e-001
44307708.000	-9.524642e-001	-3.035294e-001
44313702.000	-9.524654e-001	-3.034770e-001
44319696.000	-9.525596e-001	-3.034585e-001
44325690.000	-9.524842e-001	-3.034170e-001
44331684.000	-9.525668e-001	-3.033635e-001
44337678.000	-9.525615e-001	-3.033729e-001
44343672.000	-9.525746e-001	-3.032998e-001
44349666.000	-9.526047e-001	-3.033015e-001
44355660.000	-9.525795e-001	-3.031629e-001
44361654.000	-9.525796e-001	-3.031178e-001
44367648.000	-9.525627e-001	-3.031150e-001
44373642.000	-9.526674e-001	-3.030812e-001
44379636.000	-9.526113e-001	-3.030635e-001
44385630.000	-9.526375e-001	-3.030381e-001
44391624.000	-9.525608e-001	-3.029499e-001
44397618.000	-9.526644e-001	-3.028800e-001
44403612.000	-9.526259e-001	-3.029275e-001
44409606.000	-9.526785e-001	-3.028222e-001
44415600.000	-9.526688e-001	-3.028279e-001
44421594.000	-9.527067e-001	-3.028466e-001
44427588.000	-9.527184e-001	-3.027254e-001
44433582.000	-9.527428e-001	-3.026909e-001
44439576.000	-9.527703e-001	-3.026617e-001
44445570.000	-9.527263e-001	-3.026483e-001
44451564.000	-9.528031e-001	-3.025822e-001
44457558.000	-9.528270e-001	-3.025916e-001
44463552.000	-9.527988e-001	-3.025318e-001
44469546.000	-9.527997e-001	-3.024777e-001
44475540.000	-9.528325e-001	-3.024094e-001
44481534.000	-9.528265e-001	-3.023771e-001
44487528.000	-9.528171e-001	-3.023038e-001
44493522.000	-9.528554e-001	-3.022272e-001
44499516.000	-9.528607e-001	-3.023074e-001
44505510.000	-9.528849e-001	-3.022414e-001
44511504.000	-9.528888e-001	-3.021603e-001
44517498.000	-9.529162e-001	-3.021480e-001
44523492.000	-9.529124e-001	-3.020962e-001
44529486.000	-9.529428e-001	-3.020678e-001
44535480.000	-9.529216e-001	-3.020612e-001
44541474.000	-9.529049e-001	-3.019984e-001
44547468.000	-9.529319e-001	-3.019255e-001
44553462.000	-9.529528e-001	-3.018815e-001
44559456.000	-9.529584e-001	-3.019118e-001
44565450.000	-9.529695e-001	-3.017882e-001
44571444.000	-9.530204e-001	-3.018046e-001
44577438.000	-9.529827e-001	-3.017655e-001
44583432.000	-9.530112e-001	-3.017456e-001
44589426.000	-9.530455e-001	-3.016730e-001
44595420.000	-9.530611e-001	-3.016323e-001
44601414.000	-9.530358e-001	-3.016138e-001
44607408.000	-9.530738e-001	-3.015443e-001
44613402.000	-9.531120e-001	-3.015282e-001
44619396.000	-9.531289e-001	-3.015198e-001
44625390.000	-9.531156e-001	-3.014668e-001
44631384.000	-9.531430e-001	-3.014302e-001
44637378.000	-9.531461e-001	-3.013832e-001
44643372.000	-9.531457e-001	-3.013682e-001
44649366.000	-9.531733e-001	-3.012743e-001
44655360.000	-9.531814e-001	-3.012610e-001
44661354.000	-9.531313e-001	-3.011500e-001
44667348.000	-9.531569e-001	-3.011815e-001
44673342.000	-9.531918e-001	-3.011147e-001
44679336.000	-9.532161e-001	-3.010982e-001
44685330.000	-9.532469e-001	-3.011004e-001
44691324.000	-9.532681e-001	-3.009821e-001
44697318.000	-9.532851e-001	-3.009981e-001
44703312.000	-9.532058e-001	-3.009181e-001
44709306.000	-9.532407e-001	-3.008655e-001
44715300.000	-9.532518e-001	-3.008313e-001
44721294.000	-9.533142e-001	-3.008152e-001
44727288.000	-9.533027e-001	-3.007801e-001
44733282.000	-9.533124e-001	-3.007513e-001
44739276.000	-9.532902e-001	-3.007078e-001
44745270.000	-9.534031e-001	-3.006888e-001
44751264.000	-9.533671e-001	-3.006354e-001
44757258.000	-9.533838e-001	-3.006025e-001
44763252.000	-9.533154e-001	-3.005849e-001
44769246.000	-9.533764e-001	-3.005678e-001
44775240.000	-9.533654e-001	-3.004585e-001
44781234.000	-9.533798e-001	-3.004445e-001
44787228.000	-9.533860e-001	-3.003768e-001
44793222.000	-9.533937e-001	-3.003220e-001
44799216.000	-9.534190e-001	-3.003172e-001
44805210.000	-9.534369e-001	-3.002474e-001
44811204.000	-9.534686e-001	-3.002238e-001
44817198.000	-9.534513e-001	-3.002042e-001
44823192.000	-9.534849e-001	-3.001516e-001
44829186.000	-9.534620e-001	-3.001285e-001
44835180.000	-9.535190e-001	-3.001254e-001
44841174.000	-9.535654e-001	-3.000827e-001
44847168.000	-9.535066e-001	-2.999981e-001
44853162.000	-9.535324e-001	-2.999477e-001
44859156.000	-9.535526e-001	-2.999153e-001
44865150.000	-9.535355e-001	-2.998997e-001
44871144.000	-9.535359e-001	-2.998524e-001
44877138.000	-9.535638e-001	-2.997829e-001
44883132.000	-9.536168e-001	-2.997249e-001
44889126.000	-9.535644e-001	-2.997629e-001
44895120.000	-9.536052e-001	-2.997103e-001
44901114.000	-9.536596e-001	-2.997226e-001
44907108.000	-9.536092e-001	-2.996317e-001
44913102.000	-9.536182e-001	-2.996058e-001
44919096.000	-9.536694e-001	-2.995647e-001
44925090.000	-9.536881e-001	-2.995405e-001
44931084.000	-9.536712e-001	-2.995011e-001
44937078.000	-9.536725e-001	-2.994245e-001
44943072.000	-9.537223e-001	-2.993715e-001
44949066.000	-9.537289e-001	-2.993472e-001
44955060.000	-9.536586e-001	-2.992995e-001
44961054.000	-9.537288e-001	-2.993137e-001
44967048.000	-9.537719e-001	-2.992748e-001
44973042.000	-9.537609e-001	-2.991432e-001
44979036.000	-9.537436e-001	-2.991529e-001
44985030.000	-9.538018e-001	-2.991037e-001
44991024.000	-9.537965e-001	-2.990737e-001
44997018.000	-9.538151e-001	-2.990696e-001
45003012.000	-9.538917e-001	-2.990358e-001
45009006.000	-9.538289e-001	-2.989932e-001
45015000.000	-9.538362e-001	-2.989242e-001
45020994.000	-9.538107e-001	-2.989016e-001
45026988.000	-9.538323e-001	-2.988709e-001
45032982.000	-9.538778e-001	-2.988065e-001
45038976.000	-9.539054e-001	-2.987443e-001
45044970.000	-9.538930e-001	-2.987447e-001
45050964.000	-9.539109e-001	-2.986967e-001
45056958.000	-9.539354e-001	-2.986725e-001
45062952.000	-9.539467e-001	-2.985943e-001
45068946.000	-9.539043e-001	-2.985905e-001
45074940.000	-9.539528e-001	-2.985020e-001
45080934.000	-9.539397e-001	-2.984819e-001
45086928.000	-9.539733e-001	-2.984746e-001
45092922.000	-9.539700e-001	-2.984341e-001
45098916.000	-9.540014e-001	-2.984213e-001
45104910.000	-9.540193e-001	-2.983422e-001
45110904.000	-9.540326e-001	-2.982892e-001
45116898.000	-9.540662e-001	-2.982750e-001
45122892.000	-9.540547e-001	-2.982559e-001
45128886.000	-9.541364e-001	-2.981968e-001
45134880.000	-9.540798e-001	-2.981632e-001
45140874.000	-9.541385e-001	-2.981294e-001
45146868.000	-9.541281e-001	-2.980939e-001
45152862.000	-9.541145e-001	-2.980334e-001
45158856.000	-9.541062e-001	-2.980246e-001
45164850.000	-9.541626e-001	-2.979919e-001
45170844.000	-9.541344e-001	-2.979616e-001
45176838.000	-9.541445e-001	-2.979023e-001
45182832.000	-9.541810e-001	-2.978432e-001
45188826.000	-9.541747e-001	-2.978339e-001
45194820.000	-9.542016e-001	-2.978226e-001
45200814.000	-9.541556e-001	-2.977761e-001
45206808.000	-9.542134e-001	-2.977318e-001
45212802.000	-9.542463e-001	-2.976783e-001
45218796.000	-9.541944e-001	-2.976320e-001
45224790.000	-9.541985e-001	-2.975793e-001
45230784.000	-9.541985e-001	-2.975189e-001
45236778.000	-9.542205e-001	-2.974894e-001
45242772.000	-9.542309e-001	-2.974140e-001
45248766.000	-9.542309e-001	-2.974324e-001
45254760.000	-9.543023e-001	-2.974050e-001
45260754.000	-9.542806e-001	-2.973212e-001
45266748.000	-9.543517e-001	-2.973381e-001
45272742.000	-9.543501e-001	-2.973018e-001
45278736.000	-9.542986e-001	-2.972320e-001
45284730.000	-9.543518e-001	-2.972317e-001
45290724.000	-9.543489e-001	-2.971999e-001
45296718.000	-9.543851e-001	-2.970927e-001
45302712.000	-9.543860e-001	-2.971092e-001
45308706.000	-9.544160e-001	-2.970941e-001
45314700.000	-9.544349e-001	-2.970323e-001
45320694.000	-9.544319e-001	-2.970454e-001
45326688.000	-9.544338e-001	-2.969255e-001
45332682.000	-9.544415e-001	-2.969498e-001
45338676.000	-9.544515e-001	-2.969076e-001
45344670.000	-9.544617e-001	-2.968330e-001
45350664.000	-9.544454e-001	-2.968207e-001
45356658.000	-9.544641e-001	-2.967479e-001
45362652.000	-9.545111e-001	-2.967516e-001
45368646.000	-9.545126e-001	-2.967388e-001
45374640.000	-9.545306e-001	-2.966334e-001
45380634.000	-9.545848e-001	-2.966778e-001
45386628.000	-9.545301e-001	-2.966114e-001
45392622.000	-9.545201e-001	-2.965508e-001
45398616.000	-9.545680e-001	-2.965441e-001
45404610.000	-9.545508e-001	-2.964498e-001
45410604.000	-9.545619e-001	-2.964472e-001
45416598.000	-9.546671e-001	-2.964385e-001
45422592.000	-9.546039e-001	-2.963401e-001
45428586.000	-9.546837e-001	-2.963102e-001
45434580.000	-9.546337e-001	-2.962944e-001
45440574.000	-9.546415e-001	-2.962541e-001
45446568.000	-9.547125e-001	-2.962204e-001
45452562.000	-9.546594e-001	-2.961832e-001
45458556.000	-9.547119e-001	-2.961360e-001
45464550.000	-9.546984e-001	-2.961522e-001
45470544.000	-9.547178e-001	-2.960537e-001
45476538.000	-9.547342e-001	-2.960179e-001
45482532.000	-9.547639e-001	-2.959997e-001
45488526.000	-9.547773e-001	-2.959674e-001
45494520.000	-9.547555e-001	-2.958988e-001
45500514.000	-9.547978e-001	-2.958919e-001
45506508.000	-9.547599e-001	-2.958741e-001
45512502.000	-9.547641e-001	-2.957979e-001
45518496.000	-9.548164e-001	-2.957397e-001
45524490.000	-9.548358e-001	-2.957557e-001
45530484.000	-9.548568e-001	-2.957411e-001
45536478.000	-9.548855e-001	-2.956525e-001
45542472.000	-9.549451e-001	-2.956727e-001
45548466.000	-9.548781e-001	-2.955516e-001
45554460.000	-9.548696e-001	-2.955478e-001
45560454.000	-9.548873e-001	-2.955025e-001
45566448.000	-9.549622e-001	-2.955068e-001
45572442.000	-9.548786e-001	-2.954523e-001
45578436.000	-9.549773e-001	-2.953698e-001
45584430.000	-9.549160e-001	-2.953462e-001
45590424.000	-9.549522e-001	-2.953451e-001
45596418.000	-9.549468e-001	-2.952558e-001
45602412.000	-9.549800e-001	-2.952318e-001
45608406.000	-9.549479e-001	-2.951914e-001
45614400.000	-9.550092e-001	-2.951644e-001
45620394.000	-9.549793e-001	-2.950795e-001
45626388.000	-9.550349e-001	-2.951024e-001
45632382.000	-9.550105e-001	-2.950799e-001
45638376.000	-9.550331e-001	-2.950261e-001
45644370.000	-9.550432e-001	-2.949802e-001
45650364.000	-9.550190e-001	-2.949245e-001
45656358.000	-9.550647e-001	-2.948883e-001
45662352.000	-9.551023e-001	-2.948831e-001
45668346.000	-9.550968e-001	-2.948475e-001
45674340.000	-9.550783e-001	-2.947947e-001
45680334.000	-9.551152e-001	-2.947548e-001
45686328.000	-9.551313e-001	-2.947875e-001
45692322.000	-9.551341e-001	-2.947148e-001
45698316.000	-9.551442e-001	-2.946700e-001
45704310.000	-9.551669e-001	-2.946369e-001
45710304.000	-9.551520e-001	-2.946172e-001
45716298.000	-9.551651e-001	-2.945785e-001
45722292.000	-9.551824e-001	-2.945203e-001
45728286.000	-9.551902e-001	-2.944846e-001
45734280.000	-9.552004e-001	-2.943831e-001
45740274.000	-9.551993e-001	-2.944264e-001
45746268.000	-9.552367e-001	-2.943973e-001
45752262.000	-9.552221e-001	-2.943355e-001
45758256.000	-9.552237e-001	-2.942936e-001
45764250.000	-9.552417e-001	-2.942598e-001
45770244.000	-9.552856e-001	-2.942033e-001
45776238.000	-9.553065e-001	-2.941774e-001
45782232.000	-9.552988e-001	-2.941219e-001
45788226.000	-9.552725e-001	-2.941051e-001
45794220.000	-9.553008e-001	-2.940276e-001
45800214.000	-9.553352e-001	-2.940364e-001
45806208.000	-9.553270e-001	-2.939814e-001
45812202.000	-9.553058e-001	-2.939264e-001
45818196.000	-9.553342e-001	-2.939112e-001
45824190.000	-9.553293e-001	-2.938858e-001
45830184.000	-9.553415e-001	-2.938176e-001
45836178.000	-9.553892e-001	-2.938147e-001
45842172.000	-9.554221e-001	-2.937938e-001
45848166.000	-9.554411e-001	-2.937135e-001
45854160.000	-9.554330e-001	-2.937099e-001
45860154.000	-9.554564e-001	-2.937072e-001
45866148.000	-9.554884e-001	-2.936282e-001
45872142.000	-9.554418e-001	-2.935768e-001
45878136.000	-9.554636e-001	-2.935645e-001
45884130.000	-9.554337e-001	-2.935215e-001
45890124.000	-9.555266e-001	-2.934982e-001
45896118.000	-9.555000e-001	-2.934280e-001
45902112.000	-9.555055e-001	-2.934145e-001
45908106.000	-9.555140e-001	-2.933831e-001
45914100.000	-9.555476e-001	-2.933917e-001
45920094.000	-9.555278e-001	-2.933329e-001
45926088.000	-9.555874e-001	-2.932501e-001
45932082.000	-9.555389e-001	-2.932588e-001
45938076.000	-9.556080e-001	-2.932030e-001
45944070.000	-9.555708e-001	-2.931683e-001
45950064.000	-9.555969e-001	-2.931569e-001
45956058.000	-9.555881e-001	-2.930808e-001
45962052.000	-9.556203e-001	-2.930490e-001
45968046.000	-9.556426e-001	-2.930091e-001
45974040.000	-9.556222e-001	-2.929206e-001
45980034.000	-9.555998e-001	-2.928900e-001
45986028.000	-9.556474e-001	-2.929432e-001
45992022.000	-9.556813e-001	-2.928625e-001
45998016.000	-9.556943e-001	-2.928326e-001
46004010.000	-9.557212e-001	-2.928218e-001
46010004.000	-9.556827e-001	-2.927210e-001
46015998.000	-9.556855e-001	-2.927505e-001
46021992.000	-9.557501e-001	-2.926938e-001
46027986.000	-9.557677e-001	-2.926025e-001
46033980.000	-9.557269e-001	-2.925720e-001
46039974.000	-9.557371e-001	-2.925232e-001
46045968.000	-9.557540e-001	-2.925487e-001
46051962.000	-9.557490e-001	-2.925077e-001
46057956.000	-9.557499e-001	-2.924339e-001
46063950.000	-9.558090e-001	-2.924228e-001
46069944.000	-9.557279e-001	-2.923206e-001
46075938.000	-9.558050e-001	-2.923100e-001
46081932.000	-9.558119e-001	-2.922763e-001
46087926.000	-9.557579e-001	-2.922092e-001
46093920.000	-9.558587e-001	-2.922183e-001
46099914.000	-9.558452e-001	-2.921889e-001
46105908.000	-9.558494e-001	-2.921678e-001
46111902.000	-9.558591e-001	-2.921380e-001
46117896.000	-9.558747e-001	-2.920598e-001
46123890.000	-9.558764e-001	-2.920617e-001
46129884.000	-9.559048e-001	-2.920168e-001
46135878.000	-9.559161e-001	-2.919665e-001
46141872.000	-9.559519e-001	-2.919378e-001
46147866.000	-9.559511e-001	-2.919304e-001
46153860.000	-9.559271e-001	-2.918270e-001
46159854.000	-9.559151e-001	-2.918388e-001
46165848.000	-9.559618e-001	-2.918053e-001
46171842.000	-9.559322e-001	-2.917469e-001
46177836.000	-9.559618e-001	-2.917332e-001
46183830.000	-9.559863e-001	-2.917074e-001
46189824.000	-9.560006e-001	-2.916157e-001
46195818.000	-9.560003e-001	-2.916062e-001
46201812.000	-9.560107e-001	-2.915699e-001
46207806.000	-9.560049e-001	-2.915238e-001
46213800.000	-9.560355e-001	-2.915119e-001
46219794.000	-9.560845e-001	-2.914389e-001
46225788.000	-9.560414e-001	-2.913913e-001
46231782.000	-9.560607e-001	-2.913882e-001
46237776.000	-9.560954e-001	-2.912912e-001
46243770.000	-9.560963e-001	-2.913005e-001
46249764.000	-9.561154e-001	-2.912377e-001
46255758.000	-9.561081e-001	-2.912381e-001
46261752.000	-9.561881e-001	-2.912407e-001
46267746.000	-9.561562e-001	-2.911713e-001
46273740.000	-9.561228e-001	-2.911184e-001
46279734.000	-9.561862e-001	-2.910961e-001
46285728.000	-9.562211e-001	-2.911095e-001
46291722.000	-9.561652e-001	-2.910282e-001
46297716.000	-9.562042e-001	-2.909983e-001
46303710.000	-9.562059e-001	-2.909598e-001
46309704.000	-9.561479e-001	-2.908522e-001
46315698.000	-9.562359e-001	-2.908666e-001
46321692.000	-9.562368e-001	-2.908356e-001
46327686.000	-9.562720e-001	-2.907990e-001
46333680.000	-9.561862e-001	-2.907775e-001
46339674.000	-9.562751e-001	-2.907144e-001
46345668.000	-9.562958e-001	-2.906564e-001
46351662.000	-9.562614e-001	-2.906506e-001
46357656.000	-9.562770e-001	-2.906013e-001
46363650.000	-9.562894e-001	-2.906051e-001
46369644.000	-9.562756e-001	-2.905825e-001
46375638.000	-9.563473e-001	-2.905058e-001
46381632.000	-9.562980e-001	-2.904647e-001
46387626.000	-9.563348e-001	-2.904823e-001
46393620.000	-9.563282e-001	-2.904274e-001
46399614.000	-9.563020e-001	-2.903654e-001
46405608.000	-9.563734e-001	-2.903556e-001
46411602.000	-9.563362e-001	-2.902707e-001
46417596.000	-9.564184e-001	-2.902917e-001
46423590.000	-9.563814e-001	-2.902102e-001
46429584.000	-9.564060e-001	-2.901791e-001
46435578.000	-9.564150e-001	-2.901676e-001
46441572.000	-9.564547e-001	-2.901115e-001
46447566.000	-9.564628e-001	-2.900268e-001
46453560.000	-9.564544e-001	-2.899925e-001
46459554.000	-9.564503e-001	-2.900165e-001
46465548.000	-9.564499e-001	-2.899646e-001
46471542.000	-9.565101e-001	-2.899465e-001
46477536.000	-9.564558e-001	-2.899187e-001
46483530.000	-9.565076e-001	-2.898524e-001
46489524.000	-9.565140e-001	-2.898116e-001
46495518.000	-9.565084e-001	-2.897605e-001
46501512.000	-9.565228e-001	-2.897274e-001
46507506.000	-9.565391e-001	-2.897306e-001
46513500.000	-9.564829e-001	-2.896844e-001
46519494.000	-9.565423e-001	-2.896791e-001
46525488.000	-9.565840e-001	-2.895853e-001
46531482.000	-9.565997e-001	-2.895240e-001
46537476.000	-9.566109e-001	-2.895071e-001
46543470.000	-9.566124e-001	-2.894814e-001
46549464.000	-9.565769e-001	-2.894224e-001
46555458.000	-9.566185e-001	-2.893850e-001
46561452.000	-9.566253e-001	-2.893932e-001
46567446.000	-9.566397e-001	-2.893650e-001
46573440.000	-9.566547e-001	-2.894032e-001
46579434.000	-9.566763e-001	-2.892827e-001
46585428.000	-9.566414e-001	-2.892233e-001
46591422.000	-9.566647e-001	-2.892281e-001
46597416.000	-9.567287e-001	-2.891759e-001
46603410.000	-9.566583e-001	-2.891667e-001
46609404.000	-9.566769e-001	-2.891385e-001
46615398.000	-9.566841e-001	-2.890993e-001
46621392.000	-9.566978e-001	-2.890102e-001
46627386.000	-9.567450e-001	-2.890144e-001
46633380.000	-9.567615e-001	-2.889622e-001
46639374.000	-9.567529e-001	-2.889512e-001
46645368.000	-9.567597e-001	-2.888770e-001
46651362.000	-9.567684e-001	-2.888609e-001
46657356.000	-9.567644e-001	-2.888036e-001
46663350.000	-9.567842e-001	-2.887702e-001
46669344.000	-9.567722e-001	-2.887149e-001
46675338.000	-9.568007e-001	-2.887195e-001
46681332.000	-9.568100e-001	-2.886541e-001
46687326.000	-9.568643e-001	-2.886616e-001
46693320.000	-9.568790e-001	-2.886510e-001
46699314.000	-9.568462e-001	-2.885803e-001
46705308.000	-9.568778e-001	-2.885566e-001
46711302.000	-9.569064e-001	-2.885230e-001
46717296.000	-9.569363e-001	-2.885067e-001
46723290.000	-9.569534e-001	-2.884511e-001
46729284.000	-9.569555e-001	-2.883905e-001
46735278.000	-9.569057e-001	-2.883750e-001
46741272.000	-9.569402e-001	-2.883114e-001
46747266.000	-9.570152e-001	-2.883084e-001
46753260.000	-9.569325e-001	-2.882386e-001
46759254.000	-9.569269e-001	-2.882087e-001
46765248.000	-9.569820e-001	-2.881588e-001
46771242.000	-9.569602e-001	-2.881479e-001
46777236.000	-9.569934e-001	-2.881179e-001
46783230.000	-9.570297e-001	-2.880755e-001
46789224.000	-9.569999e-001	-2.880056e-001
46795218.000	-9.570223e-001	-2.880466e-001
46801212.000	-9.570062e-001	-2.879940e-001
46807206.000	-9.570464e-001	-2.879335e-001
46813200.000	-9.570491e-001	-2.878798e-001
46819194.000	-9.570524e-001	-2.879013e-001
46825188.000	-9.570831e-001	-2.878002e-001
46831182.000	-9.571108e-001	-2.877787e-001
46837176.000	-9.571236e-001	-2.877542e-001
46843170.000	-9.571032e-001	-2.877188e-001
46849164.000	-9.570741e-001	-2.876840e-001
46855158.000	-9.571653e-001	-2.876652e-001
46861152.000	-9.571663e-001	-2.876158e-001
46867146.000	-9.571478e-001	-2.875906e-001
46873140.000	-9.571648e-001	-2.875575e-001
46879134.000	-9.572024e-001	-2.875725e-001
46885128.000	-9.571618e-001	-2.874492e-001
46891122.000	-9.572238e-001	-2.874369e-001
46897116.000	-9.572480e-001	-2.874067e-001
46903110.000	-9.572632e-001	-2.873862e-001
46909104.000	-9.572298e-001	-2.872747e-001
46915098.000	-9.572366e-001	-2.873325e-001
46921092.000	-9.572166e-001	-2.872447e-001
46927086.000	-9.572583e-001	-2.872383e-001
46933080.000	-9.572448e-001	-2.872446e-001
46939074.000	-9.572378e-001	-2.872351e-001
46945068.000	-9.572767e-001	-2.871536e-001
46951062.000	-9.573043e-001	-2.871045e-001
46957056.000	-9.573643e-001	-2.870949e-001
46963050.000	-9.573015e-001	-2.870403e-001
46969044.000	-9.573290e-001	-2.870051e-001
46975038.000	-9.573309e-001	-2.869512e-001
46981032.000	-9.573269e-001	-2.869622e-001
46987026.000	-9.573553e-001	-2.869159e-001
46993020.000	-9.573608e-001	-2.869106e-001
46999014.000	-9.573913e-001	-2.868313e-001
47005008.000	-9.573883e-001	-2.868079e-001
47011002.000	-9.573747e-001	-2.867672e-001
47016996.000	-9.573796e-001	-2.867106e-001
47022990.000	-9.574682e-001	-2.867231e-001
47028984.000	-9.573952e-001	-2.866131e-001
47034978.000	-9.574598e-001	-2.866280e-001
47040972.000	-9.574767e-001	-2.866048e-001
47046966.000	-9.574691e-001	-2.865357e-001
47052960.000	-9.574246e-001	-2.864415e-001
47058954.000	-9.574515e-001	-2.864800e-001
47064948.000	-9.574847e-001	-2.864171e-001
47070942.000	-9.575112e-001	-2.864112e-001
47076936.000	-9.575045e-001	-2.863943e-001
47082930.000	-9.574855e-001	-2.863016e-001
47088924.000	-9.575040e-001	-2.862695e-001
47094918.000	-9.575217e-001	-2.862263e-001
47100912.000	-9.574860e-001	-2.862035e-001
47106906.000	-9.575681e-001	-2.861568e-001
47112900.000	-9.575364e-001	-2.861327e-001
47118894.000	-9.575865e-001	-2.860916e-001
47124888.000	-9.575458e-001	-2.860401e-001
47130882.000	-9.576348e-001	-2.860717e-001
47136876.000	-9.576140e-001	-2.860085e-001
47142870.000	-9.576421e-001	-2.859789e-001
47148864.000	-9.576390e-001	-2.859651e-001
47154858.000	-9.576554e-001	-2.859378e-001
47160852.000	-9.576587e-001	-2.858799e-001
47166846.000	-9.576798e-001	-2.858531e-001
47172840.000	-9.576622e-001	-2.858490e-001
47178834.000	-9.576024e-001	-2.857769e-001
47184828.000	-9.576540e-001	-2.857350e-001
47190822.000	-9.577068e-001	-2.856668e-001
47196816.000	-9.576793e-001	-2.856786e-001
47202810.000	-9.576944e-001	-2.856768e-001
47208804.000	-9.576993e-001	-2.855710e-001
47214798.000	-9.577126e-001	-2.855738e-001
47220792.000	-9.577475e-001	-2.855890e-001
47226786.000	-9.577593e-001	-2.854343e-001
47232780.000	-9.577258e-001	-2.854802e-001
47238774.000	-9.577485e-001	-2.853745e-001
47244768.000	-9.577468e-001	-2.853632e-001
47250762.000	-9.577748e-001	-2.853015e-001
47256756.000	-9.578055e-001	-2.852885e-001
47262750.000	-9.578015e-001	-2.853117e-001
47268744.000	-9.578209e-001	-2.852781e-001
47274738.000	-9.578186e-001	-2.851855e-001
47280732.000	-9.578750e-001	-2.851967e-001
47286726.000	-9.578547e-001	-2.851392e-001
47292720.000	-9.578880e-001	-2.850829e-001
47298714.000	-9.578688e-001	-2.850440e-001
47304708.000	-9.578992e-001	-2.850690e-001
47310702.000	-9.578859e-001	-2.850212e-001
47316696.000	-9.579204e-001	-2.849569e-001
47322690.000	-9.578658e-001	-2.849322e-001
47328684.000	-9.579480e-001	-2.849080e-001
47334678.000	-9.579786e-001	-2.848589e-001
47340672.000	-9.578736e-001	-2.848462e-001
47346666.000	-9.579390e-001	-2.847836e-001
47352660.000	-9.579309e-001	-2.847418e-001
47358654.000	-9.579206e-001	-2.846623e-001
47364648.000	-9.580411e-001	-2.846711e-001
47370642.000	-9.579233e-001	-2.846187e-001
47376636.000	-9.579891e-001	-2.846229e-001
47382630.000	-9.579451e-001	-2.845744e-001
47388624.000	-9.579921e-001	-2.845199e-001
47394618.000	-9.579923e-001	-2.844933e-001
47400612.000	-9.580057e-001	-2.844205e-001
47406606.000	-9.580046e-001	-2.844185e-001
47412600.000	-9.580045e-001	-2.843923e-001
47418594.000	-9.580396e-001	-2.843753e-001
47424588.000	-9.580739e-001	-2.843400e-001
47430582.000	-9.580355e-001	-2.843193e-001
47436576.000	-9.580959e-001	-2.842629e-001
47442570.000	-9.581342e-001	-2.842253e-001
47448564.000	-9.581292e-001	-2.842314e-001
47454558.000	-9.580658e-001	-2.841844e-001
47460552.000	-9.581343e-001	-2.841191e-001
47466546.000	-9.580919e-001	-2.841607e-001
47472540.000	-9.581797e-001	-2.840515e-001
47478534.000	-9.581320e-001	-2.840426e-001
47484528.000	-9.581215e-001	-2.839851e-001
47490522.000	-9.581025e-001	-2.839619e-001
47496516.000	-9.581958e-001	-2.839642e-001
47502510.000	-9.581567e-001	-2.838533e-001
47508504.000	-9.581619e-001	-2.838902e-001
47514498.000	-9.582373e-001	-2.838885e-001
47520492.000	-9.582244e-001	-2.837809e-001
47526486.000	-9.582404e-001	-2.837451e-001
47532480.000	-9.582468e-001	-2.837384e-001
47538474.000	-9.582536e-001	-2.837185e-001
47544468.000	-9.582447e-001	-2.836345e-001
47550462.000	-9.582491e-001	-2.835953e-001
47556456.000	-9.582572e-001	-2.836087e-001
47562450.000	-9.582980e-001	-2.835592e-001
47568444.000	-9.583331e-001	-2.835665e-001
47574438.000	-9.582839e-001	-2.834968e-001
47580432.000	-9.583266e-001	-2.834341e-001
47586426.000	-9.583429e-001	-2.834328e-001
47592420.000	-9.583225e-001	-2.833685e-001
47598414.000	-9.583757e-001	-2.833920e-001
47604408.000	-9.583781e-001	-2.833184e-001
47610402.000	-9.583578e-001	-2.832930e-001
47616396.000	-9.584326e-001	-2.832455e-001
47622390.000	-9.583867e-001	-2.832116e-001
47628384.000	-9.584141e-001	-2.832047e-001
47634378.000	-9.584225e-001	-2.831067e-001
47640372.000	-9.584218e-001	-2.830902e-001
47646366.000	-9.584163e-001	-2.830608e-001
47652360.000	-9.583991e-001	-2.830476e-001
47658354.000	-9.584702e-001	-2.830165e-001
47664348.000	-9.584451e-001	-2.829689e-001
47670342.000	-9.584872e-001	-2.829445e-001
47676336.000	-9.584854e-001	-2.829549e-001
47682330.000	-9.584810e-001	-2.828459e-001
47688324.000	-9.585151e-001	-2.828587e-001
47694318.000	-9.585146e-001	-2.828041e-001
47700312.000	-9.585429e-001	-2.827427e-001
47706306.000	-9.584977e-001	-2.827545e-001
47712300.000	-9.585023e-001	-2.826699e-001
47718294.000	-9.585216e-001	-2.826730e-001
47724288.000	-9.585093e-001	-2.825846e-001
47730282.000	-9.585553e-001	-2.825945e-001
47736276.000	-9.585228e-001	-2.825797e-001
47742270.000	-9.585836e-001	-2.825114e-001
47748264.000	-9.586085e-001	-2.824798e-001
47754258.000	-9.586169e-001	-2.824948e-001
47760252.000	-9.585910e-001	-2.823966e-001
47766246.000	-9.586359e-001	-2.824339e-001
47772240.000	-9.585586e-001	-2.823684e-001
47778234.000	-9.586398e-001	-2.823561e-001
47784228.000	-9.586320e-001	-2.822693e-001
47790222.000	-9.586454e-001	-2.822684e-001
47796216.000	-9.586810e-001	-2.822330e-001
47802210.000	-9.587087e-001	-2.822530e-001
47808204.000	-9.586504e-001	-2.821141e-001
47814198.000	-9.586336e-001	-2.821372e-001
47820192.000	-9.586766e-001	-2.820756e-001
47826186.000	-9.587572e-001	-2.820626e-001
47832180.000	-9.586924e-001	-2.819877e-001
47838174.000	-9.587568e-001	-2.820371e-001
47844168.000	-9.587711e-001	-2.819959e-001
47850162.000	-9.587462e-001	-2.819296e-001
47856156.000	-9.587815e-001	-2.819058e-001
47862150.000	-9.588005e-001	-2.818329e-001
47868144.000	-9.587745e-001	-2.818163e-001
47874138.000	-9.587695e-001	-2.817679e-001
47880132.000	-9.587586e-001	-2.817548e-001
47886126.000	-9.588041e-001	-2.817250e-001
47892120.000	-9.587937e-001	-2.816662e-001
47898114.000	-9.588527e-001	-2.816526e-001
47904108.000	-9.588549e-001	-2.816403e-001
47910102.000	-9.588199e-001	-2.815698e-001
47916096.000	-9.588394e-001	-2.815820e-001
47922090.000	-9.588768e-001	-2.815274e-001
47928084.000	-9.588532e-001	-2.814779e-001
47934078.000	-9.588644e-001	-2.814494e-001
47940072.000	-9.589134e-001	-2.814369e-001
47946066.000	-9.589088e-001	-2.813837e-001
47952060.000	-9.588920e-001	-2.813550e-001
47958054.000	-9.589523e-001	-2.813245e-001
47964048.000	-9.589963e-001	-2.813084e-001
47970042.000	-9.589378e-001	-2.812243e-001
47976036.000	-9.590192e-001	-2.812242e-001
47982030.000	-9.589551e-001	-2.811942e-001
47988024.000	-9.589537e-001	-2.811434e-001
47994018.000	-9.589195e-001	-2.811454e-001
48000012.000	-9.589696e-001	-2.810168e-001
48006006.000	-9.589745e-001	-2.810905e-001
48012000.000	-9.589340e-001	-2.810245e-001
48017994.000	-9.589990e-001	-2.809585e-001
48023988.000	-9.590182e-001	-2.809155e-001
48029982.000	-9.590190e-001	-2.809136e-001
48035976.000	-9.590065e-001	-2.808726e-001
48041970.000	-9.590595e-001	-2.808598e-001
48047964.000	-9.590858e-001	-2.808689e-001
48053958.000	-9.591209e-001	-2.807991e-001
48059952.000	-9.590664e-001	-2.807887e-001
48065946.000	-9.591140e-001	-2.807254e-001
48071940.000	-9.591184e-001	-2.807279e-001
48077934.000	-9.591080e-001	-2.806905e-001
48083928.000	-9.590631e-001	-2.805767e-001
48089922.000	-9.591461e-001	-2.805823e-001
48095916.000	-9.591466e-001	-2.805234e-001
48101910.000	-9.590882e-001	-2.805271e-001
48107904.000	-9.591303e-001	-2.804802e-001
48113898.000	-9.591505e-001	-2.804408e-001
48119892.000	-9.591740e-001	-2.804282e-001
48125886.000	-9.591805e-001	-2.804392e-001
48131880.000	-9.591688e-001	-2.802998e-001
48137874.000	-9.591904e-001	-2.802850e-001
48143868.000	-9.591434e-001	-2.802395e-001
48149862.000	-9.592333e-001	-2.802026e-001
48155856.000	-9.592012e-001	-2.801654e-001
48161850.000	-9.592284e-001	-2.801746e-001
48167844.000	-9.592102e-001	-2.801429e-001
48173838.000	-9.592703e-001	-2.801063e-001
48179832.000	-9.592394e-001	-2.800712e-001
48185826.000	-9.592714e-001	-2.800574e-001
48191820.000	-9.593026e-001	-2.799854e-001
48197814.000	-9.593038e-001	-2.799949e-001
48203808.000	-9.592745e-001	-2.799090e-001
48209802.000	-9.593291e-001	-2.798894e-001
48215796.000	-9.593312e-001	-2.798952e-001
48221790.000	-9.592787e-001	-2.798576e-001
48227784.000	-9.594271e-001	-2.797922e-001
48233778.000	-9.593568e-001	-2.797511e-001
48239772.000	-9.593874e-001	-2.797279e-001
48245766.000	-9.593555e-001	-2.797214e-001
48251760.000	-9.593836e-001	-2.796455e-001
48257754.000	-9.593486e-001	-2.796210e-001
48263748.000	-9.593477e-001	-2.795758e-001
48269742.000	-9.593885e-001	-2.795372e-001
48275736.000	-9.594214e-001	-2.795391e-001
48281730.000	-9.593831e-001	-2.795356e-001
48287724.000	-9.594188e-001	-2.795403e-001
48293718.000	-9.594103e-001	-2.794282e-001
48299712.000	-9.594723e-001	-2.793758e-001
48305706.000	-9.594454e-001	-2.793962e-001
48311700.000	-9.594260e-001	-2.793469e-001
48317694.000	-9.594292e-001	-2.793258e-001
48323688.000	-9.594769e-001	-2.792496e-001
48329682.000	-9.594905e-001	-2.792904e-001
48335676.000	-9.595157e-001	-2.791844e-001
48341670.000	-9.595229e-001	-2.791869e-001
48347664.000	-9.595190e-001	-2.791708e-001
48353658.000	-9.595349e-001	-2.791570e-001
48359652.000	-9.595452e-001	-2.790592e-001
48365646.000	-9.595687e-001	-2.790571e-001
48371640.000	-9.595239e-001	-2.790142e-001
48377634.000	-9.595733e-001	-2.789887e-001
48383628.000	-9.595715e-001	-2.789964e-001
48389622.000	-9.595965e-001	-2.788818e-001
48395616.000	-9.595605e-001	-2.788659e-001
48401610.000	-9.596275e-001	-2.788175e-001
48407604.000	-9.596313e-001	-2.788314e-001
48413598.000	-9.596295e-001	-2.787883e-001
48419592.000	-9.596577e-001	-2.787682e-001
48425586.000	-9.596255e-001	-2.787063e-001
48431580.000	-9.596451e-001	-2.786605e-001
48437574.000	-9.596488e-001	-2.786134e-001
48443568.000	-9.595773e-001	-2.785744e-001
48449562.000	-9.596910e-001	-2.786163e-001
48455556.000	-9.597063e-001	-2.785365e-001
48461550.000	-9.596861e-001	-2.784935e-001
48467544.000	-9.596552e-001	-2.784663e-001
48473538.000	-9.597013e-001	-2.784541e-001
48479532.000	-9.597724e-001	-2.784463e-001
48485526.000	-9.597451e-001	-2.783549e-001
48491520.000	-9.597502e-001	-2.783278e-001
48497514.000	-9.597657e-001	-2.782797e-001
48503508.000	-9.597270e-001	-2.782347e-001
48509502.000	-9.597771e-001	-2.782415e-001
48515496.000	-9.597947e-001	-2.781778e-001
48521490.000	-9.597658e-001	-2.781632e-001
48527484.000	-9.597670e-001	-2.781482e-001
48533478.000	-9.597953e-001	-2.780976e-001
48539472.000	-9.598135e-001	-2.780911e-001
48545466.000	-9.598676e-001	-2.780766e-001
48551460.000	-9.598363e-001	-2.780325e-001
48557454.000	-9.598305e-001	-2.780043e-001
48563448.000	-9.598563e-001	-2.779477e-001
48569442.000	-9.598780e-001	-2.779341e-001
48575436.000	-9.598911e-001	-2.778990e-001
48581430.000	-9.599365e-001	-2.778671e-001
48587424.000	-9.599008e-001	-2.778421e-001
48593418.000	-9.598907e-001	-2.777909e-001
48599412.000	-9.599110e-001	-2.777398e-001
48605406.000	-9.599208e-001	-2.776978e-001
48611400.000	-9.599354e-001	-2.776908e-001
48617394.000	-9.599151e-001	-2.776944e-001
48623388.000	-9.599593e-001	-2.776504e-001
48629382.000	-9.599921e-001	-2.776355e-001
48635376.000	-9.600201e-001	-2.775635e-001
48641370.000	-9.599360e-001	-2.775226e-001
48647364.000	-9.599818e-001	-2.774757e-001
48653358.000	-9.600016e-001	-2.774929e-001
48659352.000	-9.599955e-001	-2.774453e-001
48665346.000	-9.600371e-001	-2.774004e-001
48671340.000	-9.599677e-001	-2.773312e-001
48677334.000	-9.600646e-001	-2.773448e-001
48683328.000	-9.600060e-001	-2.773258e-001
48689322.000	-9.600676e-001	-2.772796e-001
48695316.000	-9.600615e-001	-2.772380e-001
48701310.000	-9.600872e-001	-2.772422e-001
48707304.000	-9.600866e-001	-2.771682e-001
48713298.000	-9.600862e-001	-2.770963e-001
48719292.000	-9.600461e-001	-2.771007e-001
48725286.000	-9.601111e-001	-2.770770e-001
48731280.000	-9.600677e-001	-2.770028e-001
48737274.000	-9.600837e-001	-2.770112e-001
48743268.000	-9.601179e-001	-2.769785e-001
48749262.000	-9.601546e-001	-2.769657e-001
48755256.000	-9.601315e-001	-2.769084e-001
48761250.000	-9.601620e-001	-2.769307e-001
48767244.000	-9.601611e-001	-2.768498e-001
48773238.000	-9.601708e-001	-2.768139e-001
48779232.000	-9.601572e-001	-2.767812e-001
48785226.000	-9.601697e-001	-2.767408e-001
48791220.000	-9.602493e-001	-2.766991e-001
48797214.000	-9.602148e-001	-2.766747e-001
48803208.000	-9.602276e-001	-2.766301e-001
48809202.000	-9.602344e-001	-2.766192e-001
48815196.000	-9.601958e-001	-2.765793e-001
48821190.000	-9.601497e-001	-2.765432e-001
48827184.000	-9.602994e-001	-2.764890e-001
48833178.000	-9.602646e-001	-2.764917e-001
48839172.000	-9.602806e-001	-2.764724e-001
48845166.000	-9.602953e-001	-2.764347e-001
48851160.000	-9.603493e-001	-2.763898e-001
48857154.000	-9.603183e-001	-2.763780e-001
48863148.000	-9.602664e-001	-2.762592e-001
48869142.000	-9.602995e-001	-2.762374e-001
48875136.000	-9.602608e-001	-2.762015e-001
48881130.000	-9.602873e-001	-2.761516e-001
48887124.000	-9.603246e-001	-2.761337e-001
48893118.000	-9.603885e-001	-2.761069e-001
48899112.000	-9.603151e-001	-2.761388e-001
48905106.000	-9.603660e-001	-2.760976e-001
48911100.000	-9.603326e-001	-2.760462e-001
48917094.000	-9.603470e-001	-2.760014e-001
48923088.000	-9.603519e-001	-2.759822e-001
48929082.000	-9.603976e-001	-2.759225e-001
48935076.000	-9.604298e-001	-2.759058e-001
48941070.000	-9.603787e-001	-2.758487e-001
48947064.000	-9.604166e-001	-2.758280e-001
48953058.000	-9.604289e-001	-2.758121e-001
48959052.000	-9.604262e-001	-2.757397e-001
48965046.000	-9.604894e-001	-2.757409e-001
48971040.000	-9.604623e-001	-2.757209e-001
48977034.000	-9.605270e-001	-2.757322e-001
48983028.000	-9.604886e-001	-2.756193e-001
48989022.000	-9.604755e-001	-2.756250e-001
48995016.000	-9.604901e-001	-2.755856e-001
49001010.000	-9.605691e-001	-2.756564e-001
49007004.000	-9.605216e-001	-2.755272e-001
49012998.000	-9.605519e-001	-2.754993e-001
49018992.000	-9.605476e-001	-2.754628e-001
49024986.000	-9.605589e-001	-2.754561e-001
49030980.000	-9.605898e-001	-2.754724e-001
49036974.000	-9.606201e-001	-2.753706e-001
49042968.000	-9.605508e-001	-2.752912e-001
49048962.000	-9.605871e-001	-2.752896e-001
49054956.000	-9.605713e-001	-2.752466e-001
49060950.000	-9.606122e-001	-2.752593e-001
49066944.000	-9.605807e-001	-2.752051e-001
49072938.000	-9.606568e-001	-2.751460e-001
49078932.000	-9.606422e-001	-2.751212e-001
49084926.000	-9.606991e-001	-2.750836e-001
49090920.000	-9.606615e-001	-2.750715e-001
49096914.000	-9.607110e-001	-2.750817e-001
49102908.000	-9.606332e-001	-2.749987e-001
49108902.000	-9.606963e-001	-2.750056e-001
49114896.000	-9.607056e-001	-2.749486e-001
49120890.000	-9.606850e-001	-2.748926e-001
49126884.000	-9.606830e-001	-2.748524e-001
49132878.000	-9.606796e-001	-2.748413e-001
49138872.000	-9.607208e-001	-2.747906e-001
49144866.000	-9.606883e-001	-2.747580e-001
49150860.000	-9.607452e-001	-2.747414e-001
49156854.000	-9.607515e-001	-2.746792e-001
49162848.000	-9.607478e-001	-2.746787e-001
49168842.000	-9.607971e-001	-2.746793e-001
49174836.000	-9.607494e-001	-2.746394e-001
49180830.000	-9.607628e-001	-2.745805e-001
49186824.000	-9.607569e-001	-2.745662e-001
49192818.000	-9.607852e-001	-2.744946e-001
49198812.000	-9.608187e-001	-2.745167e-001
49204806.000	-9.608045e-001	-2.744522e-001
49210800.000	-9.608554e-001	-2.743852e-001
49216794.000	-9.608475e-001	-2.744049e-001
49222788.000	-9.608334e-001	-2.743677e-001
49228782.000	-9.608785e-001	-2.743412e-001
49234776.000	-9.608847e-001	-2.743219e-001
49240770.000	-9.608552e-001	-2.742548e-001
49246764.000	-9.608876e-001	-2.743063e-001
49252758.000	-9.608939e-001	-2.742201e-001
49258752.000	-9.609060e-001	-2.741697e-001
49264746.000	-9.608871e-001	-2.741374e-001
49270740.000	-9.609756e-001	-2.741212e-001
49276734.000	-9.608888e-001	-2.740922e-001
49282728.000	-9.609442e-001	-2.740375e-001
49288722.000	-9.609477e-001	-2.740123e-001
49294716.000	-9.609178e-001	-2.739899e-001
49300710.000	-9.609394e-001	-2.739048e-001
49306704.000	-9.609459e-001	-2.739035e-001
49312698.000	-9.610078e-001	-2.738954e-001
49318692.000	-9.610110e-001	-2.738942e-001
49324686.000	-9.609877e-001	-2.738410e-001
49330680.000	-9.610291e-001	-2.738121e-001
49336674.000	-9.610467e-001	-2.737900e-001
49342668.000	-9.610635e-001	-2.737182e-001
49348662.000	-9.610619e-001	-2.737141e-001
49354656.000	-9.610719e-001	-2.736821e-001
49360650.000	-9.610718e-001	-2.736522e-001
49366644.000	-9.610621e-001	-2.735682e-001
49372638.000	-9.610573e-001	-2.735798e-001
49378632.000	-9.610973e-001	-2.735715e-001
49384626.000	-9.611225e-001	-2.735318e-001
49390620.000	-9.611157e-001	-2.734374e-001
49396614.000	-9.610818e-001	-2.734352e-001
49402608.000	-9.610795e-001	-2.734023e-001
49408602.000	-9.611415e-001	-2.733706e-001
49414596.000	-9.611438e-001	-2.733347e-001
49420590.000	-9.611238e-001	-2.733188e-001
49426584.000	-9.611501e-001	-2.732962e-001
49432578.000	-9.611924e-001	-2.732597e-001
49438572.000	-9.611555e-001	-2.732410e-001
49444566.000	-9.611812e-001	-2.732337e-001
49450560.000	-9.611402e-001	-2.731368e-001
49456554.000	-9.612038e-001	-2.731202e-001
49462548.000	-9.612536e-001	-2.730696e-001
49468542.000	-9.611977e-001	-2.730303e-001
49474536.000	-9.612359e-001	-2.730260e-001
49480530.000	-9.612231e-001	-2.729644e-001
49486524.000	-9.612051e-001	-2.729480e-001
49492518.000	-9.611417e-001	-2.728442e-001
49498512.000	-9.612501e-001	-2.728975e-001
49504506.000	-9.612834e-001	-2.728670e-001
49510500.000	-9.612908e-001	-2.728276e-001
49516494.000	-9.612666e-001	-2.727396e-001
49522488.000	-9.612747e-001	-2.728016e-001
49528482.000	-9.612699e-001	-2.726746e-001
49534476.000	-9.612938e-001	-2.727032e-001
49540470.000	-9.612963e-001	-2.726622e-001
49546464.000	-9.613385e-001	-2.726752e-001
49552458.000	-9.613022e-001	-2.726561e-001
49558452.000	-9.613442e-001	-2.725660e-001
49564446.000	-9.613825e-001	-2.725792e-001
49570440.000	-9.613607e-001	-2.725572e-001
49576434.000	-9.613793e-001	-2.724750e-001
49582428.000	-9.613616e-001	-2.724039e-001
49588422.000	-9.613846e-001	-2.724341e-001
49594416.000	-9.613558e-001	-2.724047e-001
49600410.000	-9.613882e-001	-2.723773e-001
49606404.000	-9.613867e-001	-2.723041e-001
49612398.000	-9.613734e-001	-2.723309e-001
49618392.000	-9.614034e-001	-2.722486e-001
49624386.000	-9.614161e-001	-2.722077e-001
49630380.000	-9.614379e-001	-2.721935e-001
49636374.000	-9.614536e-001	-2.721969e-001
49642368.000	-9.614230e-001	-2.721249e-001
49648362.000	-9.614239e-001	-2.721159e-001
49654356.000	-9.614941e-001	-2.720484e-001
49660350.000	-9.614810e-001	-2.720388e-001
49666344.000	-9.614569e-001	-2.719816e-001
49672338.000	-9.615057e-001	-2.719779e-001
49678332.000	-9.615325e-001	-2.719638e-001
49684326.000	-9.615209e-001	-2.719012e-001
49690320.000	-9.615547e-001	-2.718490e-001
49696314.000	-9.615557e-001	-2.718779e-001
49702308.000	-9.615333e-001	-2.718510e-001
49708302.000	-9.615984e-001	-2.718176e-001
49714296.000	-9.615067e-001	-2.716985e-001
49720290.000	-9.615896e-001	-2.717192e-001
49726284.000	-9.615140e-001	-2.716521e-001
49732278.000	-9.616242e-001	-2.716560e-001
49738272.000	-9.615973e-001	-2.716412e-001
49744266.000	-9.616110e-001	-2.715832e-001
49750260.000	-9.616458e-001	-2.715410e-001
49756254.000	-9.616223e-001	-2.715307e-001
49762248.000	-9.616513e-001	-2.715259e-001
49768242.000	-9.616555e-001	-2.715225e-001
49774236.000	-9.616802e-001	-2.714299e-001
49780230.000	-9.616824e-001	-2.714548e-001
49786224.000	-9.616974e-001	-2.714007e-001
49792218.000	-9.616527e-001	-2.713413e-001
49798212.000	-9.617227e-001	-2.713167e-001
49804206.000	-9.617155e-001	-2.712877e-001
49810200.000	-9.617243e-001	-2.712407e-001
49816194.000	-9.617334e-001	-2.711927e-001
49822188.000	-9.617302e-001	-2.712216e-001
49828182.000	-9.617387e-001	-2.711825e-001
49834176.000	-9.617115e-001	-2.711098e-001
49840170.000	-9.616944e-001	-2.711495e-001
49846164.000	-9.617792e-001	-2.710600e-001
49852158.000	-9.617809e-001	-2.710390e-001
49858152.000	-9.617409e-001	-2.710090e-001
49864146.000	-9.617735e-001	-2.709738e-001
49870140.000	-9.617204e-001	-2.709153e-001
49876134.000	-9.618429e-001	-2.709348e-001
49882128.000	-9.617918e-001	-2.708837e-001
49888122.000	-9.618493e-001	-2.708963e-001
49894116.000	-9.617858e-001	-2.708530e-001
49900110.000	-9.618644e-001	-2.708243e-001
49906104.000	-9.618475e-001	-2.707873e-001
49912098.000	-9.618250e-001	-2.707355e-001
49918092.000	-9.618360e-001	-2.706835e-001
49924086.000	-9.618816e-001	-2.706421e-001
49930080.000	-9.618520e-001	-2.706515e-001
49936074.000	-9.619185e-001	-2.706413e-001
49942068.000	-9.618676e-001	-2.705840e-001
49948062.000	-9.618954e-001	-2.705355e-001
49954056.000	-9.618850e-001	-2.705237e-001
49960050.000	-9.619102e-001	-2.704769e-001
49966044.000	-9.619066e-001	-2.704692e-001
49972038.000	-9.619727e-001	-2.703750e-001
49978032.000	-9.618828e-001	-2.703563e-001
49984026.000	-9.619880e-001	-2.703787e-001
49990020.000	-9.619357e-001	-2.703215e-001
49996014.000	-9.618968e-001	-2.702362e-001
50002008.000	-9.619301e-001	-2.702059e-001
50008002.000	-9.619092e-001	-2.702192e-001
50013996.000	-9.619132e-001	-2.701541e-001
50019990.000	-9.619941e-001	-2.701098e-001
50025984.000	-9.619834e-001	-2.700989e-001
50031978.000	-9.619465e-001	-2.700935e-001
50037972.000	-9.619705e-001	-2.700286e-001
50043966.000	-9.619603e-001	-2.700252e-001
50049960.000	-9.619996e-001	-2.699939e-001
50055954.000	-9.619848e-001	-2.699224e-001
50061948.000	-9.620104e-001	-2.699233e-001
50067942.000	-9.620474e-001	-2.699297e-001
50073936.000	-9.620455e-001	-2.698599e-001
50079930.000	-9.620557e-001	-2.697893e-001
50085924.000	-9.620315e-001	-2.697991e-001
50091918.000	-9.620550e-001	-2.697369e-001
50097912.000	-9.620443e-001	-2.697315e-001
50103906.000	-9.620781e-001	-2.696980e-001
50109900.000	-9.620866e-001	-2.696684e-001
50115894.000	-9.621117e-001	-2.696248e-001
50121888.000	-9.621275e-001	-2.696066e-001
50127882.000	-9.620803e-001	-2.696064e-001
50133876.000	-9.621307e-001	-2.695009e-001
50139870.000	-9.621547e-001	-2.694898e-001
50145864.000	-9.621465e-001	-2.695322e-001
50151858.000	-9.621475e-001	-2.694136e-001
50157852.000	-9.621924e-001	-2.694269e-001
50163846.000	-9.621447e-001	-2.694247e-001
50169840.000	-9.621466e-001	-2.693677e-001
50175834.000	-9.621631e-001	-2.693342e-001
50181828.000	-9.622670e-001	-2.692980e-001
50187822.000	-9.622296e-001	-2.692676e-001
50193816.000	-9.622188e-001	-2.692546e-001
50199810.000	-9.622522e-001	-2.692436e-001
50205804.000	-9.622194e-001	-2.691563e-001
50211798.000	-9.622673e-001	-2.691424e-001
50217792.000	-9.622483e-001	-2.691126e-001
50223786.000	-9.621952e-001	-2.690800e-001
50229780.000	-9.622414e-001	-2.690735e-001
50235774.000	-9.622691e-001	-2.690127e-001
50241768.000	-9.622726e-001	-2.689434e-001
50247762.000	-9.622461e-001	-2.688961e-001
50253756.000	-9.622854e-001	-2.689068e-001
50259750.000	-9.622742e-001	-2.688682e-001
50265744.000	-9.622831e-001	-2.688318e-001
50271738.000	-9.622435e-001	-2.688276e-001
50277732.000	-9.623288e-001	-2.688036e-001
50283726.000	-9.623448e-001	-2.687948e-001
50289720.000	-9.623498e-001	-2.687168e-001
50295714.000	-9.623295e-001	-2.686344e-001
50301708.000	-9.623416e-001	-2.686558e-001
50307702.000	-9.622979e-001	-2.685948e-001
50313696.000	-9.623304e-001	-2.685412e-001
50319690.000	-9.623333e-001	-2.685656e-001
50325684.000	-9.623506e-001	-2.685966e-001
50331678.000	-9.623929e-001	-2.685384e-001
50337672.000	-9.623758e-001	-2.684974e-001
50343666.000	-9.623677e-001	-2.684132e-001
50349660.000	-9.623888e-001	-2.684229e-001
50355654.000	-9.623782e-001	-2.683684e-001
50361648.000	-9.624371e-001	-2.683434e-001
50367642.000	-9.624182e-001	-2.683072e-001
50373636.000	-9.624174e-001	-2.683017e-001
50379630.000	-9.624198e-001	-2.682224e-001
50385624.000	-9.623927e-001	-2.681735e-001
50391618.000	-9.624074e-001	-2.681380e-001
50397612.000	-9.624556e-001	-2.681673e-001
50403606.000	-9.624260e-001	-2.681240e-001
50409600.000	-9.624456e-001	-2.680723e-001
50415594.000	-9.624275e-001	-2.680409e-001
50421588.000	-9.624745e-001	-2.680022e-001
50427582.000	-9.624624e-001	-2.679679e-001
50433576.000	-9.624628e-001	-2.679794e-001
50439570.000	-9.624734e-001	-2.678995e-001
50445564.000	-9.625328e-001	-2.679089e-001
50451558.000	-9.624504e-001	-2.678819e-001
50457552.000	-9.625479e-001	-2.678819e-001
50463546.000	-9.624912e-001	-2.678464e-001
50469540.000	-9.625565e-001	-2.677927e-001
50475534.000	-9.625219e-001	-2.678146e-001
50481528.000	-9.625810e-001	-2.677277e-001
50487522.000	-9.625642e-001	-2.677218e-001
50493516.000	-9.625320e-001	-2.676736e-001
50499510.000	-9.625510e-001	-2.676213e-001
50505504.000	-9.625339e-001	-2.675348e-001
50511498.000	-9.625845e-001	-2.675406e-001
50517492.000	-9.625767e-001	-2.675609e-001
50523486.000	-9.625809e-001	-2.674980e-001
50529480.000	-9.626310e-001	-2.674869e-001
50535474.000	-9.626075e-001	-2.674686e-001
50541468.000	-9.626287e-001	-2.674063e-001
50547462.000	-9.626269e-001	-2.674112e-001
50553456.000	-9.626947e-001	-2.673792e-001
50559450.000	-9.627035e-001	-2.673419e-001
50565444.000	-9.626565e-001	-2.672937e-001
50571438.000	-9.626762e-001	-2.672430e-001
50577432.000	-9.626584e-001	-2.672301e-001
50583426.000	-9.626479e-001	-2.671886e-001
50589420.000	-9.626996e-001	-2.671840e-001
50595414.000	-9.626609e-001	-2.671473e-001
50601408.000	-9.627025e-001	-2.671317e-001
50607402.000	-9.627114e-001	-2.670695e-001
50613396.000	-9.627216e-001	-2.670318e-001
50619390.000	-9.627107e-001	-2.670256e-001
50625384.000	-9.627031e-001	-2.669560e-001
50631378.000	-9.627560e-001	-2.670040e-001
50637372.000	-9.627705e-001	-2.669602e-001
50643366.000	-9.627483e-001	-2.669408e-001
50649360.000	-9.627546e-001	-2.668945e-001
50655354.000	-9.627911e-001	-2.668713e-001
50661348.000	-9.627995e-001	-2.668178e-001
50667342.000	-9.627714e-001	-2.667677e-001
50673336.000	-9.628323e-001	-2.667247e-001
50679330.000	-9.627858e-001	-2.667018e-001
50685324.000	-9.628388e-001	-2.666517e-001
50691318.000	-9.628156e-001	-2.666727e-001
50697312.000	-9.628513e-001	-2.665731e-001
50703306.000	-9.628237e-001	-2.665563e-001
50709300.000	-9.628547e-001	-2.666030e-001
50715294.000	-9.628536e-001	-2.665998e-001
50721288.000	-9.629189e-001	-2.665311e-001
50727282.000	-9.628391e-001	-2.664927e-001
50733276.000	-9.628200e-001	-2.664270e-001
50739270.000	-9.628646e-001	-2.663967e-001
50745264.000	-9.628918e-001	-2.663903e-001
50751258.000	-9.628763e-001	-2.663678e-001
50757252.000	-9.628762e-001	-2.663103e-001
50763246.000	-9.629116e-001	-2.663332e-001
50769240.000	-9.629132e-001	-2.662497e-001
50775234.000	-9.629268e-001	-2.662698e-001
50781228.000	-9.629495e-001	-2.661939e-001
50787222.000	-9.630145e-001	-2.661635e-001
50793216.000	-9.629102e-001	-2.661440e-001
50799210.000	-9.629311e-001	-2.661113e-001
50805204.000	-9.630133e-001	-2.660803e-001
50811198.000	-9.629287e-001	-2.660176e-001
50817192.000	-9.630189e-001	-2.660352e-001
50823186.000	-9.629809e-001	-2.659970e-001
50829180.000	-9.629685e-001	-2.659450e-001
50835174.000	-9.630088e-001	-2.659109e-001
50841168.000	-9.630023e-001	-2.658505e-001
50847162.000	-9.629988e-001	-2.658690e-001
50853156.000	-9.629870e-001	-2.657889e-001
50859150.000	-9.630364e-001	-2.657701e-001
50865144.000	-9.629771e-001	-2.657540e-001
50871138.000	-9.630763e-001	-2.658007e-001
50877132.000	-9.630627e-001	-2.657252e-001
50883126.000	-9.630590e-001	-2.657189e-001
50889120.000	-9.630698e-001	-2.656473e-001
50895114.000	-9.630902e-001	-2.656138e-001
50901108.000	-9.630505e-001	-2.655925e-001
50907102.000	-9.630488e-001	-2.655252e-001
50913096.000	-9.631026e-001	-2.655416e-001
50919090.000	-9.631078e-001	-2.654707e-001
50925084.000	-9.631232e-001	-2.654542e-001
50931078.000	-9.630920e-001	-2.654721e-001
50937072.000	-9.631361e-001	-2.654055e-001
50943066.000	-9.631218e-001	-2.653414e-001
50949060.000	-9.631141e-001	-2.653391e-001
50955054.000	-9.631229e-001	-2.653033e-001
50961048.000	-9.631190e-001	-2.653057e-001
50967042.000	-9.631886e-001	-2.652976e-001
50973036.000	-9.631886e-001	-2.652481e-001
50979030.000	-9.631275e-001	-2.651435e-001
50985024.000	-9.631288e-001	-2.651637e-001
50991018.000	-9.631105e-001	-2.651227e-001
50997012.000	-9.631651e-001	-2.651293e-001
51003006.000	-9.631943e-001	-2.650685e-001
51009000.000	-9.631972e-001	-2.650651e-001
51014994.000	-9.631882e-001	-2.650203e-001
51020988.000	-9.631943e-001	-2.649806e-001
51026982.000	-9.632040e-001	-2.649179e-001
51032976.000	-9.632598e-001	-2.649489e-001
51038970.000	-9.632573e-001	-2.648816e-001
51044964.000	-9.632713e-001	-2.648760e-001
51050958.000	-9.632617e-001	-2.648081e-001
51056952.000	-9.632652e-001	-2.648024e-001
51062946.000	-9.632618e-001	-2.647838e-001
51068940.000	-9.632875e-001	-2.648123e-001
51074934.000	-9.633029e-001	-2.646408e-001
51080928.000	-9.633146e-001	-2.647340e-001
51086922.000	-9.633182e-001	-2.646686e-001
51092916.000	-9.633659e-001	-2.645831e-001
51098910.000	-9.632646e-001	-2.646222e-001
51104904.000	-9.633211e-001	-2.645182e-001
51110898.000	-9.633316e-001	-2.645497e-001
51116892.000	-9.633485e-001	-2.645180e-001
51122886.000	-9.633637e-001	-2.644952e-001
51128880.000	-9.633620e-001	-2.644278e-001
51134874.000	-9.633840e-001	-2.644334e-001
51140868.000	-9.633246e-001	-2.644215e-001
51146862.000	-9.633480e-001	-2.643650e-001
51152856.000	-9.634130e-001	-2.643333e-001
51158850.000	-9.634171e-001	-2.642905e-001
51164844.000	-9.633780e-001	-2.642958e-001
51170838.000	-9.633920e-001	-2.642050e-001
51176832.000	-9.634157e-001	-2.641960e-001
51182826.000	-9.633886e-001	-2.641615e-001
51188820.000	-9.633683e-001	-2.641395e-001
51194814.000	-9.634640e-001	-2.641676e-001
51200808.000	-9.634254e-001	-2.641095e-001
51206802.000	-9.634166e-001	-2.640361e-001
51212796.000	-9.634187e-001	-2.640528e-001
51218790.000	-9.634827e-001	-2.639784e-001
51224784.000	-9.634733e-001	-2.640235e-001
51230778.000	-9.635373e-001	-2.639420e-001
51236772.000	-9.634859e-001	-2.639441e-001
51242766.000	-9.635020e-001	-2.638688e-001
51248760.000	-9.635472e-001	-2.639079e-001
51254754.000	-9.634788e-001	-2.638184e-001
51260748.000	-9.635686e-001	-2.638102e-001
51266742.000	-9.635286e-001	-2.637560e-001
51272736.000	-9.635480e-001	-2.637324e-001
51278730.000	-9.635452e-001	-2.637031e-001
51284724.000	-9.636104e-001	-2.636675e-001
51290718.000	-9.635924e-001	-2.636723e-001
51296712.000	-9.635939e-001	-2.636187e-001
51302706.000	-9.635951e-001	-2.636405e-001
51308700.000	-9.636094e-001	-2.636004e-001
51314694.000	-9.636453e-001	-2.635713e-001
51320688.000	-9.635820e-001	-2.634767e-001
51326682.000	-9.635954e-001	-2.635195e-001
51332676.000	-9.636068e-001	-2.634455e-001
51338670.000	-9.636480e-001	-2.634256e-001
51344664.000	-9.636572e-001	-2.633725e-001
51350658.000	-9.635996e-001	-2.634062e-001
51356652.000	-9.636609e-001	-2.633540e-001
51362646.000	-9.636532e-001	-2.633007e-001
51368640.000	-9.636624e-001	-2.632816e-001
51374634.000	-9.636847e-001	-2.632176e-001
51380628.000	-9.636710e-001	-2.631605e-001
51386622.000	-9.636770e-001	-2.631629e-001
51392616.000	-9.636534e-001	-2.631387e-001
51398610.000	-9.636143e-001	-2.631492e-001
51404604.000	-9.636626e-001	-2.630494e-001
51410598.000	-9.637158e-001	-2.630564e-001
51416592.000	-9.636724e-001	-2.630455e-001
51422586.000	-9.637316e-001	-2.629828e-001
51428580.000	-9.636697e-001	-2.630336e-001
51434574.000	-9.637509e-001	-2.629795e-001
51440568.000	-9.637657e-001	-2.629060e-001
51446562.000	-9.637037e-001	-2.628573e-001
51452556.000	-9.638040e-001	-2.628521e-001
51458550.000	-9.637688e-001	-2.627909e-001
51464544.000	-9.637987e-001	-2.627968e-001
51470538.000	-9.637548e-001	-2.627243e-001
51476532.000	-9.638272e-001	-2.627886e-001
51482526.000	-9.638314e-001	-2.627187e-001
51488520.000	-9.637791e-001	-2.626603e-001
51494514.000	-9.638624e-001	-2.626472e-001
51500508.000	-9.638319e-001	-2.626713e-001
51506502.000	-9.638911e-001	-2.626135e-001
51512496.000	-9.638826e-001	-2.625292e-001
51518490.000	-9.638370e-001	-2.625584e-001
51524484.000	-9.638388e-001	-2.624842e-001
51530478.000	-9.638744e-001	-2.625021e-001
51536472.000	-9.639368e-001	-2.624805e-001
51542466.000	-9.638809e-001	-2.624067e-001
51548460.000	-9.638551e-001	-2.623461e-001
51554454.000	-9.639130e-001	-2.623769e-001
51560448.000	-9.638190e-001	-2.622872e-001
51566442.000	-9.638901e-001	-2.623144e-001
51572436.000	-9.639232e-001	-2.622848e-001
51578430.000	-9.638927e-001	-2.622090e-001
51584424.000	-9.639000e-001	-2.622160e-001
51590418.000	-9.639288e-001	-2.621579e-001
51596412.000	-9.639484e-001	-2.621585e-001
51602406.000	-9.639488e-001	-2.621057e-001
51608400.000	-9.639135e-001	-2.620955e-001
51614394.000	-9.639833e-001	-2.620082e-001
51620388.000	-9.639920e-001	-2.620516e-001
51626382.000	-9.640227e-001	-2.619989e-001
51632376.000	-9.639889e-001	-2.619441e-001
51638370.000	-9.639882e-001	-2.619558e-001
51644364.000	-9.640091e-001	-2.619333e-001
51650358.000	-9.640211e-001	-2.618604e-001
51656352.000	-9.640211e-001	-2.618880e-001
51662346.000	-9.640467e-001	-2.618117e-001
51668340.000	-9.640273e-001	-2.617759e-001
51674334.000	-9.640492e-001	-2.617704e-001
51680328.000	-9.640496e-001	-2.617539e-001
51686322.000	-9.640878e-001	-2.617332e-001
51692316.000	-9.640425e-001	-2.616539e-001
51698310.000	-9.640970e-001	-2.616553e-001
51704304.000	-9.640389e-001	-2.615831e-001
51710298.000	-9.640330e-001	-2.616248e-001
51716292.000	-9.641026e-001	-2.615363e-001
51722286.000	-9.641282e-001	-2.615084e-001
51728280.000	-9.641498e-001	-2.615391e-001
51734274.000	-9.640997e-001	-2.614468e-001
51740268.000	-9.641376e-001	-2.614543e-001
51746262.000	-9.641215e-001	-2.614092e-001
51752256.000	-9.641446e-001	-2.613851e-001
51758250.000	-9.641202e-001	-2.613389e-001
51764244.000	-9.641273e-001	-2.613225e-001
51770238.000	-9.641836e-001	-2.613312e-001
51776232.000	-9.641509e-001	-2.612752e-001
51782226.000	-9.641843e-001	-2.611900e-001
51788220.000	-9.642199e-001	-2.611561e-001
51794214.000	-9.642168e-001	-2.611824e-001
51800208.000	-9.641891e-001	-2.611332e-001
51806202.000	-9.642156e-001	-2.611412e-001
51812196.000	-9.642230e-001	-2.610874e-001
51818190.000	-9.642665e-001	-2.610795e-001
51824184.000	-9.641894e-001	-2.609854e-001
51830178.000	-9.642226e-001	-2.610096e-001
51836172.000	-9.641972e-001	-2.609627e-001
51842166.000	-9.642573e-001	-2.609067e-001
51848160.000	-9.642581e-001	-2.608937e-001
51854154.000	-9.642320e-001	-2.608898e-001
51860148.000	-9.642103e-001	-2.608705e-001
51866142.000	-9.642501e-001	-2.608222e-001
51872136.000	-9.642743e-001	-2.608012e-001
51878130.000	-9.643137e-001	-2.607951e-001
51884124.000	-9.643055e-001	-2.607440e-001
51890118.000	-9.642910e-001	-2.607030e-001
51896112.000	-9.643102e-001	-2.606727e-001
51902106.000	-9.642667e-001	-2.606713e-001
51908100.000	-9.643150e-001	-2.606249e-001
51914094.000	-9.643344e-001	-2.605865e-001
51920088.000	-9.643288e-001	-2.605956e-001
51926082.000	-9.643533e-001	-2.605569e-001
51932076.000	-9.643420e-001	-2.604863e-001
51938070.000	-9.643708e-001	-2.604749e-001
51944064.000	-9.643644e-001	-2.604754e-001
51950058.000	-9.644163e-001	-2.604265e-001
51956052.000	-9.643769e-001	-2.604115e-001
51962046.000	-9.644398e-001	-2.603478e-001
51968040.000	-9.643900e-001	-2.603077e-001
51974034.000	-9.643807e-001	-2.603699e-001
51980028.000	-9.643989e-001	-2.602816e-001
51986022.000	-9.644078e-001	-2.602082e-001
51992016.000	-9.644157e-001	-2.601897e-001
51998010.000	-9.644340e-001	-2.601878e-001
52004004.000	-9.644887e-001	-2.601875e-001
52009998.000	-9.644138e-001	-2.601585e-001
52015992.000	-9.644538e-001	-2.600870e-001
52021986.000	-9.644325e-001	-2.600516e-001
52027980.000	-9.644378e-001	-2.601181e-001
52033974.000	-9.645016e-001	-2.600423e-001
52039968.000	-9.645125e-001	-2.600058e-001
52045962.000	-9.644606e-001	-2.599951e-001
52051956.000	-9.645340e-001	-2.599322e-001
52057950.000	-9.644690e-001	-2.598574e-001
52063944.000	-9.644612e-001	-2.598490e-001
52069938.000	-9.644823e-001	-2.598395e-001
52075932.000	-9.645052e-001	-2.598167e-001
52081926.000	-9.644899e-001	-2.597945e-001
52087920.000	-9.645300e-001	-2.597841e-001
52093914.000	-9.645606e-001	-2.597637e-001
52099908.000	-9.645304e-001	-2.597245e-001
52105902.000	-9.645736e-001	-2.596689e-001
52111896.000	-9.645438e-001	-2.596618e-001
52117890.000	-9.645779e-001	-2.596479e-001
52123884.000	-9.645748e-001	-2.595955e-001
52129878.000	-9.645854e-001	-2.595139e-001
52135872.000	-9.645795e-001	-2.595275e-001
52141866.000	-9.645652e-001	-2.594609e-001
52147860.000	-9.646010e-001	-2.594380e-001
52153854.000	-9.646290e-001	-2.594811e-001
52159848.000	-9.646486e-001	-2.594025e-001
52165842.000	-9.646148e-001	-2.593857e-001
52171836.000	-9.646514e-001	-2.593738e-001
52177830.000	-9.646642e-001	-2.593321e-001
52183824.000	-9.646241e-001	-2.593473e-001
52189818.000	-9.646291e-001	-2.593062e-001
52195812.000	-9.646437e-001	-2.592078e-001
52201806.000	-9.646475e-001	-2.592359e-001
52207800.000	-9.646294e-001	-2.591572e-001
52213794.000	-9.646435e-001	-2.591282e-001
52219788.000	-9.647177e-001	-2.591071e-001
52225782.000	-9.646904e-001	-2.591298e-001
52231776.000	-9.646946e-001	-2.590906e-001
52237770.000	-9.647278e-001	-2.590764e-001
52243764.000	-9.647042e-001	-2.589743e-001
52249758.000	-9.647298e-001	-2.589911e-001
52255752.000	-9.647290e-001	-2.589525e-001
52261746.000	-9.647294e-001	-2.588679e-001
52267740.000	-9.647530e-001	-2.588494e-001
52273734.000	-9.647404e-001	-2.588706e-001
52279728.000	-9.647435e-001	-2.588376e-001
52285722.000	-9.647697e-001	-2.587616e-001
52291716.000	-9.647732e-001	-2.588298e-001
52297710.000	-9.647953e-001	-2.587909e-001
52303704.000	-9.648053e-001	-2.587119e-001
52309698.000	-9.648242e-001	-2.586960e-001
52315692.000	-9.648030e-001	-2.586427e-001
52321686.000	-9.647966e-001	-2.586821e-001
52327680.000	-9.648395e-001	-2.586252e-001
52333674.000	-9.648622e-001	-2.585695e-001
52339668.000	-9.648842e-001	-2.585440e-001
52345662.000	-9.648318e-001	-2.585231e-001
52351656.000	-9.648012e-001	-2.584829e-001
52357650.000	-9.648560e-001	-2.584513e-001
52363644.000	-9.648247e-001	-2.584341e-001
52369638.000	-9.648695e-001	-2.584283e-001
52375632.000	-9.648953e-001	-2.583859e-001
52381626.000	-9.648577e-001	-2.583727e-001
52387620.000	-9.648616e-001	-2.583139e-001
52393614.000	-9.649055e-001	-2.582899e-001
52399608.000	-9.649427e-001	-2.583004e-001
52405602.000	-9.649009e-001	-2.582149e-001
52411596.000	-9.649240e-001	-2.581615e-001
52417590.000	-9.649245e-001	-2.581803e-001
52423584.000	-9.649748e-001	-2.581509e-001
52429578.000	-9.649187e-001	-2.580300e-001
52435572.000	-9.648991e-001	-2.580876e-001
52441566.000	-9.649195e-001	-2.580444e-001
52447560.000	-9.649819e-001	-2.580449e-001
52453554.000	-9.649635e-001	-2.580144e-001
52459548.000	-9.649934e-001	-2.580007e-001
52465542.000	-9.649459e-001	-2.579894e-001
52471536.000	-9.649695e-001	-2.579566e-001
52477530.000	-9.649864e-001	-2.578800e-001
52483524.000	-9.650174e-001	-2.578502e-001
52489518.000	-9.649679e-001	-2.578460e-001
52495512.000	-9.650079e-001	-2.578009e-001
52501506.000	-9.649716e-001	-2.577973e-001
52507500.000	-9.650136e-001	-2.576982e-001
52513494.000	-9.650378e-001	-2.577474e-001
52519488.000	-9.650067e-001	-2.576769e-001
52525482.000	-9.650519e-001	-2.576456e-001
52531476.000	-9.650741e-001	-2.576370e-001
52537470.000	-9.650443e-001	-2.576087e-001
52543464.000	-9.650450e-001	-2.575945e-001
52549458.000	-9.650786e-001	-2.575595e-001
52555452.000	-9.650426e-001	-2.575205e-001
52561446.000	-9.651061e-001	-2.575233e-001
52567440.000	-9.650488e-001	-2.574815e-001
52573434.000	-9.650963e-001	-2.574507e-001
52579428.000	-9.650831e-001	-2.573502e-001
52585422.000	-9.651286e-001	-2.574040e-001
52591416.000	-9.650901e-001	-2.573706e-001
52597410.000	-9.650953e-001	-2.573435e-001
52603404.000	-9.650901e-001	-2.572873e-001
52609398.000	-9.651414e-001	-2.572484e-001
52615392.000	-9.651616e-001	-2.572504e-001
52621386.000	-9.652080e-001	-2.572189e-001
52627380.000	-9.652396e-001	-2.571659e-001
52633374.000	-9.651524e-001	-2.572015e-001
52639368.000	-9.651605e-001	-2.571321e-001
52645362.000	-9.651442e-001	-2.570565e-001
52651356.000	-9.651352e-001	-2.570468e-001
52657350.000	-9.652210e-001	-2.570178e-001
52663344.000	-9.652028e-001	-2.569988e-001
52669338.000	-9.652122e-001	-2.569775e-001
52675332.000	-9.652726e-001	-2.569587e-001
52681326.000	-9.652113e-001	-2.569342e-001
52687320.000	-9.652789e-001	-2.569061e-001
52693314.000	-9.652716e-001	-2.568896e-001
52699308.000	-9.652197e-001	-2.568180e-001
52705302.000	-9.652506e-001	-2.568266e-001
52711296.000	-9.652702e-001	-2.567854e-001
52717290.000	-9.652829e-001	-2.567702e-001
52723284.000	-9.652607e-001	-2.566841e-001
52729278.000	-9.652604e-001	-2.566979e-001
52735272.000	-9.652605e-001	-2.566441e-001
52741266.000	-9.653390e-001	-2.566028e-001
52747260.000	-9.653075e-001	-2.565986e-001
52753254.000	-9.653581e-001	-2.565310e-001
52759248.000	-9.652827e-001	-2.565361e-001
52765242.000	-9.653424e-001	-2.565578e-001
52771236.000	-9.653687e-001	-2.565404e-001
52777230.000	-9.653984e-001	-2.564407e-001
52783224.000	-9.652944e-001	-2.563983e-001
52789218.000	-9.653046e-001	-2.563650e-001
52795212.000	-9.653098e-001	-2.563794e-001
52801206.000	-9.653523e-001	-2.563590e-001
52807200.000	-9.654199e-001	-2.563619e-001
52813194.000	-9.653204e-001	-2.563105e-001
52819188.000	-9.653989e-001	-2.562408e-001
52825182.000	-9.654041e-001	-2.561923e-001
52831176.000	-9.653871e-001	-2.562238e-001
52837170.000	-9.653805e-001	-2.562025e-001
52843164.000	-9.654346e-001	-2.562256e-001
52849158.000	-9.654435e-001	-2.561118e-001
52855152.000	-9.654120e-001	-2.560460e-001
52861146.000	-9.654278e-001	-2.560851e-001
52867140.000	-9.654112e-001	-2.560090e-001
52873134.000	-9.654425e-001	-2.560338e-001
52879128.000	-9.654583e-001	-2.559883e-001
52885122.000	-9.654784e-001	-2.559493e-001
52891116.000	-9.654993e-001	-2.559287e-001
52897110.000	-9.654437e-001	-2.558786e-001
52903104.000	-9.655056e-001	-2.558630e-001
52909098.000	-9.654248e-001	-2.558344e-001
52915092.000	-9.655382e-001	-2.558332e-001
52921086.000	-9.654603e-001	-2.557844e-001
52927080.000	-9.654835e-001	-2.557772e-001
52933074.000	-9.654905e-001	-2.557177e-001
52939068.000	-9.655528e-001	-2.557226e-001
52945062.000	-9.655276e-001	-2.557038e-001
52951056.000	-9.655292e-001	-2.556582e-001
52957050.000	-9.655461e-001	-2.556050e-001
52963044.000	-9.655496e-001	-2.555894e-001
52969038.000	-9.655118e-001	-2.555741e-001
52975032.000	-9.655518e-001	-2.555612e-001
52981026.000	-9.655987e-001	-2.555155e-001
52987020.000	-9.655984e-001	-2.554956e-001
52993014.000	-9.656212e-001	-2.555203e-001
52999008.000	-9.656055e-001	-2.554091e-001
53005002.000	-9.655961e-001	-2.554141e-001
53010996.000	-9.656069e-001	-2.553830e-001
53016990.000	-9.656010e-001	-2.553157e-001
53022984.000	-9.655820e-001	-2.553018e-001
53028978.000	-9.656117e-001	-2.552949e-001
53034972.000	-9.656083e-001	-2.552372e-001
53040966.000	-9.656044e-001	-2.552261e-001
53046960.000	-9.656494e-001	-2.552065e-001
53052954.000	-9.656548e-001	-2.551364e-001
53058948.000	-9.656211e-001	-2.551315e-001
53064942.000	-9.656336e-001	-2.551254e-001
53070936.000	-9.656955e-001	-2.550623e-001
53076930.000	-9.656771e-001	-2.550807e-001
53082924.000	-9.657123e-001	-2.550619e-001
53088918.000	-9.656976e-001	-2.550135e-001
53094912.000	-9.656555e-001	-2.549496e-001
53100906.000	-9.656971e-001	-2.549647e-001
53106900.000	-9.656822e-001	-2.549496e-001
53112894.000	-9.657156e-001	-2.549356e-001
53118888.000	-9.657236e-001	-2.548532e-001
53124882.000	-9.657103e-001	-2.548068e-001
53130876.000	-9.656807e-001	-2.547906e-001
53136870.000	-9.657613e-001	-2.548141e-001
53142864.000	-9.656995e-001	-2.547217e-001
53148858.000	-9.657608e-001	-2.547265e-001
53154852.000	-9.657390e-001	-2.546848e-001
53160846.000	-9.658037e-001	-2.547084e-001
53166840.000	-9.657590e-001	-2.546464e-001
53172834.000	-9.657713e-001	-2.545953e-001
53178828.000	-9.657797e-001	-2.545675e-001
53184822.000	-9.657609e-001	-2.545622e-001
53190816.000	-9.657940e-001	-2.545116e-001
53196810.000	-9.657981e-001	-2.544820e-001
53202804.000	-9.657774e-001	-2.544313e-001
53208798.000	-9.658039e-001	-2.544554e-001
53214792.000	-9.658493e-001	-2.544098e-001
53220786.000	-9.658040e-001	-2.543655e-001
53226780.000	-9.658523e-001	-2.543350e-001
53232774.000	-9.658278e-001	-2.543472e-001
53238768.000	-9.658398e-001	-2.543563e-001
53244762.000	-9.659024e-001	-2.542996e-001
53250756.000	-9.659126e-001	-2.542805e-001
53256750.000	-9.658929e-001	-2.542442e-001
53262744.000	-9.658380e-001	-2.542060e-001
53268738.000	-9.659110e-001	-2.541786e-001
53274732.000	-9.658749e-001	-2.541774e-001
53280726.000	-9.658861e-001	-2.540683e-001
53286720.000	-9.658925e-001	-2.540874e-001
53292714.000	-9.659367e-001	-2.540560e-001
53298708.000	-9.659244e-001	-2.539951e-001
53304702.000	-9.659536e-001	-2.540356e-001
53310696.000	-9.659678e-001	-2.539741e-001
53316690.000	-9.659935e-001	-2.539931e-001
53322684.000	-9.659505e-001	-2.539040e-001
53328678.000	-9.659412e-001	-2.539379e-001
53334672.000	-9.660091e-001	-2.539023e-001
53340666.000	-9.659186e-001	-2.538238e-001
53346660.000	-9.659404e-001	-2.538415e-001
53352654.000	-9.659356e-001	-2.537557e-001
53358648.000	-9.659839e-001	-2.537350e-001
53364642.000	-9.659642e-001	-2.536730e-001
53370636.000	-9.660060e-001	-2.536494e-001
53376630.000	-9.660116e-001	-2.536923e-001
53382624.000	-9.660490e-001	-2.537046e-001
53388618.000	-9.659942e-001	-2.536341e-001
53394612.000	-9.660790e-001	-2.535860e-001
53400606.000	-9.660987e-001	-2.535783e-001
53406600.000	-9.660753e-001	-2.535706e-001
53412594.000	-9.660331e-001	-2.534979e-001
53418588.000	-9.660598e-001	-2.534830e-001
53424582.000	-9.660410e-001	-2.534554e-001
53430576.000	-9.660971e-001	-2.534711e-001
53436570.000	-9.660536e-001	-2.533707e-001
53442564.000	-9.660904e-001	-2.534189e-001
53448558.000	-9.661228e-001	-2.533299e-001
53454552.000	-9.661332e-001	-2.533602e-001
53460546.000	-9.661150e-001	-2.532837e-001
53466540.000	-9.660912e-001	-2.532694e-001
53472534.000	-9.661254e-001	-2.532620e-001
53478528.000	-9.661570e-001	-2.532472e-001
53484522.000	-9.661294e-001	-2.532321e-001
53490516.000	-9.661662e-001	-2.531638e-001
53496510.000	-9.661385e-001	-2.531170e-001
53502504.000	-9.661583e-001	-2.531285e-001
53508498.000	-9.661566e-001	-2.530732e-001
53514492.000	-9.661065e-001	-2.530755e-001
53520486.000	-9.662191e-001	-2.530259e-001
53526480.000	-9.661551e-001	-2.530088e-001
53532474.000	-9.661419e-001	-2.529379e-001
53538468.000	-9.661674e-001	-2.529004e-001
53544462.000	-9.662235e-001	-2.529256e-001
53550456.000	-9.662384e-001	-2.528615e-001
53556450.000	-9.661759e-001	-2.528226e-001
53562444.000	-9.661575e-001	-2.528404e-001
53568438.000	-9.662654e-001	-2.528190e-001
53574432.000	-9.662413e-001	-2.527693e-001
53580426.000	-9.663022e-001	-2.527727e-001
53586420.000	-9.662548e-001	-2.527284e-001
53592414.000	-9.662397e-001	-2.527277e-001
53598408.000	-9.662646e-001	-2.526715e-001
53604402.000	-9.662771e-001	-2.526270e-001
53610396.000	-9.662728e-001	-2.526089e-001
53616390.000	-9.662934e-001	-2.526255e-001
53622384.000	-9.662800e-001	-2.525383e-001
53628378.000	-9.663303e-001	-2.525556e-001
53634372.000	-9.663279e-001	-2.525114e-001
53640366.000	-9.662842e-001	-2.524700e-001
53646360.000	-9.663180e-001	-2.525110e-001
53652354.000	-9.663289e-001	-2.524358e-001
53658348.000	-9.663163e-001	-2.523465e-001
53664342.000	-9.663196e-001	-2.523270e-001
53670336.000	-9.663361e-001	-2.523075e-001
53676330.000	-9.662933e-001	-2.523139e-001
53682324.000	-9.663462e-001	-2.523013e-001
53688318.000	-9.663678e-001	-2.522827e-001
53694312.000	-9.663320e-001	-2.522228e-001
53700306.000	-9.663387e-001	-2.522423e-001
53706300.000	-9.663667e-001	-2.521498e-001
53712294.000	-9.663171e-001	-2.521397e-001
53718288.000	-9.663500e-001	-2.521164e-001
53724282.000	-9.663723e-001	-2.520295e-001
53730276.000	-9.664168e-001	-2.521011e-001
53736270.000	-9.664113e-001	-2.520583e-001
53742264.000	-9.664077e-001	-2.520383e-001
53748258.000	-9.663999e-001	-2.519980e-001
53754252.000	-9.664423e-001	-2.519527e-001
53760246.000	-9.664349e-001	-2.519342e-001
53766240.000	-9.664097e-001	-2.519017e-001
53772234.000	-9.663808e-001	-2.518555e-001
53778228.000	-9.664262e-001	-2.518317e-001
53784222.000	-9.664469e-001	-2.517877e-001
53790216.000	-9.664480e-001	-2.517719e-001
53796210.000	-9.664958e-001	-2.517602e-001
53802204.000	-9.664938e-001	-2.517197e-001
53808198.000	-9.664895e-001	-2.516908e-001
53814192.000	-9.664957e-001	-2.516775e-001
53820186.000	-9.665465e-001	-2.516421e-001
53826180.000	-9.664649e-001	-2.516240e-001
53832174.000	-9.665511e-001	-2.516416e-001
53838168.000	-9.664803e-001	-2.515703e-001
53844162.000	-9.664771e-001	-2.515437e-001
53850156.000	-9.665266e-001	-2.515336e-001
53856150.000	-9.665178e-001	-2.514519e-001
53862144.000	-9.665349e-001	-2.514682e-001
53868138.000	-9.665887e-001	-2.514691e-001
53874132.000	-9.665907e-001	-2.514636e-001
53880126.000	-9.665667e-001	-2.513999e-001
53886120.000	-9.665906e-001	-2.513918e-001
53892114.000	-9.665582e-001	-2.513044e-001
53898108.000	-9.665885e-001	-2.512568e-001
53904102.000	-9.665340e-001	-2.512511e-001
53910096.000	-9.666022e-001	-2.512416e-001
53916090.000	-9.666030e-001	-2.512230e-001
53922084.000	-9.665735e-001	-2.511858e-001
53928078.000	-9.666314e-001	-2.511574e-001
53934072.000	-9.666599e-001	-2.511139e-001
53940066.000	-9.665802e-001	-2.511283e-001
53946060.000	-9.665835e-001	-2.510898e-001
53952054.000	-9.666435e-001	-2.510916e-001
53958048.000	-9.666611e-001	-2.510355e-001
53964042.000	-9.666471e-001	-2.510197e-001
53970036.000	-9.666517e-001	-2.509126e-001
53976030.000	-9.666659e-001	-2.509658e-001
53982024.000	-9.667222e-001	-2.509528e-001
53988018.000	-9.666750e-001	-2.509093e-001
53994012.000	-9.666476e-001	-2.508997e-001
54000006.000	-9.667209e-001	-2.508309e-001
54006000.000	-9.666965e-001	-2.508448e-001
54011994.000	-9.666783e-001	-2.508206e-001
54017988.000	-9.667583e-001	-2.508229e-001
54023982.000	-9.667562e-001	-2.507652e-001
54029976.000	-9.667795e-001	-2.507010e-001
54035970.000	-9.667383e-001	-2.507166e-001
54041964.000	-9.667728e-001	-2.506711e-001
54047958.000	-9.667355e-001	-2.506502e-001
54053952.000	-9.667515e-001	-2.505779e-001
54059946.000	-9.667735e-001	-2.505991e-001
54065940.000	-9.667982e-001	-2.505568e-001
54071934.000	-9.668001e-001	-2.505550e-001
54077928.000	-9.668292e-001	-2.505201e-001
54083922.000	-9.667970e-001	-2.505165e-001
54089916.000	-9.668178e-001	-2.504573e-001
54095910.000	-9.668263e-001	-2.504610e-001
54101904.000	-9.668693e-001	-2.504308e-001
54107898.000	-9.668784e-001	-2.503736e-001
54113892.000	-9.668311e-001	-2.503472e-001
54119886.000	-9.668579e-001	-2.502840e-001
54125880.000	-9.668300e-001	-2.503380e-001
54131874.000	-9.668571e-001	-2.502667e-001
54137868.000	-9.668997e-001	-2.502389e-001
54143862.000	-9.668812e-001	-2.502452e-001
54149856.000	-9.668844e-001	-2.501790e-001
54155850.000	-9.668823e-001	-2.501464e-001
54161844.000	-9.669068e-001	-2.501749e-001
54167838.000	-9.669229e-001	-2.501525e-001
54173832.000	-9.669634e-001	-2.501377e-001
54179826.000	-9.669346e-001	-2.500660e-001
54185820.000	-9.669109e-001	-2.499800e-001
54191814.000	-9.668681e-001	-2.499712e-001
54197808.000	-9.669395e-001	-2.499941e-001
54203802.000	-9.669471e-001	-2.499218e-001
54209796.000	-9.669474e-001	-2.499042e-001
54215790.000	-9.669640e-001	-2.498901e-001
54221784.000	-9.669517e-001	-2.498294e-001
54227778.000	-9.670117e-001	-2.498421e-001
54233772.000	-9.669236e-001	-2.498217e-001
54239766.000	-9.670123e-001	-2.497768e-001
54245760.000	-9.670157e-001	-2.497358e-001
54251754.000	-9.669963e-001	-2.497556e-001
54257748.000	-9.670086e-001	-2.497081e-001
54263742.000	-9.670003e-001	-2.496796e-001
54269736.000	-9.669684e-001	-2.496536e-001
54275730.000	-9.669457e-001	-2.496308e-001
54281724.000	-9.669861e-001	-2.496170e-001
54287718.000	-9.670048e-001	-2.495522e-001
54293712.000	-9.670198e-001	-2.495524e-001
54299706.000	-9.669928e-001	-2.494937e-001
54305700.000	-9.669900e-001	-2.495040e-001
54311694.000	-9.670757e-001	-2.494844e-001
54317688.000	-9.670831e-001	-2.494602e-001
54323682.000	-9.670418e-001	-2.494585e-001
54329676.000	-9.670611e-001	-2.493645e-001
54335670.000	-9.670397e-001	-2.494089e-001
54341664.000	-9.670482e-001	-2.493206e-001
54347658.000	-9.670746e-001	-2.493089e-001
54353652.000	-9.670738e-001	-2.493072e-001
54359646.000	-9.670819e-001	-2.492151e-001
54365640.000	-9.670643e-001	-2.492259e-001
54371634.000	-9.670681e-001	-2.491787e-001
54377628.000	-9.670864e-001	-2.491414e-001
54383622.000	-9.671349e-001	-2.491197e-001
54389616.000	-9.671027e-001	-2.491094e-001
54395610.000	-9.671380e-001	-2.490868e-001
54401604.000	-9.671829e-001	-2.490825e-001
54407598.000	-9.671513e-001	-2.490625e-001
54413592.000	-9.671093e-001	-2.490022e-001
54419586.000	-9.671408e-001	-2.490251e-001
54425580.000	-9.671476e-001	-2.489358e-001
54431574.000	-9.671743e-001	-2.489197e-001
54437568.000	-9.671445e-001	-2.489181e-001
54443562.000	-9.671646e-001	-2.488842e-001
54449556.000	-9.671953e-001	-2.488849e-001
54455550.000	-9.672389e-001	-2.488950e-001
54461544.000	-9.671664e-001	-2.488015e-001
54467538.000	-9.672015e-001	-2.487478e-001
54473532.000	-9.671937e-001	-2.487029e-001
54479526.000	-9.672328e-001	-2.487301e-001
54485520.000	-9.672298e-001	-2.487178e-001
54491514.000	-9.672721e-001	-2.486502e-001
54497508.000	-9.672554e-001	-2.486226e-001
54503502.000	-9.672526e-001	-2.486550e-001
54509496.000	-9.672479e-001	-2.485732e-001
54515490.000	-9.672504e-001	-2.485698e-001
54521484.000	-9.672798e-001	-2.485940e-001
54527478.000	-9.673008e-001	-2.485371e-001
54533472.000	-9.673749e-001	-2.485161e-001
54539466.000	-9.672950e-001	-2.484583e-001
54545460.000	-9.672698e-001	-2.484394e-001
54551454.000	-9.672919e-001	-2.483976e-001
54557448.000	-9.672844e-001	-2.483915e-001
54563442.000	-9.673120e-001	-2.483517e-001
54569436.000	-9.673419e-001	-2.482952e-001
54575430.000	-9.673437e-001	-2.483159e-001
54581424.000	-9.673516e-001	-2.482525e-001
54587418.000	-9.673031e-001	-2.482661e-001
54593412.000	-9.673249e-001	-2.482583e-001
54599406.000	-9.673130e-001	-2.481469e-001
54605400.000	-9.673475e-001	-2.481588e-001
54611394.000	-9.673473e-001	-2.480988e-001
54617388.000	-9.674097e-001	-2.480918e-001
54623382.000	-9.673599e-001	-2.480693e-001
54629376.000	-9.673498e-001	-2.480953e-001
54635370.000	-9.673492e-001	-2.480600e-001
54641364.000	-9.673496e-001	-2.480071e-001
54647358.000	-9.673415e-001	-2.479552e-001
54653352.000	-9.673976e-001	-2.479696e-001
54659346.000	-9.673993e-001	-2.479168e-001
54665340.000	-9.673603e-001	-2.478731e-001
54671334.000	-9.674596e-001	-2.478290e-001
54677328.000	-9.674153e-001	-2.478858e-001
54683322.000	-9.674185e-001	-2.478167e-001
54689316.000	-9.674414e-001	-2.478102e-001
54695310.000	-9.674234e-001	-2.477608e-001
54701304.000	-9.674196e-001	-2.477326e-001
54707298.000	-9.674782e-001	-2.477011e-001
54713292.000	-9.675086e-001	-2.476745e-001
54719286.000	-9.674939e-001	-2.476678e-001
54725280.000	-9.674600e-001	-2.476414e-001
54731274.000	-9.674839e-001	-2.475906e-001
54737268.000	-9.674428e-001	-2.476245e-001
54743262.000	-9.674942e-001	-2.475621e-001
54749256.000	-9.675080e-001	-2.475711e-001
54755250.000	-9.675146e-001	-2.474900e-001
54761244.000	-9.674617e-001	-2.474797e-001
54767238.000	-9.674932e-001	-2.474117e-001
54773232.000	-9.675001e-001	-2.473828e-001
54779226.000	-9.675060e-001	-2.473888e-001
54785220.000	-9.674817e-001	-2.474115e-001
54791214.000	-9.675316e-001	-2.473326e-001
54797208.000	-9.675198e-001	-2.473286e-001
54803202.000	-9.675808e-001	-2.472706e-001
54809196.000	-9.675145e-001	-2.472191e-001
54815190.000	-9.675289e-001	-2.472548e-001
54821184.000	-9.675795e-001	-2.472102e-001
54827178.000	-9.675959e-001	-2.472021e-001
54833172.000	-9.676023e-001	-2.471820e-001
54839166.000	-9.675492e-001	-2.471310e-001
54845160.000	-9.675478e-001	-2.471010e-001
54851154.000	-9.675899e-001	-2.470981e-001
54857148.000	-9.675078e-001	-2.470539e-001
54863142.000	-9.675803e-001	-2.470069e-001
54869136.000	-9.675916e-001	-2.470021e-001
54875130.000	-9.675808e-001	-2.469986e-001
54881124.000	-9.675816e-001	-2.469376e-001
54887118.000	-9.675722e-001	-2.468915e-001
54893112.000	-9.675474e-001	-2.468436e-001
54899106.000	-9.676620e-001	-2.469017e-001
54905100.000	-9.675775e-001	-2.467901e-001
54911094.000	-9.675965e-001	-2.467668e-001
54917088.000	-9.675989e-001	-2.467536e-001
54923082.000	-9.676344e-001	-2.467651e-001
54929076.000	-9.676170e-001	-2.467506e-001
54935070.000	-9.676390e-001	-2.466713e-001
54941064.000	-9.676448e-001	-2.466294e-001
54947058.000	-9.676313e-001	-2.466260e-001
54953052.000	-9.676410e-001	-2.466345e-001
54959046.000	-9.676267e-001	-2.466145e-001
54965040.000	-9.676405e-001	-2.465505e-001
54971034.000	-9.676567e-001	-2.465460e-001
54977028.000	-9.677341e-001	-2.465335e-001
54983022.000	-9.677816e-001	-2.465400e-001
54989016.000	-9.676796e-001	-2.464915e-001
54995010.000	-9.677342e-001	-2.464846e-001
55001004.000	-9.676921e-001	-2.464099e-001
55006998.000	-9.677286e-001	-2.463774e-001
55012992.000	-9.676923e-001	-2.463754e-001
55018986.000	-9.676959e-001	-2.463536e-001
55024980.000	-9.677498e-001	-2.463568e-001
55030974.000	-9.677031e-001	-2.463113e-001
55036968.000	-9.676838e-001	-2.462525e-001
55042962.000	-9.677573e-001	-2.462437e-001
55048956.000	-9.677759e-001	-2.462437e-001
55054950.000	-9.678083e-001	-2.461812e-001
55060944.000	-9.678232e-001	-2.461430e-001
55066938.000	-9.678030e-001	-2.461222e-001
55072932.000	-9.677780e-001	-2.461442e-001
55078926.000	-9.677813e-001	-2.460566e-001
55084920.000	-9.677953e-001	-2.460608e-001
55090914.000	-9.678348e-001	-2.460623e-001
55096908.000	-9.677718e-001	-2.459887e-001
55102902.000	-9.677802e-001	-2.459919e-001
55108896.000	-9.678500e-001	-2.459400e-001
55114890.000	-9.678462e-001	-2.459719e-001
55120884.000	-9.678476e-001	-2.459294e-001
55126878.000	-9.678942e-001	-2.458976e-001
55132872.000	-9.678889e-001	-2.458324e-001
55138866.000	-9.678724e-001	-2.458321e-001
55144860.000	-9.678624e-001	-2.458264e-001
55150854.000	-9.679226e-001	-2.458176e-001
55156848.000	-9.679201e-001	-2.457582e-001
55162842.000	-9.678825e-001	-2.457544e-001
55168836.000	-9.678661e-001	-2.457158e-001
55174830.000	-9.679384e-001	-2.456533e-001
55180824.000	-9.679526e-001	-2.456817e-001
55186818.000	-9.679265e-001	-2.456488e-001
55192812.000	-9.679394e-001	-2.455991e-001
55198806.000	-9.679080e-001	-2.455552e-001
55204800.000	-9.678947e-001	-2.455498e-001
55210794.000	-9.679587e-001	-2.455559e-001
55216788.000	-9.679367e-001	-2.454915e-001
55222782.000	-9.679757e-001	-2.455037e-001
55228776.000	-9.679193e-001	-2.454434e-001
55234770.000	-9.679608e-001	-2.454521e-001
55240764.000	-9.679665e-001	-2.454084e-001
55246758.000	-9.680184e-001	-2.453276e-001
55252752.000	-9.679587e-001	-2.453769e-001
55258746.000	-9.679640e-001	-2.453413e-001
55264740.000	-9.680138e-001	-2.452743e-001
55270734.000	-9.680265e-001	-2.453482e-001
55276728.000	-9.680292e-001	-2.452550e-001
55282722.000	-9.680123e-001	-2.452668e-001
55288716.000	-9.680305e-001	-2.452223e-001
55294710.000	-9.680115e-001	-2.451869e-001
55300704.000	-9.680147e-001	-2.451656e-001
55306698.000	-9.680148e-001	-2.450478e-001
55312692.000	-9.680403e-001	-2.450993e-001
55318686.000	-9.680120e-001	-2.450673e-001
55324680.000	-9.680242e-001	-2.450461e-001
55330674.000	-9.680570e-001	-2.450132e-001
55336668.000	-9.680370e-001	-2.450248e-001
55342662.000	-9.680654e-001	-2.449472e-001
55348656.000	-9.680660e-001	-2.449303e-001
55354650.000	-9.680911e-001	-2.449226e-001
55360644.000	-9.680901e-001	-2.448637e-001
55366638.000	-9.681257e-001	-2.448605e-001
55372632.000	-9.681001e-001	-2.448473e-001
55378626.000	-9.681292e-001	-2.448390e-001
55384620.000	-9.681072e-001	-2.448032e-001
55390614.000	-9.680988e-001	-2.447160e-001
55396608.000	-9.681003e-001	-2.446973e-001
55402602.000	-9.681194e-001	-2.447197e-001
55408596.000	-9.681875e-001	-2.446573e-001
55414590.000	-9.681189e-001	-2.446767e-001
55420584.000	-9.681607e-001	-2.446533e-001
55426578.000	-9.681394e-001	-2.445974e-001
55432572.000	-9.681587e-001	-2.446014e-001
55438566.000	-9.681698e-001	-2.445670e-001
55444560.000	-9.681986e-001	-2.445392e-001
55450554.000	-9.681825e-001	-2.444876e-001
55456548.000	-9.682089e-001	-2.444914e-001
55462542.000	-9.682189e-001	-2.444558e-001
55468536.000	-9.682027e-001	-2.444104e-001
55474530.000	-9.682197e-001	-2.443696e-001
55480524.000	-9.682334e-001	-2.443994e-001
55486518.000	-9.682275e-001	-2.443847e-001
55492512.000	-9.682599e-001	-2.442888e-001
55498506.000	-9.682066e-001	-2.442884e-001
55504500.000	-9.682413e-001	-2.443111e-001
55510494.000	-9.682669e-001	-2.442598e-001
55516488.000	-9.682840e-001	-2.442372e-001
55522482.000	-9.682840e-001	-2.442121e-001
55528476.000	-9.682471e-001	-2.441538e-001
55534470.000	-9.682920e-001	-2.441702e-001
55540464.000	-9.682544e-001	-2.440860e-001
55546458.000	-9.682744e-001	-2.440997e-001
55552452.000	-9.682605e-001	-2.440682e-001
55558446.000	-9.682501e-001	-2.440294e-001
55564440.000	-9.683108e-001	-2.440082e-001
55570434.000	-9.682915e-001	-2.439885e-001
55576428.000	-9.683037e-001	-2.439731e-001
55582422.000	-9.683479e-001	-2.439610e-001
55588416.000	-9.683109e-001	-2.439113e-001
55594410.000	-9.683232e-001	-2.439256e-001
55600404.000	-9.683423e-001	-2.438607e-001
55606398.000	-9.683082e-001	-2.438666e-001
55612392.000	-9.683632e-001	-2.438364e-001
55618386.000	-9.683268e-001	-2.438062e-001
55624380.000	-9.683224e-001	-2.437614e-001
55630374.000	-9.683660e-001	-2.437378e-001
55636368.000	-9.683674e-001	-2.437305e-001
55642362.000	-9.683987e-001	-2.436921e-001
55648356.000	-9.684096e-001	-2.437353e-001
55654350.000	-9.683474e-001	-2.436159e-001
55660344.000	-9.683786e-001	-2.435626e-001
55666338.000	-9.683858e-001	-2.436114e-001
55672332.000	-9.683862e-001	-2.435669e-001
55678326.000	-9.683877e-001	-2.435419e-001
55684320.000	-9.683776e-001	-2.434980e-001
55690314.000	-9.684706e-001	-2.435134e-001
55696308.000	-9.684533e-001	-2.434768e-001
55702302.000	-9.683809e-001	-2.434464e-001
55708296.000	-9.684643e-001	-2.434460e-001
55714290.000	-9.684444e-001	-2.434037e-001
55720284.000	-9.684840e-001	-2.433967e-001
55726278.000	-9.684883e-001	-2.433529e-001
55732272.000	-9.685544e-001	-2.433480e-001
55738266.000	-9.684865e-001	-2.433474e-001
55744260.000	-9.684772e-001	-2.432913e-001
55750254.000	-9.684522e-001	-2.432354e-001
55756248.000	-9.684984e-001	-2.432196e-001
55762242.000	-9.684551e-001	-2.431695e-001
55768236.000	-9.684849e-001	-2.431311e-001
55774230.000	-9.684940e-001	-2.431312e-001
55780224.000	-9.685477e-001	-2.430843e-001
55786218.000	-9.685032e-001	-2.431097e-001
55792212.000	-9.684885e-001	-2.430457e-001
55798206.000	-9.685765e-001	-2.430438e-001
55804200.000	-9.685347e-001	-2.429916e-001
55810194.000	-9.685566e-001	-2.429697e-001
55816188.000	-9.685897e-001	-2.430044e-001
55822182.000	-9.685598e-001	-2.429279e-001
55828176.000	-9.685485e-001	-2.428790e-001
55834170.000	-9.685728e-001	-2.428770e-001
55840164.000	-9.685975e-001	-2.428923e-001
55846158.000	-9.685876e-001	-2.428531e-001
55852152.000	-9.686047e-001	-2.428356e-001
55858146.000	-9.685318e-001	-2.427673e-001
55864140.000	-9.685705e-001	-2.427276e-001
55870134.000	-9.685998e-001	-2.427175e-001
55876128.000	-9.685552e-001	-2.426600e-001
55882122.000	-9.685488e-001	-2.426319e-001
55888116.000	-9.686265e-001	-2.426865e-001
55894110.000	-9.686016e-001	-2.426121e-001
55900104.000	-9.686265e-001	-2.426283e-001
55906098.000	-9.686340e-001	-2.425528e-001
55912092.000	-9.686067e-001	-2.425796e-001
55918086.000	-9.686053e-001	-2.424889e-001
55924080.000	-9.686217e-001	-2.424894e-001
55930074.000	-9.685680e-001	-2.424402e-001
55936068.000	-9.686347e-001	-2.424847e-001
55942062.000	-9.685847e-001	-2.424402e-001
55948056.000	-9.686061e-001	-2.424250e-001
55954050.000	-9.686847e-001	-2.423697e-001
55960044.000	-9.686797e-001	-2.423583e-001
55966038.000	-9.686601e-001	-2.423831e-001
55972032.000	-9.686931e-001	-2.423415e-001
55978026.000	-9.686504e-001	-2.422725e-001
55984020.000	-9.686702e-001	-2.422110e-001
55990014.000	-9.686400e-001	-2.421846e-001
55996008.000	-9.686903e-001	-2.422126e-001
56002002.000	-9.687057e-001	-2.421400e-001
56007996.000	-9.686963e-001	-2.421485e-001
56013990.000	-9.686905e-001	-2.421244e-001
56019984.000	-9.687509e-001	-2.421045e-001
56025978.000	-9.687254e-001	-2.420770e-001
56031972.000	-9.686981e-001	-2.419976e-001
56037966.000	-9.687083e-001	-2.420304e-001
56043960.000	-9.687889e-001	-2.420116e-001
56049954.000	-9.687364e-001	-2.419625e-001
56055948.000	-9.687305e-001	-2.419430e-001
56061942.000	-9.687507e-001	-2.419349e-001
56067936.000	-9.687601e-001	-2.418558e-001
56073930.000	-9.687858e-001	-2.418747e-001
56079924.000	-9.687816e-001	-2.418057e-001
56085918.000	-9.687978e-001	-2.418456e-001
56091912.000	-9.687800e-001	-2.417901e-001
56097906.000	-9.687845e-001	-2.418329e-001
56103900.000	-9.687903e-001	-2.417409e-001
56109894.000	-9.687855e-001	-2.416944e-001
56115888.000	-9.688059e-001	-2.416827e-001
56121882.000	-9.688320e-001	-2.416436e-001
56127876.000	-9.688598e-001	-2.416318e-001
56133870.000	-9.688299e-001	-2.416074e-001
56139864.000	-9.688131e-001	-2.415990e-001
56145858.000	-9.688607e-001	-2.416025e-001
56151852.000	-9.688473e-001	-2.415676e-001
56157846.000	-9.688964e-001	-2.415437e-001
56163840.000	-9.688595e-001	-2.415412e-001
56169834.000	-9.688539e-001	-2.414287e-001
56175828.000	-9.688922e-001	-2.414464e-001
56181822.000	-9.688630e-001	-2.414176e-001
56187816.000	-9.688698e-001	-2.414030e-001
56193810.000	-9.688695e-001	-2.413707e-001
56199804.000	-9.689468e-001	-2.413953e-001
56205798.000	-9.689191e-001	-2.413447e-001
56211792.000	-9.689179e-001	-2.413166e-001
56217786.000	-9.689736e-001	-2.412627e-001
56223780.000	-9.689279e-001	-2.412553e-001
56229774.000	-9.690064e-001	-2.412312e-001
56235768.000	-9.689366e-001	-2.412047e-001
56241762.000	-9.689755e-001	-2.411821e-001
56247756.000	-9.689409e-001	-2.412102e-001
56253750.000	-9.689812e-001	-2.411493e-001
56259744.000	-9.690216e-001	-2.411135e-001
56265738.000	-9.690191e-001	-2.411027e-001
56271732.000	-9.689980e-001	-2.410545e-001
56277726.000	-9.689583e-001	-2.410208e-001
56283720.000	-9.689399e-001	-2.410099e-001
56289714.000	-9.689962e-001	-2.410061e-001
56295708.000	-9.690472e-001	-2.409763e-001
56301702.000	-9.690337e-001	-2.409445e-001
56307696.000	-9.690423e-001	-2.409192e-001
56313690.000	-9.689896e-001	-2.408980e-001
56319684.000	-9.690453e-001	-2.408957e-001
56325678.000	-9.690245e-001	-2.408365e-001
56331672.000	-9.690909e-001	-2.408074e-001
56337666.000	-9.690790e-001	-2.407791e-001
56343660.000	-9.690740e-001	-2.407619e-001
56349654.000	-9.690149e-001	-2.407323e-001
56355648.000	-9.690680e-001	-2.406934e-001
56361642.000	-9.690058e-001	-2.406623e-001
56367636.000	-9.690762e-001	-2.406738e-001
56373630.000	-9.690608e-001	-2.406265e-001
56379624.000	-9.691201e-001	-2.406724e-001
56385618.000	-9.691391e-001	-2.405909e-001
56391612.000	-9.690919e-001	-2.405605e-001
56397606.000	-9.690701e-001	-2.405132e-001
56403600.000	-9.690689e-001	-2.405025e-001
56409594.000	-9.690713e-001	-2.404247e-001
56415588.000	-9.690589e-001	-2.404291e-001
56421582.000	-9.691372e-001	-2.404244e-001
56427576.000	-9.691160e-001	-2.404527e-001
56433570.000	-9.691119e-001	-2.403864e-001
56439564.000	-9.690802e-001	-2.403546e-001
56445558.000	-9.691269e-001	-2.403562e-001
56451552.000	-9.691423e-001	-2.403542e-001
56457546.000	-9.691356e-001	-2.402914e-001
56463540.000	-9.691393e-001	-2.402146e-001
56469534.000	-9.691568e-001	-2.402406e-001
56475528.000	-9.691165e-001	-2.402118e-001
56481522.000	-9.691310e-001	-2.401825e-001
56487516.000	-9.691463e-001	-2.401583e-001
56493510.000	-9.691455e-001	-2.400574e-001
56499504.000	-9.691727e-001	-2.401237e-001
56505498.000	-9.691266e-001	-2.400702e-001
56511492.000	-9.691607e-001	-2.400316e-001
56517486.000	-9.691470e-001	-2.399642e-001
56523480.000	-9.691703e-001	-2.399930e-001
56529474.000	-9.691945e-001	-2.399493e-001
56535468.000	-9.692170e-001	-2.399828e-001
56541462.000	-9.691671e-001	-2.399908e-001
56547456.000	-9.692405e-001	-2.399074e-001
56553450.000	-9.691880e-001	-2.398762e-001
56559444.000	-9.691805e-001	-2.398278e-001
56565438.000	-9.691604e-001	-2.398352e-001
56571432.000	-9.692238e-001	-2.397378e-001
56577426.000	-9.692110e-001	-2.397609e-001
56583420.000	-9.692452e-001	-2.397544e-001
56589414.000	-9.692042e-001	-2.397610e-001
56595408.000	-9.692200e-001	-2.397192e-001
56601402.000	-9.692318e-001	-2.396620e-001
56607396.000	-9.693090e-001	-2.396565e-001
56613390.000	-9.692840e-001	-2.396814e-001
56619384.000	-9.692353e-001	-2.395763e-001
56625378.000	-9.692516e-001	-2.395610e-001
56631372.000	-9.692822e-001	-2.395583e-001
56637366.000	-9.692987e-001	-2.395522e-001
56643360.000	-9.693013e-001	-2.395188e-001
56649354.000	-9.693857e-001	-2.395391e-001
56655348.000	-9.692862e-001	-2.394808e-001
56661342.000	-9.693277e-001	-2.394719e-001
56667336.000	-9.693054e-001	-2.394317e-001
56673330.000	-9.693188e-001	-2.394170e-001
56679324.000	-9.693500e-001	-2.393927e-001
56685318.000	-9.693071e-001	-2.393151e-001
56691312.000	-9.693139e-001	-2.393413e-001
56697306.000	-9.693414e-001	-2.393033e-001
56703300.000	-9.694032e-001	-2.392825e-001
56709294.000	-9.694267e-001	-2.392657e-001
56715288.000	-9.694213e-001	-2.392129e-001
56721282.000	-9.693730e-001	-2.392372e-001
56727276.000	-9.693497e-001	-2.391783e-001
56733270.000	-9.694055e-001	-2.391566e-001
56739264.000	-9.693805e-001	-2.390849e-001
56745258.000	-9.694173e-001	-2.391198e-001
56751252.000	-9.694237e-001	-2.390832e-001
56757246.000	-9.693758e-001	-2.390559e-001
56763240.000	-9.693956e-001	-2.390167e-001
56769234.000	-9.694334e-001	-2.390126e-001
56775228.000	-9.694044e-001	-2.389534e-001
56781222.000	-9.693815e-001	-2.388940e-001
56787216.000	-9.694892e-001	-2.389238e-001
56793210.000	-9.694601e-001	-2.389228e-001
56799204.000	-9.694807e-001	-2.388732e-001
56805198.000	-9.694594e-001	-2.388423e-001
56811192.000	-9.694973e-001	-2.388571e-001
56817186.000	-9.694780e-001	-2.388259e-001
56823180.000	-9.694533e-001	-2.387788e-001
56829174.000	-9.695314e-001	-2.387501e-001
56835168.000	-9.694488e-001	-2.387341e-001
56841162.000	-9.694322e-001	-2.386708e-001
56847156.000	-9.694891e-001	-2.387132e-001
56853150.000	-9.694791e-001	-2.386831e-001
56859144.000	-9.694701e-001	-2.386138e-001
56865138.000	-9.694579e-001	-2.385506e-001
56871132.000	-9.695074e-001	-2.385970e-001
56877126.000	-9.694669e-001	-2.385598e-001
56883120.000	-9.695040e-001	-2.385006e-001
56889114.000	-9.694936e-001	-2.384878e-001
56895108.000	-9.695152e-001	-2.384490e-001
56901102.000	-9.694651e-001	-2.384505e-001
56907096.000	-9.695387e-001	-2.384391e-001
56913090.000	-9.695370e-001	-2.383537e-001
56919084.000	-9.695345e-001	-2.384027e-001
56925078.000	-9.695450e-001	-2.383774e-001
56931072.000	-9.695500e-001	-2.383371e-001
56937066.000	-9.694774e-001	-2.382999e-001
56943060.000	-9.695516e-001	-2.382996e-001
56949054.000	-9.695491e-001	-2.382156e-001
56955048.000	-9.695784e-001	-2.382038e-001
56961042.000	-9.695833e-001	-2.382059e-001
56967036.000	-9.695954e-001	-2.381330e-001
56973030.000	-9.695539e-001	-2.381496e-001
56979024.000	-9.695856e-001	-2.381048e-001
56985018.000	-9.695839e-001	-2.380877e-001
56991012.000	-9.696140e-001	-2.380580e-001
56997006.000	-9.695896e-001	-2.380669e-001
57003000.000	-9.695866e-001	-2.380471e-001
57008994.000	-9.696335e-001	-2.379830e-001
57014988.000	-9.696435e-001	-2.379550e-001
57020982.000	-9.695826e-001	-2.379733e-001
57026976.000	-9.696138e-001	-2.379442e-001
57032970.000	-9.696530e-001	-2.379214e-001
57038964.000	-9.696427e-001	-2.378740e-001
57044958.000	-9.696066e-001	-2.378139e-001
57050952.000	-9.695919e-001	-2.378040e-001
57056946.000	-9.696359e-001	-2.378064e-001
57062940.000	-9.696556e-001	-2.378216e-001
57068934.000	-9.696538e-001	-2.377789e-001
57074928.000	-9.696483e-001	-2.377162e-001
57080922.000	-9.697417e-001	-2.377041e-001
57086916.000	-9.697145e-001	-2.376801e-001
57092910.000	-9.696768e-001	-2.376426e-001
57098904.000	-9.696876e-001	-2.376078e-001
57104898.000	-9.696977e-001	-2.376278e-001
57110892.000	-9.696991e-001	-2.375723e-001
57116886.000	-9.697609e-001	-2.375961e-001
57122880.000	-9.697345e-001	-2.375456e-001
57128874.000	-9.696732e-001	-2.375351e-001
57134868.000	-9.697515e-001	-2.374585e-001
57140862.000	-9.697227e-001	-2.374983e-001
57146856.000	-9.697392e-001	-2.374507e-001
57152850.000	-9.697697e-001	-2.374175e-001
57158844.000	-9.697632e-001	-2.373871e-001
57164838.000	-9.697292e-001	-2.373463e-001
57170832.000	-9.697684e-001	-2.373125e-001
57176826.000	-9.697484e-001	-2.373258e-001
57182820.000	-9.697429e-001	-2.373038e-001
57188814.000	-9.698251e-001	-2.373240e-001
57194808.000	-9.697904e-001	-2.372719e-001
57200802.000	-9.697965e-001	-2.372542e-001
57206796.000	-9.698028e-001	-2.371974e-001
57212790.000	-9.697930e-001	-2.371930e-001
57218784.000	-9.698073e-001	-2.371977e-001
57224778.000	-9.698034e-001	-2.371296e-001
57230772.000	-9.697611e-001	-2.371010e-001
57236766.000	-9.698049e-001	-2.370821e-001
57242760.000	-9.698240e-001	-2.370817e-001
57248754.000	-9.698362e-001	-2.370010e-001
57254748.000	-9.698065e-001	-2.369957e-001
57260742.000	-9.698671e-001	-2.370549e-001
57266736.000	-9.698488e-001	-2.369851e-001
57272730.000	-9.698755e-001	-2.369331e-001
57278724.000	-9.698500e-001	-2.369831e-001
57284718.000	-9.698783e-001	-2.369046e-001
57290712.000	-9.698846e-001	-2.368752e-001
57296706.000	-9.698503e-001	-2.368580e-001
57302700.000	-9.698772e-001	-2.368114e-001
57308694.000	-9.698405e-001	-2.367794e-001
57314688.000	-9.698462e-001	-2.367597e-001
57320682.000	-9.698431e-001	-2.367570e-001
57326676.000	-9.698784e-001	-2.367236e-001
57332670.000	-9.698873e-001	-2.367022e-001
57338664.000	-9.699221e-001	-2.367038e-001
57344658.000	-9.699323e-001	-2.366907e-001
57350652.000	-9.699249e-001	-2.366422e-001
57356646.000	-9.699654e-001	-2.365949e-001
57362640.000	-9.699181e-001	-2.365496e-001
57368634.000	-9.698670e-001	-2.365514e-001
57374628.000	-9.699490e-001	-2.365272e-001
57380622.000	-9.698801e-001	-2.364865e-001
57386616.000	-9.699412e-001	-2.364744e-001
57392610.000	-9.699389e-001	-2.364763e-001
57398604.000	-9.699484e-001	-2.364455e-001
57404598.000	-9.699913e-001	-2.364681e-001
57410592.000	-9.699685e-001	-2.363918e-001
57416586.000	-9.700202e-001	-2.363643e-001
57422580.000	-9.700103e-001	-2.363663e-001
57428574.000	-9.699494e-001	-2.362930e-001
57434568.000	-9.700353e-001	-2.363196e-001
57440562.000	-9.699854e-001	-2.362722e-001
57446556.000	-9.699701e-001	-2.362952e-001
57452550.000	-9.699883e-001	-2.362103e-001
57458544.000	-9.700172e-001	-2.362282e-001
57464538.000	-9.699942e-001	-2.361411e-001
57470532.000	-9.700123e-001	-2.361561e-001
57476526.000	-9.699866e-001	-2.361579e-001
57482520.000	-9.700543e-001	-2.361048e-001
57488514.000	-9.700532e-001	-2.360927e-001
57494508.000	-9.700402e-001	-2.360612e-001
57500502.000	-9.700908e-001	-2.360301e-001
57506496.000	-9.700607e-001	-2.360262e-001
57512490.000	-9.701039e-001	-2.360314e-001
57518484.000	-9.700714e-001	-2.359631e-001
57524478.000	-9.701180e-001	-2.359393e-001
57530472.000	-9.700848e-001	-2.358948e-001
57536466.000	-9.701086e-001	-2.359185e-001
57542460.000	-9.700986e-001	-2.358589e-001
57548454.000	-9.700734e-001	-2.358440e-001
57554448.000	-9.701419e-001	-2.358366e-001
57560442.000	-9.701474e-001	-2.357672e-001
57566436.000	-9.701774e-001	-2.357753e-001
57572430.000	-9.701713e-001	-2.357804e-001
57578424.000	-9.701394e-001	-2.357591e-001
57584418.000	-9.701979e-001	-2.357239e-001
57590412.000	-9.701603e-001	-2.356942e-001
57596406.000	-9.701408e-001	-2.356694e-001
57602400.000	-9.701464e-001	-2.356823e-001
57608394.000	-9.701658e-001	-2.356239e-001
57614388.000	-9.701334e-001	-2.356508e-001
57620382.000	-9.701882e-001	-2.356063e-001
57626376.000	-9.702152e-001	-2.355592e-001
57632370.000	-9.701739e-001	-2.355331e-001
57638364.000	-9.701676e-001	-2.354833e-001
57644358.000	-9.701877e-001	-2.354667e-001
57650352.000	-9.702621e-001	-2.354952e-001
57656346.000	-9.702058e-001	-2.354041e-001
57662340.000	-9.702284e-001	-2.354234e-001
57668334.000	-9.702342e-001	-2.353935e-001
57674328.000	-9.702661e-001	-2.353585e-001
57680322.000	-9.703022e-001	-2.353792e-001
57686316.000	-9.702450e-001	-2.353068e-001
57692310.000	-9.702336e-001	-2.352806e-001
57698304.000	-9.702584e-001	-2.353065e-001
57704298.000	-9.702719e-001	-2.352401e-001
57710292.000	-9.702561e-001	-2.352125e-001
57716286.000	-9.702827e-001	-2.351862e-001
57722280.000	-9.702380e-001	-2.351497e-001
57728274.000	-9.702697e-001	-2.351545e-001
57734268.000	-9.702709e-001	-2.351053e-001
57740262.000	-9.702795e-001	-2.350842e-001
57746256.000	-9.702861e-001	-2.350935e-001
57752250.000	-9.702735e-001	-2.350658e-001
57758244.000	-9.703173e-001	-2.350724e-001
57764238.000	-9.703264e-001	-2.350051e-001
57770232.000	-9.703211e-001	-2.349602e-001
57776226.000	-9.702810e-001	-2.349734e-001
57782220.000	-9.702418e-001	-2.349423e-001
57788214.000	-9.702561e-001	-2.349346e-001
57794208.000	-9.703167e-001	-2.349103e-001
57800202.000	-9.703294e-001	-2.348861e-001
57806196.000	-9.702656e-001	-2.347976e-001
57812190.000	-9.703110e-001	-2.348143e-001
57818184.000	-9.703856e-001	-2.347729e-001
57824178.000	-9.702875e-001	-2.347446e-001
57830172.000	-9.703424e-001	-2.347045e-001
57836166.000	-9.703324e-001	-2.346984e-001
57842160.000	-9.703792e-001	-2.346299e-001
57848154.000	-9.703980e-001	-2.347322e-001
57854148.000	-9.703748e-001	-2.346585e-001
57860142.000	-9.703718e-001	-2.346252e-001
57866136.000	-9.703563e-001	-2.346342e-001
57872130.000	-9.704168e-001	-2.345801e-001
57878124.000	-9.704322e-001	-2.345924e-001
57884118.000	-9.703864e-001	-2.345157e-001
57890112.000	-9.703916e-001	-2.345682e-001
57896106.000	-9.704287e-001	-2.344678e-001
57902100.000	-9.704122e-001	-2.344551e-001
57908094.000	-9.704396e-001	-2.344538e-001
57914088.000	-9.704105e-001	-2.343880e-001
57920082.000	-9.704122e-001	-2.344105e-001
57926076.000	-9.704580e-001	-2.343838e-001
57932070.000	-9.704496e-001	-2.343323e-001
57938064.000	-9.704417e-001	-2.343487e-001
57944058.000	-9.704577e-001	-2.342874e-001
57950052.000	-9.704291e-001	-2.342543e-001
57956046.000	-9.704875e-001	-2.342008e-001
57962040.000	-9.704429e-001	-2.342039e-001
57968034.000	-9.704458e-001	-2.342214e-001
57974028.000	-9.704686e-001	-2.341588e-001
57980022.000	-9.704503e-001	-2.341444e-001
57986016.000	-9.704646e-001	-2.341392e-001
57992010.000	-9.704922e-001	-2.341320e-001
57998004.000	-9.704548e-001	-2.341238e-001
58003998.000	-9.705233e-001	-2.340755e-001
58009992.000	-9.705195e-001	-2.340836e-001
58015986.000	-9.705243e-001	-2.340060e-001
58021980.000	-9.705299e-001	-2.339550e-001
58027974.000	-9.705185e-001	-2.339689e-001
58033968.000	-9.705165e-001	-2.339221e-001
58039962.000	-9.704856e-001	-2.339057e-001
58045956.000	-9.705591e-001	-2.338938e-001
58051950.000	-9.705626e-001	-2.338505e-001
58057944.000	-9.705882e-001	-2.338752e-001
58063938.000	-9.705524e-001	-2.337924e-001
58069932.000	-9.705288e-001	-2.338159e-001
58075926.000	-9.705431e-001	-2.337563e-001
58081920.000	-9.705340e-001	-2.337780e-001
58087914.000	-9.705880e-001	-2.337330e-001
58093908.000	-9.705525e-001	-2.336946e-001
58099902.000	-9.705693e-001	-2.336704e-001
58105896.000	-9.705142e-001	-2.337183e-001
58111890.000	-9.705843e-001	-2.336209e-001
58117884.000	-9.706133e-001	-2.336704e-001
58123878.000	-9.706445e-001	-2.336415e-001
58129872.000	-9.706546e-001	-2.336242e-001
58135866.000	-9.705946e-001	-2.335334e-001
58141860.000	-9.706073e-001	-2.335143e-001
58147854.000	-9.706153e-001	-2.335066e-001
58153848.000	-9.706303e-001	-2.334598e-001
58159842.000	-9.706009e-001	-2.334187e-001
58165836.000	-9.706488e-001	-2.333952e-001
58171830.000	-9.706911e-001	-2.334269e-001
58177824.000	-9.706851e-001	-2.334248e-001
58183818.000	-9.706697e-001	-2.333692e-001
58189812.000	-9.707111e-001	-2.333142e-001
58195806.000	-9.706864e-001	-2.332987e-001
58201800.000	-9.706603e-001	-2.332882e-001
58207794.000	-9.706803e-001	-2.332822e-001
58213788.000	-9.706948e-001	-2.332513e-001
58219782.000	-9.707101e-001	-2.332458e-001
58225776.000	-9.707020e-001	-2.332428e-001
58231770.000	-9.706634e-001	-2.331452e-001
58237764.000	-9.707339e-001	-2.331409e-001
58243758.000	-9.707319e-001	-2.331145e-001
58249752.000	-9.707160e-001	-2.331614e-001
58255746.000	-9.707382e-001	-2.331192e-001
58261740.000	-9.707856e-001	-2.330926e-001
58267734.000	-9.707059e-001	-2.330489e-001
58273728.000	-9.706967e-001	-2.329799e-001
58279722.000	-9.707565e-001	-2.329962e-001
58285716.000	-9.707331e-001	-2.329732e-001
58291710.000	-9.707601e-001	-2.329497e-001
58297704.000	-9.707413e-001	-2.329041e-001
58303698.000	-9.708220e-001	-2.329002e-001
58309692.000	-9.707673e-001	-2.328640e-001
58315686.000	-9.707565e-001	-2.328784e-001
58321680.000	-9.707867e-001	-2.328406e-001
58327674.000	-9.707860e-001	-2.328495e-001
58333668.000	-9.707621e-001	-2.327876e-001
58339662.000	-9.708234e-001	-2.327682e-001
58345656.000	-9.707849e-001	-2.327669e-001
58351650.000	-9.707451e-001	-2.327050e-001
58357644.000	-9.707729e-001	-2.326577e-001
58363638.000	-9.707910e-001	-2.327091e-001
58369632.000	-9.708516e-001	-2.326255e-001
58375626.000	-9.708046e-001	-2.326205e-001
58381620.000	-9.707910e-001	-2.325872e-001
58387614.000	-9.708460e-001	-2.326077e-001
58393608.000	-9.707802e-001	-2.325654e-001
58399602.000	-9.708751e-001	-2.325426e-001
58405596.000	-9.708224e-001	-2.325079e-001
58411590.000	-9.708276e-001	-2.324647e-001
58417584.000	-9.708359e-001	-2.324749e-001
58423578.000	-9.708428e-001	-2.324577e-001
58429572.000	-9.708566e-001	-2.324290e-001
58435566.000	-9.708437e-001	-2.323556e-001
58441560.000	-9.708955e-001	-2.323934e-001
58447554.000	-9.709042e-001	-2.323644e-001
58453548.000	-9.709342e-001	-2.323537e-001
58459542.000	-9.709460e-001	-2.322643e-001
58465536.000	-9.709294e-001	-2.322629e-001
58471530.000	-9.709356e-001	-2.322792e-001
58477524.000	-9.708864e-001	-2.322378e-001
58483518.000	-9.709612e-001	-2.322613e-001
58489512.000	-9.708847e-001	-2.321778e-001
58495506.000	-9.709247e-001	-2.321565e-001
58501500.000	-9.709419e-001	-2.320909e-001
58507494.000	-9.709061e-001	-2.320801e-001
58513488.000	-9.708791e-001	-2.320856e-001
58519482.000	-9.709596e-001	-2.320823e-001
58525476.000	-9.709733e-001	-2.319810e-001
58531470.000	-9.709407e-001	-2.320132e-001
58537464.000	-9.709703e-001	-2.320086e-001
58543458.000	-9.709532e-001	-2.319715e-001
58549452.000	-9.709834e-001	-2.319885e-001
58555446.000	-9.709639e-001	-2.319324e-001
58561440.000	-9.709637e-001	-2.318769e-001
58567434.000	-9.709678e-001	-2.319056e-001
58573428.000	-9.709861e-001	-2.318403e-001
58579422.000	-9.710158e-001	-2.318454e-001
58585416.000	-9.709805e-001	-2.318532e-001
58591410.000	-9.710151e-001	-2.317806e-001
58597404.000	-9.709900e-001	-2.317399e-001
58603398.000	-9.710138e-001	-2.317060e-001
58609392.000	-9.709637e-001	-2.317261e-001
58615386.000	-9.710099e-001	-2.317242e-001
58621380.000	-9.710039e-001	-2.316246e-001
58627374.000	-9.709885e-001	-2.316205e-001
58633368.000	-9.710360e-001	-2.316616e-001
58639362.000	-9.710268e-001	-2.315956e-001
58645356.000	-9.710557e-001	-2.315798e-001
58651350.000	-9.710287e-001	-2.315471e-001
58657344.000	-9.710963e-001	-2.315500e-001
58663338.000	-9.710978e-001	-2.315271e-001
58669332.000	-9.710388e-001	-2.314982e-001
58675326.000	-9.710862e-001	-2.314335e-001
58681320.000	-9.710427e-001	-2.314749e-001
58687314.000	-9.709896e-001	-2.313576e-001
58693308.000	-9.710741e-001	-2.314031e-001
58699302.000	-9.710421e-001	-2.313904e-001
58705296.000	-9.711436e-001	-2.313415e-001
58711290.000	-9.711069e-001	-2.313561e-001
58717284.000	-9.711557e-001	-2.313179e-001
58723278.000	-9.710858e-001	-2.312816e-001
58729272.000	-9.711014e-001	-2.312685e-001
58735266.000	-9.710677e-001	-2.312712e-001
58741260.000	-9.711724e-001	-2.312806e-001
58747254.000	-9.712041e-001	-2.312061e-001
58753248.000	-9.711482e-001	-2.311997e-001
58759242.000	-9.711058e-001	-2.311295e-001
58765236.000	-9.711615e-001	-2.311461e-001
58771230.000	-9.711184e-001	-2.311082e-001
58777224.000	-9.711580e-001	-2.310937e-001
58783218.000	-9.711494e-001	-2.310813e-001
58789212.000	-9.711307e-001	-2.310183e-001
58795206.000	-9.711442e-001	-2.310098e-001
58801200.000	-9.711370e-001	-2.310125e-001
58807194.000	-9.711778e-001	-2.309694e-001
58813188.000	-9.711881e-001	-2.309498e-001
58819182.000	-9.711403e-001	-2.309152e-001
58825176.000	-9.711029e-001	-2.308957e-001
58831170.000	-9.711892e-001	-2.308244e-001
58837164.000	-9.711446e-001	-2.308530e-001
58843158.000	-9.711685e-001	-2.308418e-001
58849152.000	-9.712140e-001	-2.307849e-001
58855146.000	-9.712403e-001	-2.307865e-001
58861140.000	-9.711934e-001	-2.307419e-001
58867134.000	-9.712429e-001	-2.307284e-001
58873128.000	-9.712182e-001	-2.306635e-001
58879122.000	-9.712214e-001	-2.306619e-001
58885116.000	-9.712065e-001	-2.306399e-001
58891110.000	-9.711635e-001	-2.306056e-001
58897104.000	-9.711741e-001	-2.305684e-001
58903098.000	-9.712338e-001	-2.305900e-001
58909092.000	-9.711910e-001	-2.305228e-001
58915086.000	-9.712324e-001	-2.305707e-001
58921080.000	-9.712243e-001	-2.304904e-001
58927074.000	-9.712431e-001	-2.305416e-001
58933068.000	-9.712503e-001	-2.304866e-001
58939062.000	-9.712904e-001	-2.304320e-001
58945056.000	-9.712412e-001	-2.303825e-001
58951050.000	-9.712887e-001	-2.303886e-001
58957044.000	-9.712710e-001	-2.303796e-001
58963038.000	-9.712718e-001	-2.303116e-001
58969032.000	-9.712831e-001	-2.303911e-001
58975026.000	-9.712577e-001	-2.303249e-001
58981020.000	-9.712727e-001	-2.302772e-001
58987014.000	-9.713118e-001	-2.302173e-001
58993008.000	-9.712907e-001	-2.302538e-001
58999002.000	-9.712903e-001	-2.301771e-001
59004996.000	-9.713442e-001	-2.301879e-001
59010990.000	-9.713226e-001	-2.301971e-001
59016984.000	-9.713442e-001	-2.301379e-001
59022978.000	-9.713187e-001	-2.301349e-001
59028972.000	-9.713513e-001	-2.301043e-001
59034966.000	-9.713755e-001	-2.301182e-001
59040960.000	-9.713930e-001	-2.301162e-001
59046954.000	-9.713587e-001	-2.300841e-001
59052948.000	-9.713653e-001	-2.299965e-001
59058942.000	-9.713350e-001	-2.299670e-001
59064936.000	-9.713817e-001	-2.299823e-001
59070930.000	-9.713663e-001	-2.299883e-001
59076924.000	-9.713526e-001	-2.299266e-001
59082918.000	-9.713635e-001	-2.299392e-001
59088912.000	-9.714029e-001	-2.298577e-001
59094906.000	-9.714354e-001	-2.298800e-001
59100900.000	-9.714134e-001	-2.298210e-001
59106894.000	-9.714438e-001	-2.298414e-001
59112888.000	-9.713844e-001	-2.297575e-001
59118882.000	-9.714184e-001	-2.297569e-001
59124876.000	-9.713992e-001	-2.297219e-001
59130870.000	-9.713945e-001	-2.297150e-001
59136864.000	-9.713986e-001	-2.297491e-001
59142858.000	-9.714178e-001	-2.296795e-001
59148852.000	-9.714496e-001	-2.296177e-001
59154846.000	-9.714328e-001	-2.295931e-001
59160840.000	-9.714723e-001	-2.296065e-001
59166834.000	-9.714584e-001	-2.295909e-001
59172828.000	-9.715000e-001	-2.295709e-001
59178822.000	-9.714590e-001	-2.295641e-001
59184816.000	-9.714982e-001	-2.295609e-001
59190810.000	-9.714926e-001	-2.294848e-001
59196804.000	-9.714947e-001	-2.294699e-001
59202798.000	-9.714757e-001	-2.294963e-001
59208792.000	-9.715314e-001	-2.294449e-001
59214786.000	-9.714523e-001	-2.294031e-001
59220780.000	-9.714782e-001	-2.294105e-001
59226774.000	-9.715396e-001	-2.293889e-001
59232768.000	-9.715369e-001	-2.293613e-001
59238762.000	-9.715116e-001	-2.293328e-001
59244756.000	-9.715275e-001	-2.292698e-001
59250750.000	-9.715320e-001	-2.292857e-001
59256744.000	-9.715191e-001	-2.293107e-001
59262738.000	-9.715031e-001	-2.292401e-001
59268732.000	-9.715397e-001	-2.292056e-001
59274726.000	-9.715179e-001	-2.291585e-001
59280720.000	-9.715512e-001	-2.291357e-001
59286714.000	-9.715470e-001	-2.291210e-001
59292708.000	-9.715778e-001	-2.291253e-001
59298702.000	-9.715661e-001	-2.290811e-001
59304696.000	-9.715882e-001	-2.291189e-001
59310690.000	-9.716574e-001	-2.291079e-001
59316684.000	-9.716223e-001	-2.290250e-001
59322678.000	-9.716086e-001	-2.290542e-001
59328672.000	-9.715407e-001	-2.289942e-001
59334666.000	-9.715581e-001	-2.289560e-001
59340660.000	-9.715791e-001	-2.288716e-001
59346654.000	-9.715972e-001	-2.288732e-001
59352648.000	-9.716009e-001	-2.289009e-001
59358642.000	-9.716471e-001	-2.288552e-001
59364636.000	-9.716050e-001	-2.288494e-001
59370630.000	-9.715686e-001	-2.288239e-001
59376624.000	-9.715837e-001	-2.288087e-001
59382618.000	-9.716405e-001	-2.287765e-001
59388612.000	-9.716583e-001	-2.287603e-001
59394606.000	-9.717031e-001	-2.287305e-001
59400600.000	-9.716446e-001	-2.287159e-001
59406594.000	-9.715934e-001	-2.286635e-001
59412588.000	-9.716378e-001	-2.286578e-001
59418582.000	-9.716227e-001	-2.285934e-001
59424576.000	-9.716375e-001	-2.286493e-001
59430570.000	-9.716484e-001	-2.286038e-001
59436564.000	-9.716908e-001	-2.285697e-001
59442558.000	-9.716873e-001	-2.286185e-001
59448552.000	-9.717172e-001	-2.285326e-001
59454546.000	-9.716997e-001	-2.284852e-001
59460540.000	-9.716986e-001	-2.284956e-001
59466534.000	-9.717225e-001	-2.284738e-001
59472528.000	-9.717112e-001	-2.285091e-001
59478522.000	-9.717554e-001	-2.284136e-001
59484516.000	-9.717210e-001	-2.284103e-001
59490510.000	-9.717641e-001	-2.283963e-001
59496504.000	-9.717445e-001	-2.283574e-001
59502498.000	-9.717139e-001	-2.283852e-001
59508492.000	-9.717331e-001	-2.283207e-001
59514486.000	-9.717603e-001	-2.283171e-001
59520480.000	-9.717518e-001	-2.282626e-001
59526474.000	-9.717215e-001	-2.282182e-001
59532468.000	-9.717809e-001	-2.281928e-001
59538462.000	-9.717582e-001	-2.281458e-001
59544456.000	-9.717725e-001	-2.282089e-001
59550450.000	-9.718040e-001	-2.281697e-001
59556444.000	-9.717837e-001	-2.281578e-001
59562438.000	-9.717754e-001	-2.281376e-001
59568432.000	-9.717655e-001	-2.280786e-001
59574426.000	-9.718015e-001	-2.280782e-001
59580420.000	-9.717339e-001	-2.280622e-001
59586414.000	-9.717984e-001	-2.280167e-001
59592408.000	-9.717638e-001	-2.280036e-001
59598402.000	-9.717778e-001	-2.279443e-001
59604396.000	-9.717730e-001	-2.279556e-001
59610390.000	-9.718114e-001	-2.279316e-001
59616384.000	-9.718199e-001	-2.279101e-001
59622378.000	-9.717882e-001	-2.278735e-001
59628372.000	-9.718290e-001	-2.278927e-001
59634366.000	-9.718232e-001	-2.277855e-001
59640360.000	-9.718624e-001	-2.277951e-001
59646354.000	-9.718119e-001	-2.277863e-001
59652348.000	-9.718544e-001	-2.277683e-001
59658342.000	-9.718565e-001	-2.277304e-001
59664336.000	-9.718410e-001	-2.277467e-001
59670330.000	-9.719231e-001	-2.277580e-001
59676324.000	-9.718690e-001	-2.276744e-001
59682318.000	-9.718651e-001	-2.276867e-001
59688312.000	-9.718574e-001	-2.276777e-001
59694306.000	-9.718717e-001	-2.276556e-001
59700300.000	-9.718818e-001	-2.276343e-001
59706294.000	-9.719072e-001	-2.276178e-001
59712288.000	-9.718953e-001	-2.275494e-001
59718282.000	-9.719395e-001	-2.275716e-001
59724276.000	-9.719410e-001	-2.275143e-001
59730270.000	-9.719777e-001	-2.275244e-001
59736264.000	-9.719213e-001	-2.274860e-001
59742258.000	-9.719602e-001	-2.273902e-001
59748252.000	-9.719368e-001	-2.274503e-001
59754246.000	-9.719239e-001	-2.274374e-001
59760240.000	-9.719072e-001	-2.273717e-001
59766234.000	-9.719331e-001	-2.273895e-001
59772228.000	-9.719428e-001	-2.273399e-001
59778222.000	-9.719713e-001	-2.273652e-001
59784216.000	-9.719407e-001	-2.272741e-001
59790210.000	-9.719051e-001	-2.272788e-001
59796204.000	-9.719814e-001	-2.272180e-001
59802198.000	-9.720150e-001	-2.272438e-001
59808192.000	-9.719306e-001	-2.272067e-001
59814186.000	-9.719366e-001	-2.271716e-001
59820180.000	-9.719954e-001	-2.271384e-001
59826174.000	-9.719480e-001	-2.271700e-001
59832168.000	-9.719462e-001	-2.270983e-001
59838162.000	-9.719632e-001	-2.271060e-001
59844156.000	-9.719287e-001	-2.270279e-001
59850150.000	-9.719481e-001	-2.269890e-001
59856144.000	-9.720012e-001	-2.270114e-001
59862138.000	-9.719609e-001	-2.270001e-001
59868132.000	-9.719756e-001	-2.269360e-001
59874126.000	-9.719794e-001	-2.269615e-001
59880120.000	-9.719877e-001	-2.268948e-001
59886114.000	-9.719897e-001	-2.269099e-001
59892108.000	-9.720210e-001	-2.268538e-001
59898102.000	-9.719907e-001	-2.268575e-001
59904096.000	-9.720056e-001	-2.268272e-001
59910090.000	-9.720670e-001	-2.268523e-001
59916084.000	-9.720106e-001	-2.267620e-001
59922078.000	-9.720508e-001	-2.267216e-001
59928072.000	-9.720392e-001	-2.267414e-001
59934066.000	-9.720036e-001	-2.267123e-001
59940060.000	-9.720784e-001	-2.267352e-001
59946054.000	-9.721157e-001	-2.267318e-001
59952048.000	-9.720485e-001	-2.266568e-001
59958042.000	-9.720565e-001	-2.266591e-001
59964036.000	-9.720636e-001	-2.266271e-001
59970030.000	-9.720641e-001	-2.265858e-001
59976024.000	-9.720562e-001	-2.265279e-001
59982018.000	-9.720218e-001	-2.265815e-001
59988012.000	-9.720707e-001	-2.264986e-001
59994006.000	-9.720690e-001	-2.265509e-001
60000000.000	-9.720814e-001	-2.264576e-001
