!Keysight Technologies,E5063A,MY54100949,A.07.30
!Date: Wed Dec 31 05:00:23 2025
!Data & Calibration Information:
!Freq	S11:SOLT1(ON)
# Hz S RI R 50
60000.000	1.004317e+000	-1.801077e-002
65994.000	1.002130e+000	-1.967744e-002
71988.000	1.002270e+000	-2.194366e-002
77982.000	1.001555e+000	-2.361889e-002
83976.000	1.001995e+000	-2.531405e-002
89970.000	1.001967e+000	-2.757649e-002
95964.000	1.001524e+000	-2.937855e-002
101958.000	1.001605e+000	-3.142407e-002
107952.000	1.001644e+000	-3.324107e-002
113946.000	1.001415e+000	-3.544199e-002
119940.000	1.001553e+000	-3.690166e-002
125934.000	1.001292e+000	-3.911138e-002
131928.000	1.001414e+000	-4.082316e-002
137922.000	1.001151e+000	-4.262971e-002
143916.000	1.000823e+000	-4.455090e-002
149910.000	1.000684e+000	-4.608987e-002
155904.000	1.000568e+000	-4.828523e-002
161898.000	1.000535e+000	-4.991306e-002
167892.000	1.000326e+000	-5.198005e-002
173886.000	1.000251e+000	-5.350806e-002
179880.000	1.000291e+000	-5.566081e-002
185874.000	1.000156e+000	-5.725881e-002
191868.000	9.999983e-001	-5.929646e-002
197862.000	9.995646e-001	-6.128806e-002
203856.000	9.996500e-001	-6.259153e-002
209850.000	9.995543e-001	-6.478369e-002
215844.000	9.994294e-001	-6.628439e-002
221838.000	9.991532e-001	-6.823384e-002
227832.000	9.989648e-001	-7.003408e-002
233826.000	9.988126e-001	-7.207702e-002
239820.000	9.988832e-001	-7.390410e-002
245814.000	9.984206e-001	-7.541344e-002
251808.000	9.982651e-001	-7.723496e-002
257802.000	9.983684e-001	-7.921230e-002
263796.000	9.982950e-001	-8.082799e-002
269790.000	9.982644e-001	-8.284705e-002
275784.000	9.976845e-001	-8.465212e-002
281778.000	9.977472e-001	-8.643386e-002
287772.000	9.976991e-001	-8.817385e-002
293766.000	9.973476e-001	-8.988248e-002
299760.000	9.973876e-001	-9.171282e-002
305754.000	9.968193e-001	-9.391637e-002
311748.000	9.969491e-001	-9.548778e-002
317742.000	9.968102e-001	-9.730790e-002
323736.000	9.967408e-001	-9.923961e-002
329730.000	9.964027e-001	-1.009208e-001
335724.000	9.963791e-001	-1.029451e-001
341718.000	9.960230e-001	-1.044023e-001
347712.000	9.960306e-001	-1.063294e-001
353706.000	9.955363e-001	-1.081438e-001
359700.000	9.953755e-001	-1.100726e-001
365694.000	9.952995e-001	-1.118126e-001
371688.000	9.949211e-001	-1.136416e-001
377682.000	9.948721e-001	-1.155694e-001
383676.000	9.944632e-001	-1.174524e-001
389670.000	9.942396e-001	-1.191991e-001
395664.000	9.943783e-001	-1.209286e-001
401658.000	9.940478e-001	-1.224342e-001
407652.000	9.936882e-001	-1.244701e-001
413646.000	9.934231e-001	-1.262333e-001
419640.000	9.932748e-001	-1.280076e-001
425634.000	9.930307e-001	-1.298871e-001
431628.000	9.928215e-001	-1.316741e-001
437622.000	9.923606e-001	-1.334331e-001
443616.000	9.922187e-001	-1.354531e-001
449610.000	9.920102e-001	-1.373132e-001
455604.000	9.918122e-001	-1.391466e-001
461598.000	9.916700e-001	-1.408053e-001
467592.000	9.913189e-001	-1.424481e-001
473586.000	9.910841e-001	-1.445349e-001
479580.000	9.908781e-001	-1.463773e-001
485574.000	9.905547e-001	-1.482039e-001
491568.000	9.903829e-001	-1.498303e-001
497562.000	9.901062e-001	-1.517089e-001
503556.000	9.899218e-001	-1.533110e-001
509550.000	9.894453e-001	-1.553562e-001
515544.000	9.892577e-001	-1.570849e-001
521538.000	9.888758e-001	-1.587868e-001
527532.000	9.885336e-001	-1.605578e-001
533526.000	9.883254e-001	-1.624107e-001
539520.000	9.881152e-001	-1.640817e-001
545514.000	9.875833e-001	-1.659259e-001
551508.000	9.874540e-001	-1.679568e-001
557502.000	9.869709e-001	-1.695414e-001
563496.000	9.867744e-001	-1.713855e-001
569490.000	9.864648e-001	-1.732358e-001
575484.000	9.860455e-001	-1.749723e-001
581478.000	9.860593e-001	-1.766794e-001
587472.000	9.855187e-001	-1.785861e-001
593466.000	9.850758e-001	-1.803674e-001
599460.000	9.847342e-001	-1.820592e-001
605454.000	9.846101e-001	-1.840877e-001
611448.000	9.842926e-001	-1.857437e-001
617442.000	9.838935e-001	-1.876085e-001
623436.000	9.834863e-001	-1.894300e-001
629430.000	9.833301e-001	-1.911583e-001
635424.000	9.830970e-001	-1.930335e-001
641418.000	9.828964e-001	-1.948105e-001
647412.000	9.823406e-001	-1.967143e-001
653406.000	9.819244e-001	-1.982376e-001
659400.000	9.813891e-001	-1.999382e-001
665394.000	9.811576e-001	-2.018817e-001
671388.000	9.808911e-001	-2.035550e-001
677382.000	9.803802e-001	-2.053573e-001
683376.000	9.798550e-001	-2.071607e-001
689370.000	9.795969e-001	-2.089660e-001
695364.000	9.795004e-001	-2.106553e-001
701358.000	9.789590e-001	-2.123859e-001
707352.000	9.785801e-001	-2.140928e-001
713346.000	9.782296e-001	-2.161035e-001
719340.000	9.776601e-001	-2.177850e-001
725334.000	9.774110e-001	-2.195396e-001
731328.000	9.769646e-001	-2.213386e-001
737322.000	9.765122e-001	-2.234509e-001
743316.000	9.760869e-001	-2.245558e-001
749310.000	9.757973e-001	-2.267553e-001
755304.000	9.755901e-001	-2.284917e-001
761298.000	9.749093e-001	-2.301105e-001
767292.000	9.744399e-001	-2.318810e-001
773286.000	9.739809e-001	-2.337938e-001
779280.000	9.734675e-001	-2.352862e-001
785274.000	9.733443e-001	-2.371995e-001
791268.000	9.726247e-001	-2.389479e-001
797262.000	9.723409e-001	-2.406347e-001
803256.000	9.720273e-001	-2.424246e-001
809250.000	9.717958e-001	-2.440779e-001
815244.000	9.710565e-001	-2.460376e-001
821238.000	9.707404e-001	-2.477560e-001
827232.000	9.702065e-001	-2.494739e-001
833226.000	9.696357e-001	-2.512690e-001
839220.000	9.694416e-001	-2.529163e-001
845214.000	9.688467e-001	-2.548397e-001
851208.000	9.685077e-001	-2.564900e-001
857202.000	9.677573e-001	-2.584050e-001
863196.000	9.675960e-001	-2.600888e-001
869190.000	9.670178e-001	-2.617710e-001
875184.000	9.664687e-001	-2.637422e-001
881178.000	9.659546e-001	-2.651877e-001
887172.000	9.654550e-001	-2.669827e-001
893166.000	9.651392e-001	-2.688137e-001
899160.000	9.647200e-001	-2.703931e-001
905154.000	9.642351e-001	-2.720048e-001
911148.000	9.635831e-001	-2.739235e-001
917142.000	9.633128e-001	-2.755808e-001
923136.000	9.627180e-001	-2.775064e-001
929130.000	9.621001e-001	-2.792837e-001
935124.000	9.617807e-001	-2.806533e-001
941118.000	9.613224e-001	-2.826893e-001
947112.000	9.606961e-001	-2.845302e-001
953106.000	9.600714e-001	-2.859963e-001
959100.000	9.596081e-001	-2.876135e-001
965094.000	9.592129e-001	-2.894691e-001
971088.000	9.586170e-001	-2.911442e-001
977082.000	9.579110e-001	-2.929218e-001
983076.000	9.574862e-001	-2.945306e-001
989070.000	9.569169e-001	-2.963632e-001
995064.000	9.565844e-001	-2.980025e-001
1001058.000	9.559064e-001	-2.997673e-001
1007052.000	9.552355e-001	-3.015680e-001
1013046.000	9.547732e-001	-3.033120e-001
1019040.000	9.543911e-001	-3.049580e-001
1025034.000	9.539123e-001	-3.066769e-001
1031028.000	9.535561e-001	-3.083261e-001
1037022.000	9.529965e-001	-3.101234e-001
1043016.000	9.521218e-001	-3.117381e-001
1049010.000	9.515447e-001	-3.134394e-001
1055004.000	9.511329e-001	-3.150440e-001
1060998.000	9.507175e-001	-3.168754e-001
1066992.000	9.500634e-001	-3.186402e-001
1072986.000	9.495374e-001	-3.201395e-001
1078980.000	9.486977e-001	-3.218582e-001
1084974.000	9.481189e-001	-3.237515e-001
1090968.000	9.475887e-001	-3.253691e-001
1096962.000	9.470398e-001	-3.270800e-001
1102956.000	9.464345e-001	-3.287295e-001
1108950.000	9.459306e-001	-3.304554e-001
1114944.000	9.450966e-001	-3.320628e-001
1120938.000	9.445685e-001	-3.338063e-001
1126932.000	9.440396e-001	-3.356227e-001
1132926.000	9.437189e-001	-3.371625e-001
1138920.000	9.430493e-001	-3.388161e-001
1144914.000	9.423549e-001	-3.404920e-001
1150908.000	9.417017e-001	-3.424165e-001
1156902.000	9.410004e-001	-3.438000e-001
1162896.000	9.404126e-001	-3.453951e-001
1168890.000	9.399188e-001	-3.473277e-001
1174884.000	9.393717e-001	-3.490398e-001
1180878.000	9.386508e-001	-3.505476e-001
1186872.000	9.380032e-001	-3.524623e-001
1192866.000	9.374720e-001	-3.541511e-001
1198860.000	9.368204e-001	-3.556700e-001
1204854.000	9.362453e-001	-3.572250e-001
1210848.000	9.354855e-001	-3.589385e-001
1216842.000	9.348476e-001	-3.606568e-001
1222836.000	9.341809e-001	-3.623216e-001
1228830.000	9.336205e-001	-3.640470e-001
1234824.000	9.328361e-001	-3.655910e-001
1240818.000	9.321876e-001	-3.672189e-001
1246812.000	9.319273e-001	-3.688354e-001
1252806.000	9.310243e-001	-3.707036e-001
1258800.000	9.303341e-001	-3.722224e-001
1264794.000	9.298512e-001	-3.739641e-001
1270788.000	9.292053e-001	-3.755734e-001
1276782.000	9.284299e-001	-3.773324e-001
1282776.000	9.276918e-001	-3.789684e-001
1288770.000	9.270138e-001	-3.805314e-001
1294764.000	9.263313e-001	-3.820834e-001
1300758.000	9.254869e-001	-3.836362e-001
1306752.000	9.248425e-001	-3.853251e-001
1312746.000	9.244334e-001	-3.866394e-001
1318740.000	9.234694e-001	-3.885455e-001
1324734.000	9.230352e-001	-3.902338e-001
1330728.000	9.221306e-001	-3.916757e-001
1336722.000	9.213347e-001	-3.935066e-001
1342716.000	9.206925e-001	-3.950541e-001
1348710.000	9.200520e-001	-3.966326e-001
1354704.000	9.194317e-001	-3.984751e-001
1360698.000	9.187773e-001	-4.000184e-001
1366692.000	9.181616e-001	-4.016294e-001
1372686.000	9.176362e-001	-4.034176e-001
1378680.000	9.166519e-001	-4.051307e-001
1384674.000	9.160286e-001	-4.065039e-001
1390668.000	9.154268e-001	-4.080384e-001
1396662.000	9.148103e-001	-4.097287e-001
1402656.000	9.138636e-001	-4.111802e-001
1408650.000	9.131278e-001	-4.127869e-001
1414644.000	9.125017e-001	-4.146219e-001
1420638.000	9.119058e-001	-4.161190e-001
1426632.000	9.111062e-001	-4.175587e-001
1432626.000	9.102914e-001	-4.192185e-001
1438620.000	9.095645e-001	-4.208328e-001
1444614.000	9.089808e-001	-4.225108e-001
1450608.000	9.081244e-001	-4.240666e-001
1456602.000	9.073171e-001	-4.257333e-001
1462596.000	9.067152e-001	-4.273001e-001
1468590.000	9.059758e-001	-4.288309e-001
1474584.000	9.050483e-001	-4.302876e-001
1480578.000	9.042042e-001	-4.321633e-001
1486572.000	9.035020e-001	-4.335432e-001
1492566.000	9.028973e-001	-4.353676e-001
1498560.000	9.021346e-001	-4.368473e-001
1504554.000	9.011460e-001	-4.382879e-001
1510548.000	9.007106e-001	-4.399807e-001
1516542.000	8.996914e-001	-4.414623e-001
1522536.000	8.988771e-001	-4.429931e-001
1528530.000	8.983140e-001	-4.447605e-001
1534524.000	8.975485e-001	-4.459777e-001
1540518.000	8.965018e-001	-4.478273e-001
1546512.000	8.958194e-001	-4.494057e-001
1552506.000	8.952257e-001	-4.507631e-001
1558500.000	8.943602e-001	-4.522747e-001
1564494.000	8.935352e-001	-4.538721e-001
1570488.000	8.930978e-001	-4.558383e-001
1576482.000	8.920683e-001	-4.571753e-001
1582476.000	8.912640e-001	-4.586296e-001
1588470.000	8.904474e-001	-4.600387e-001
1594464.000	8.896410e-001	-4.615606e-001
1600458.000	8.887943e-001	-4.634042e-001
1606452.000	8.880084e-001	-4.649628e-001
1612446.000	8.871632e-001	-4.662575e-001
1618440.000	8.863957e-001	-4.678406e-001
1624434.000	8.856676e-001	-4.695333e-001
1630428.000	8.846303e-001	-4.710645e-001
1636422.000	8.841025e-001	-4.725032e-001
1642416.000	8.832781e-001	-4.739915e-001
1648410.000	8.824614e-001	-4.755788e-001
1654404.000	8.814432e-001	-4.770747e-001
1660398.000	8.806818e-001	-4.787041e-001
1666392.000	8.799238e-001	-4.801038e-001
1672386.000	8.793916e-001	-4.816396e-001
1678380.000	8.780908e-001	-4.833613e-001
1684374.000	8.774086e-001	-4.848699e-001
1690368.000	8.764347e-001	-4.860231e-001
1696362.000	8.757427e-001	-4.876644e-001
1702356.000	8.749126e-001	-4.891761e-001
1708350.000	8.740233e-001	-4.909167e-001
1714344.000	8.731886e-001	-4.925258e-001
1720338.000	8.724535e-001	-4.936840e-001
1726332.000	8.717726e-001	-4.952523e-001
1732326.000	8.706526e-001	-4.969590e-001
1738320.000	8.698208e-001	-4.983306e-001
1744314.000	8.690582e-001	-4.997370e-001
1750308.000	8.682957e-001	-5.013222e-001
1756302.000	8.672098e-001	-5.028190e-001
1762296.000	8.663241e-001	-5.042613e-001
1768290.000	8.653961e-001	-5.057731e-001
1774284.000	8.649239e-001	-5.072445e-001
1780278.000	8.638589e-001	-5.086362e-001
1786272.000	8.630188e-001	-5.101052e-001
1792266.000	8.622067e-001	-5.117277e-001
1798260.000	8.611678e-001	-5.131648e-001
1804254.000	8.604509e-001	-5.146103e-001
1810248.000	8.595416e-001	-5.157543e-001
1816242.000	8.586264e-001	-5.175251e-001
1822236.000	8.578266e-001	-5.189795e-001
1828230.000	8.567692e-001	-5.205200e-001
1834224.000	8.559550e-001	-5.218939e-001
1840218.000	8.549872e-001	-5.235000e-001
1846212.000	8.542480e-001	-5.246467e-001
1852206.000	8.531042e-001	-5.261650e-001
1858200.000	8.523905e-001	-5.279067e-001
1864194.000	8.513724e-001	-5.291411e-001
1870188.000	8.503020e-001	-5.307039e-001
1876182.000	8.498563e-001	-5.320112e-001
1882176.000	8.487497e-001	-5.335447e-001
1888170.000	8.478086e-001	-5.349600e-001
1894164.000	8.468959e-001	-5.364339e-001
1900158.000	8.459706e-001	-5.379261e-001
1906152.000	8.452152e-001	-5.392812e-001
1912146.000	8.441729e-001	-5.407155e-001
1918140.000	8.433630e-001	-5.423048e-001
1924134.000	8.425345e-001	-5.434553e-001
1930128.000	8.416080e-001	-5.449545e-001
1936122.000	8.406009e-001	-5.463591e-001
1942116.000	8.395350e-001	-5.477322e-001
1948110.000	8.386186e-001	-5.492724e-001
1954104.000	8.378105e-001	-5.508113e-001
1960098.000	8.369988e-001	-5.519996e-001
1966092.000	8.359926e-001	-5.537523e-001
1972086.000	8.350229e-001	-5.548569e-001
1978080.000	8.341460e-001	-5.564120e-001
1984074.000	8.331469e-001	-5.577049e-001
1990068.000	8.322572e-001	-5.590182e-001
1996062.000	8.314552e-001	-5.603489e-001
2002056.000	8.303170e-001	-5.619053e-001
2008050.000	8.294452e-001	-5.633606e-001
2014044.000	8.283255e-001	-5.649553e-001
2020038.000	8.275316e-001	-5.661834e-001
2026032.000	8.265580e-001	-5.675533e-001
2032026.000	8.256432e-001	-5.688855e-001
2038020.000	8.247713e-001	-5.702891e-001
2044014.000	8.238654e-001	-5.716309e-001
2050008.000	8.227526e-001	-5.729400e-001
2056002.000	8.219094e-001	-5.744423e-001
2061996.000	8.206334e-001	-5.757271e-001
2067990.000	8.198648e-001	-5.773301e-001
2073984.000	8.191057e-001	-5.783506e-001
2079978.000	8.180789e-001	-5.799131e-001
2085972.000	8.170307e-001	-5.812868e-001
2091966.000	8.159837e-001	-5.827084e-001
2097960.000	8.150791e-001	-5.838705e-001
2103954.000	8.141584e-001	-5.853098e-001
2109948.000	8.131520e-001	-5.867516e-001
2115942.000	8.123299e-001	-5.880230e-001
2121936.000	8.113608e-001	-5.897171e-001
2127930.000	8.103282e-001	-5.905851e-001
2133924.000	8.093204e-001	-5.921120e-001
2139918.000	8.084050e-001	-5.932948e-001
2145912.000	8.072678e-001	-5.946303e-001
2151906.000	8.062219e-001	-5.960988e-001
2157900.000	8.052818e-001	-5.973729e-001
2163894.000	8.043846e-001	-5.986406e-001
2169888.000	8.031781e-001	-6.000621e-001
2175882.000	8.025861e-001	-6.014050e-001
2181876.000	8.013638e-001	-6.028370e-001
2187870.000	8.005093e-001	-6.040438e-001
2193864.000	7.994384e-001	-6.053969e-001
2199858.000	7.984529e-001	-6.068256e-001
2205852.000	7.974071e-001	-6.080294e-001
2211846.000	7.960843e-001	-6.091773e-001
2217840.000	7.953652e-001	-6.103903e-001
2223834.000	7.943360e-001	-6.118274e-001
2229828.000	7.934709e-001	-6.134183e-001
2235822.000	7.924844e-001	-6.144108e-001
2241816.000	7.912750e-001	-6.159148e-001
2247810.000	7.902984e-001	-6.169817e-001
2253804.000	7.891014e-001	-6.184250e-001
2259798.000	7.882991e-001	-6.195832e-001
2265792.000	7.871673e-001	-6.212775e-001
2271786.000	7.860609e-001	-6.225213e-001
2277780.000	7.851722e-001	-6.234989e-001
2283774.000	7.842657e-001	-6.248877e-001
2289768.000	7.830267e-001	-6.263346e-001
2295762.000	7.821997e-001	-6.274934e-001
2301756.000	7.810528e-001	-6.287813e-001
2307750.000	7.799826e-001	-6.300643e-001
2313744.000	7.790577e-001	-6.313693e-001
2319738.000	7.779816e-001	-6.326814e-001
2325732.000	7.769736e-001	-6.337661e-001
2331726.000	7.760260e-001	-6.352264e-001
2337720.000	7.748829e-001	-6.365843e-001
2343714.000	7.740251e-001	-6.376710e-001
2349708.000	7.730255e-001	-6.389458e-001
2355702.000	7.718763e-001	-6.403620e-001
2361696.000	7.707578e-001	-6.414335e-001
2367690.000	7.696826e-001	-6.428664e-001
2373684.000	7.684401e-001	-6.440234e-001
2379678.000	7.677964e-001	-6.451166e-001
2385672.000	7.666428e-001	-6.463651e-001
2391666.000	7.654348e-001	-6.480084e-001
2397660.000	7.644458e-001	-6.488480e-001
2403654.000	7.632469e-001	-6.501200e-001
2409648.000	7.622637e-001	-6.514381e-001
2415642.000	7.614921e-001	-6.525628e-001
2421636.000	7.602836e-001	-6.538196e-001
2427630.000	7.592380e-001	-6.549547e-001
2433624.000	7.578494e-001	-6.561650e-001
2439618.000	7.569869e-001	-6.575987e-001
2445612.000	7.559796e-001	-6.585725e-001
2451606.000	7.551745e-001	-6.600341e-001
2457600.000	7.539370e-001	-6.610824e-001
2463594.000	7.527154e-001	-6.622966e-001
2469588.000	7.518782e-001	-6.633858e-001
2475582.000	7.506636e-001	-6.647756e-001
2481576.000	7.496815e-001	-6.659935e-001
2487570.000	7.485830e-001	-6.674117e-001
2493564.000	7.475222e-001	-6.686019e-001
2499558.000	7.462535e-001	-6.696765e-001
2505552.000	7.453476e-001	-6.709924e-001
2511546.000	7.442102e-001	-6.720001e-001
2517540.000	7.433568e-001	-6.730854e-001
2523534.000	7.421358e-001	-6.743791e-001
2529528.000	7.413044e-001	-6.755648e-001
2535522.000	7.398422e-001	-6.769985e-001
2541516.000	7.389730e-001	-6.780090e-001
2547510.000	7.377739e-001	-6.791160e-001
2553504.000	7.367432e-001	-6.804965e-001
2559498.000	7.357272e-001	-6.812870e-001
2565492.000	7.344834e-001	-6.826714e-001
2571486.000	7.335025e-001	-6.837501e-001
2577480.000	7.325458e-001	-6.850704e-001
2583474.000	7.313134e-001	-6.860692e-001
2589468.000	7.302904e-001	-6.871139e-001
2595462.000	7.291247e-001	-6.883111e-001
2601456.000	7.279761e-001	-6.893676e-001
2607450.000	7.268920e-001	-6.907029e-001
2613444.000	7.259022e-001	-6.918700e-001
2619438.000	7.247367e-001	-6.930383e-001
2625432.000	7.236317e-001	-6.941577e-001
2631426.000	7.226164e-001	-6.953107e-001
2637420.000	7.214044e-001	-6.965509e-001
2643414.000	7.204312e-001	-6.977647e-001
2649408.000	7.191666e-001	-6.989066e-001
2655402.000	7.179087e-001	-6.999994e-001
2661396.000	7.169950e-001	-7.012934e-001
2667390.000	7.159634e-001	-7.021722e-001
2673384.000	7.149808e-001	-7.033646e-001
2679378.000	7.136513e-001	-7.043867e-001
2685372.000	7.126674e-001	-7.056316e-001
2691366.000	7.115370e-001	-7.066806e-001
2697360.000	7.104679e-001	-7.078134e-001
2703354.000	7.091687e-001	-7.089392e-001
2709348.000	7.078837e-001	-7.101162e-001
2715342.000	7.071414e-001	-7.112906e-001
2721336.000	7.059611e-001	-7.122864e-001
2727330.000	7.046344e-001	-7.132436e-001
2733324.000	7.038011e-001	-7.143990e-001
2739318.000	7.023021e-001	-7.155410e-001
2745312.000	7.011745e-001	-7.167113e-001
2751306.000	7.004390e-001	-7.177406e-001
2757300.000	6.989331e-001	-7.188416e-001
2763294.000	6.982134e-001	-7.200515e-001
2769288.000	6.968310e-001	-7.209129e-001
2775282.000	6.955836e-001	-7.221207e-001
2781276.000	6.948179e-001	-7.230901e-001
2787270.000	6.933153e-001	-7.242374e-001
2793264.000	6.923391e-001	-7.255130e-001
2799258.000	6.912467e-001	-7.266771e-001
2805252.000	6.902688e-001	-7.274349e-001
2811246.000	6.892314e-001	-7.287779e-001
2817240.000	6.877709e-001	-7.297232e-001
2823234.000	6.862495e-001	-7.311221e-001
2829228.000	6.855891e-001	-7.315450e-001
2835222.000	6.843879e-001	-7.330505e-001
2841216.000	6.834204e-001	-7.339427e-001
2847210.000	6.823979e-001	-7.351222e-001
2853204.000	6.810585e-001	-7.363394e-001
2859198.000	6.800249e-001	-7.371764e-001
2865192.000	6.788024e-001	-7.383769e-001
2871186.000	6.776427e-001	-7.391205e-001
2877180.000	6.764736e-001	-7.402947e-001
2883174.000	6.753991e-001	-7.411803e-001
2889168.000	6.740713e-001	-7.422359e-001
2895162.000	6.729806e-001	-7.432071e-001
2901156.000	6.720252e-001	-7.447283e-001
2907150.000	6.706694e-001	-7.455091e-001
2913144.000	6.695118e-001	-7.463781e-001
2919138.000	6.683099e-001	-7.475445e-001
2925132.000	6.672515e-001	-7.484699e-001
2931126.000	6.661087e-001	-7.496922e-001
2937120.000	6.647460e-001	-7.506693e-001
2943114.000	6.638189e-001	-7.517621e-001
2949108.000	6.627439e-001	-7.525862e-001
2955102.000	6.617100e-001	-7.537773e-001
2961096.000	6.602409e-001	-7.550346e-001
2967090.000	6.592631e-001	-7.556226e-001
2973084.000	6.581984e-001	-7.565319e-001
2979078.000	6.570158e-001	-7.578507e-001
2985072.000	6.560605e-001	-7.585497e-001
2991066.000	6.545230e-001	-7.596118e-001
2997060.000	6.536637e-001	-7.606123e-001
3003054.000	6.524698e-001	-7.618816e-001
3009048.000	6.508944e-001	-7.627531e-001
3015042.000	6.498166e-001	-7.637081e-001
3021036.000	6.488644e-001	-7.645086e-001
3027030.000	6.477635e-001	-7.655762e-001
3033024.000	6.464066e-001	-7.667099e-001
3039018.000	6.452864e-001	-7.674954e-001
3045012.000	6.442893e-001	-7.687818e-001
3051006.000	6.429384e-001	-7.696180e-001
3057000.000	6.418746e-001	-7.704285e-001
3062994.000	6.405741e-001	-7.715040e-001
3068988.000	6.398704e-001	-7.724081e-001
3074982.000	6.381711e-001	-7.733913e-001
3080976.000	6.369035e-001	-7.745418e-001
3086970.000	6.359770e-001	-7.752585e-001
3092964.000	6.348583e-001	-7.762837e-001
3098958.000	6.338320e-001	-7.776113e-001
3104952.000	6.323278e-001	-7.781442e-001
3110946.000	6.313588e-001	-7.790236e-001
3116940.000	6.300138e-001	-7.801267e-001
3122934.000	6.289259e-001	-7.812226e-001
3128928.000	6.277771e-001	-7.820881e-001
3134922.000	6.266384e-001	-7.826385e-001
3140916.000	6.253838e-001	-7.838283e-001
3146910.000	6.243535e-001	-7.845336e-001
3152904.000	6.232457e-001	-7.858527e-001
3158898.000	6.219623e-001	-7.868146e-001
3164892.000	6.207085e-001	-7.878082e-001
3170886.000	6.199147e-001	-7.886747e-001
3176880.000	6.186410e-001	-7.894189e-001
3182874.000	6.172430e-001	-7.901907e-001
3188868.000	6.159924e-001	-7.910369e-001
3194862.000	6.147699e-001	-7.920296e-001
3200856.000	6.140258e-001	-7.932385e-001
3206850.000	6.125469e-001	-7.940607e-001
3212844.000	6.115770e-001	-7.950529e-001
3218838.000	6.103641e-001	-7.959324e-001
3224832.000	6.090189e-001	-7.969425e-001
3230826.000	6.078866e-001	-7.978370e-001
3236820.000	6.066331e-001	-7.986266e-001
3242814.000	6.054259e-001	-7.992858e-001
3248808.000	6.044085e-001	-8.004258e-001
3254802.000	6.031362e-001	-8.010709e-001
3260796.000	6.018802e-001	-8.017993e-001
3266790.000	6.008292e-001	-8.032096e-001
3272784.000	5.996750e-001	-8.040177e-001
3278778.000	5.983502e-001	-8.047847e-001
3284772.000	5.973800e-001	-8.054232e-001
3290766.000	5.960767e-001	-8.065884e-001
3296760.000	5.946624e-001	-8.074105e-001
3302754.000	5.935488e-001	-8.081688e-001
3308748.000	5.924075e-001	-8.091873e-001
3314742.000	5.912060e-001	-8.100007e-001
3320736.000	5.901497e-001	-8.106044e-001
3326730.000	5.887712e-001	-8.116537e-001
3332724.000	5.877444e-001	-8.128812e-001
3338718.000	5.866251e-001	-8.133711e-001
3344712.000	5.855309e-001	-8.140990e-001
3350706.000	5.842592e-001	-8.152957e-001
3356700.000	5.830848e-001	-8.159624e-001
3362694.000	5.819724e-001	-8.169364e-001
3368688.000	5.807537e-001	-8.178846e-001
3374682.000	5.792945e-001	-8.184567e-001
3380676.000	5.784701e-001	-8.191533e-001
3386670.000	5.771116e-001	-8.202735e-001
3392664.000	5.758619e-001	-8.208795e-001
3398658.000	5.748468e-001	-8.218454e-001
3404652.000	5.737601e-001	-8.227237e-001
3410646.000	5.723359e-001	-8.233454e-001
3416640.000	5.713560e-001	-8.242117e-001
3422634.000	5.700689e-001	-8.253090e-001
3428628.000	5.687999e-001	-8.260879e-001
3434622.000	5.675806e-001	-8.269029e-001
3440616.000	5.666087e-001	-8.276744e-001
3446610.000	5.652151e-001	-8.285308e-001
3452604.000	5.641048e-001	-8.294141e-001
3458598.000	5.628871e-001	-8.301953e-001
3464592.000	5.617182e-001	-8.310133e-001
3470586.000	5.602834e-001	-8.316365e-001
3476580.000	5.593257e-001	-8.323906e-001
3482574.000	5.581592e-001	-8.333089e-001
3488568.000	5.569403e-001	-8.338775e-001
3494562.000	5.557902e-001	-8.349405e-001
3500556.000	5.543004e-001	-8.356669e-001
3506550.000	5.534168e-001	-8.364301e-001
3512544.000	5.520162e-001	-8.373399e-001
3518538.000	5.509262e-001	-8.379202e-001
3524532.000	5.495504e-001	-8.387904e-001
3530526.000	5.484465e-001	-8.395255e-001
3536520.000	5.472863e-001	-8.402428e-001
3542514.000	5.460491e-001	-8.412205e-001
3548508.000	5.448606e-001	-8.420088e-001
3554502.000	5.437193e-001	-8.425263e-001
3560496.000	5.423576e-001	-8.436447e-001
3566490.000	5.413979e-001	-8.439690e-001
3572484.000	5.399846e-001	-8.447943e-001
3578478.000	5.388167e-001	-8.458864e-001
3584472.000	5.375649e-001	-8.464599e-001
3590466.000	5.364671e-001	-8.470761e-001
3596460.000	5.355017e-001	-8.481735e-001
3602454.000	5.342787e-001	-8.486691e-001
3608448.000	5.328814e-001	-8.496645e-001
3614442.000	5.317813e-001	-8.502305e-001
3620436.000	5.304364e-001	-8.509330e-001
3626430.000	5.290682e-001	-8.518197e-001
3632424.000	5.280994e-001	-8.524857e-001
3638418.000	5.271845e-001	-8.532285e-001
3644412.000	5.258215e-001	-8.542108e-001
3650406.000	5.246072e-001	-8.547381e-001
3656400.000	5.232528e-001	-8.553322e-001
3662394.000	5.220132e-001	-8.562635e-001
3668388.000	5.211075e-001	-8.568189e-001
3674382.000	5.196589e-001	-8.574488e-001
3680376.000	5.185737e-001	-8.580062e-001
3686370.000	5.172943e-001	-8.591571e-001
3692364.000	5.162389e-001	-8.597529e-001
3698358.000	5.152510e-001	-8.606492e-001
3704352.000	5.136375e-001	-8.615290e-001
3710346.000	5.123936e-001	-8.620216e-001
3716340.000	5.113895e-001	-8.629516e-001
3722334.000	5.100474e-001	-8.631145e-001
3728328.000	5.088991e-001	-8.642220e-001
3734322.000	5.078439e-001	-8.648402e-001
3740316.000	5.065363e-001	-8.654624e-001
3746310.000	5.052226e-001	-8.663330e-001
3752304.000	5.042684e-001	-8.667295e-001
3758298.000	5.030765e-001	-8.675534e-001
3764292.000	5.015633e-001	-8.682263e-001
3770286.000	5.004815e-001	-8.692699e-001
3776280.000	4.994608e-001	-8.695679e-001
3782274.000	4.979611e-001	-8.705113e-001
3788268.000	4.970919e-001	-8.711987e-001
3794262.000	4.956477e-001	-8.717310e-001
3800256.000	4.945344e-001	-8.724772e-001
3806250.000	4.935282e-001	-8.732849e-001
3812244.000	4.921525e-001	-8.736095e-001
3818238.000	4.909162e-001	-8.743009e-001
3824232.000	4.897646e-001	-8.749775e-001
3830226.000	4.886324e-001	-8.756712e-001
3836220.000	4.871157e-001	-8.763915e-001
3842214.000	4.862296e-001	-8.770017e-001
3848208.000	4.849654e-001	-8.777063e-001
3854202.000	4.836681e-001	-8.788226e-001
3860196.000	4.827300e-001	-8.792797e-001
3866190.000	4.813812e-001	-8.798591e-001
3872184.000	4.800956e-001	-8.803999e-001
3878178.000	4.791076e-001	-8.810993e-001
3884172.000	4.779888e-001	-8.815648e-001
3890166.000	4.765977e-001	-8.821040e-001
3896160.000	4.756173e-001	-8.828134e-001
3902154.000	4.744551e-001	-8.835484e-001
3908148.000	4.729415e-001	-8.843854e-001
3914142.000	4.718506e-001	-8.848316e-001
3920136.000	4.707641e-001	-8.856053e-001
3926130.000	4.695381e-001	-8.860960e-001
3932124.000	4.682169e-001	-8.867172e-001
3938118.000	4.670772e-001	-8.873438e-001
3944112.000	4.659111e-001	-8.880986e-001
3950106.000	4.648096e-001	-8.886488e-001
3956100.000	4.636037e-001	-8.891761e-001
3962094.000	4.625597e-001	-8.898703e-001
3968088.000	4.610862e-001	-8.907472e-001
3974082.000	4.597062e-001	-8.912046e-001
3980076.000	4.585966e-001	-8.917551e-001
3986070.000	4.574408e-001	-8.924836e-001
3992064.000	4.564184e-001	-8.931298e-001
3998058.000	4.549020e-001	-8.936875e-001
4004052.000	4.539237e-001	-8.942604e-001
4010046.000	4.526446e-001	-8.949073e-001
4016040.000	4.513863e-001	-8.954880e-001
4022034.000	4.501295e-001	-8.960258e-001
4028028.000	4.492468e-001	-8.969885e-001
4034022.000	4.480680e-001	-8.974784e-001
4040016.000	4.467353e-001	-8.977444e-001
4046010.000	4.455699e-001	-8.983973e-001
4052004.000	4.445843e-001	-8.988248e-001
4057998.000	4.431228e-001	-8.994818e-001
4063992.000	4.416030e-001	-9.001990e-001
4069986.000	4.407246e-001	-9.007636e-001
4075980.000	4.397994e-001	-9.012999e-001
4081974.000	4.382513e-001	-9.020405e-001
4087968.000	4.371479e-001	-9.023384e-001
4093962.000	4.355840e-001	-9.029971e-001
4099956.000	4.345460e-001	-9.038115e-001
4105950.000	4.334615e-001	-9.041310e-001
4111944.000	4.322530e-001	-9.048730e-001
4117938.000	4.310945e-001	-9.054163e-001
4123932.000	4.300760e-001	-9.057960e-001
4129926.000	4.286882e-001	-9.063977e-001
4135920.000	4.275453e-001	-9.072305e-001
4141914.000	4.263413e-001	-9.075040e-001
4147908.000	4.252524e-001	-9.082262e-001
4153902.000	4.240078e-001	-9.088167e-001
4159896.000	4.226216e-001	-9.092333e-001
4165890.000	4.215346e-001	-9.097784e-001
4171884.000	4.205611e-001	-9.102861e-001
4177878.000	4.191598e-001	-9.109865e-001
4183872.000	4.180915e-001	-9.113721e-001
4189866.000	4.172566e-001	-9.119877e-001
4195860.000	4.156352e-001	-9.126896e-001
4201854.000	4.145542e-001	-9.132785e-001
4207848.000	4.135176e-001	-9.135841e-001
4213842.000	4.119670e-001	-9.143262e-001
4219836.000	4.106053e-001	-9.148076e-001
4225830.000	4.098892e-001	-9.153871e-001
4231824.000	4.085295e-001	-9.159213e-001
4237818.000	4.073693e-001	-9.162015e-001
4243812.000	4.058862e-001	-9.169984e-001
4249806.000	4.048331e-001	-9.173586e-001
4255800.000	4.037225e-001	-9.178502e-001
4261794.000	4.026179e-001	-9.187607e-001
4267788.000	4.015663e-001	-9.189317e-001
4273782.000	4.002869e-001	-9.196866e-001
4279776.000	3.991589e-001	-9.199724e-001
4285770.000	3.980964e-001	-9.202399e-001
4291764.000	3.966583e-001	-9.209330e-001
4297758.000	3.955758e-001	-9.212060e-001
4303752.000	3.943708e-001	-9.220944e-001
4309746.000	3.928535e-001	-9.224660e-001
4315740.000	3.917711e-001	-9.228881e-001
4321734.000	3.908103e-001	-9.234983e-001
4327728.000	3.897511e-001	-9.238962e-001
4333722.000	3.883597e-001	-9.245073e-001
4339716.000	3.874868e-001	-9.249678e-001
4345710.000	3.858402e-001	-9.255313e-001
4351704.000	3.848883e-001	-9.261200e-001
4357698.000	3.840454e-001	-9.265590e-001
4363692.000	3.825943e-001	-9.269665e-001
4369686.000	3.811627e-001	-9.272755e-001
4375680.000	3.802836e-001	-9.277610e-001
4381674.000	3.791552e-001	-9.283892e-001
4387668.000	3.777923e-001	-9.288847e-001
4393662.000	3.768588e-001	-9.292916e-001
4399656.000	3.755786e-001	-9.299701e-001
4405650.000	3.742685e-001	-9.302613e-001
4411644.000	3.731429e-001	-9.308204e-001
4417638.000	3.720623e-001	-9.312947e-001
4423632.000	3.709452e-001	-9.316083e-001
4429626.000	3.697246e-001	-9.323542e-001
4435620.000	3.682436e-001	-9.325517e-001
4441614.000	3.673239e-001	-9.331494e-001
4447608.000	3.658662e-001	-9.335445e-001
4453602.000	3.649322e-001	-9.341734e-001
4459596.000	3.637527e-001	-9.344103e-001
4465590.000	3.624612e-001	-9.351409e-001
4471584.000	3.614570e-001	-9.354293e-001
4477578.000	3.599757e-001	-9.356253e-001
4483572.000	3.590822e-001	-9.364359e-001
4489566.000	3.575780e-001	-9.367624e-001
4495560.000	3.566787e-001	-9.369680e-001
4501554.000	3.558653e-001	-9.374664e-001
4507548.000	3.541560e-001	-9.379709e-001
4513542.000	3.532047e-001	-9.384059e-001
4519536.000	3.516193e-001	-9.389277e-001
4525530.000	3.509187e-001	-9.392734e-001
4531524.000	3.496175e-001	-9.399655e-001
4537518.000	3.487149e-001	-9.403922e-001
4543512.000	3.473991e-001	-9.405627e-001
4549506.000	3.460792e-001	-9.409180e-001
4555500.000	3.448086e-001	-9.415976e-001
4561494.000	3.440211e-001	-9.419955e-001
4567488.000	3.427251e-001	-9.424986e-001
4573482.000	3.415702e-001	-9.428691e-001
4579476.000	3.403697e-001	-9.432655e-001
4585470.000	3.393315e-001	-9.435884e-001
4591464.000	3.382263e-001	-9.439269e-001
4597458.000	3.366510e-001	-9.444341e-001
4603452.000	3.356262e-001	-9.449272e-001
4609446.000	3.345116e-001	-9.452283e-001
4615440.000	3.333653e-001	-9.457194e-001
4621434.000	3.321100e-001	-9.459891e-001
4627428.000	3.309686e-001	-9.465779e-001
4633422.000	3.300757e-001	-9.470300e-001
4639416.000	3.285906e-001	-9.473833e-001
4645410.000	3.274560e-001	-9.475697e-001
4651404.000	3.265362e-001	-9.481504e-001
4657398.000	3.253285e-001	-9.483348e-001
4663392.000	3.240109e-001	-9.487443e-001
4669386.000	3.231312e-001	-9.493650e-001
4675380.000	3.216697e-001	-9.498161e-001
4681374.000	3.205558e-001	-9.499925e-001
4687368.000	3.196112e-001	-9.504604e-001
4693362.000	3.184370e-001	-9.507818e-001
4699356.000	3.172277e-001	-9.510228e-001
4705350.000	3.164100e-001	-9.515129e-001
4711344.000	3.147061e-001	-9.515955e-001
4717338.000	3.138635e-001	-9.525554e-001
4723332.000	3.125097e-001	-9.528829e-001
4729326.000	3.116153e-001	-9.530131e-001
4735320.000	3.102313e-001	-9.533375e-001
4741314.000	3.093484e-001	-9.537466e-001
4747308.000	3.081181e-001	-9.541499e-001
4753302.000	3.068634e-001	-9.545212e-001
4759296.000	3.057710e-001	-9.548649e-001
4765290.000	3.042597e-001	-9.552627e-001
4771284.000	3.036756e-001	-9.557024e-001
4777278.000	3.021475e-001	-9.559205e-001
4783272.000	3.011072e-001	-9.562168e-001
4789266.000	2.997634e-001	-9.566552e-001
4795260.000	2.990007e-001	-9.568994e-001
4801254.000	2.976387e-001	-9.576436e-001
4807248.000	2.965379e-001	-9.577998e-001
4813242.000	2.953207e-001	-9.582604e-001
4819236.000	2.940536e-001	-9.584679e-001
4825230.000	2.928814e-001	-9.587863e-001
4831224.000	2.916193e-001	-9.591649e-001
4837218.000	2.911112e-001	-9.592899e-001
4843212.000	2.894955e-001	-9.594917e-001
4849206.000	2.883614e-001	-9.600909e-001
4855200.000	2.872244e-001	-9.604997e-001
4861194.000	2.862832e-001	-9.606660e-001
4867188.000	2.850546e-001	-9.611937e-001
4873182.000	2.838689e-001	-9.614254e-001
4879176.000	2.827844e-001	-9.616152e-001
4885170.000	2.816854e-001	-9.621166e-001
4891164.000	2.803472e-001	-9.622874e-001
4897158.000	2.792326e-001	-9.627431e-001
4903152.000	2.780548e-001	-9.631723e-001
4909146.000	2.769107e-001	-9.634689e-001
4915140.000	2.761546e-001	-9.638161e-001
4921134.000	2.746017e-001	-9.642539e-001
4927128.000	2.738180e-001	-9.645494e-001
4933122.000	2.724720e-001	-9.645772e-001
4939116.000	2.714778e-001	-9.649125e-001
4945110.000	2.703714e-001	-9.653212e-001
4951104.000	2.691269e-001	-9.655958e-001
4957098.000	2.678988e-001	-9.659734e-001
4963092.000	2.667991e-001	-9.664000e-001
4969086.000	2.656431e-001	-9.666495e-001
4975080.000	2.646688e-001	-9.670328e-001
4981074.000	2.635856e-001	-9.673181e-001
4987068.000	2.622921e-001	-9.675539e-001
4993062.000	2.609613e-001	-9.679260e-001
4999056.000	2.601370e-001	-9.681316e-001
5005050.000	2.590544e-001	-9.683539e-001
5011044.000	2.579345e-001	-9.685191e-001
5017038.000	2.564662e-001	-9.690543e-001
5023032.000	2.558890e-001	-9.693529e-001
5029026.000	2.545440e-001	-9.698105e-001
5035020.000	2.532703e-001	-9.701672e-001
5041014.000	2.523085e-001	-9.699514e-001
5047008.000	2.512991e-001	-9.705853e-001
5053002.000	2.500096e-001	-9.710569e-001
5058996.000	2.489951e-001	-9.712413e-001
5064990.000	2.481277e-001	-9.713706e-001
5070984.000	2.466253e-001	-9.716686e-001
5076978.000	2.456161e-001	-9.716957e-001
5082972.000	2.444132e-001	-9.723109e-001
5088966.000	2.434502e-001	-9.723481e-001
5094960.000	2.425318e-001	-9.729940e-001
5100954.000	2.410408e-001	-9.732058e-001
5106948.000	2.401006e-001	-9.733042e-001
5112942.000	2.389063e-001	-9.735901e-001
5118936.000	2.378158e-001	-9.738011e-001
5124930.000	2.364946e-001	-9.741693e-001
5130924.000	2.357336e-001	-9.743354e-001
5136918.000	2.345753e-001	-9.744448e-001
5142912.000	2.331638e-001	-9.745935e-001
5148906.000	2.322822e-001	-9.751533e-001
5154900.000	2.309983e-001	-9.754636e-001
5160894.000	2.298117e-001	-9.752761e-001
5166888.000	2.289479e-001	-9.756397e-001
5172882.000	2.275674e-001	-9.760916e-001
5178876.000	2.266954e-001	-9.763731e-001
5184870.000	2.256558e-001	-9.767600e-001
5190864.000	2.246399e-001	-9.769811e-001
5196858.000	2.235094e-001	-9.771354e-001
5202852.000	2.225161e-001	-9.776259e-001
5208846.000	2.212240e-001	-9.777340e-001
5214840.000	2.200365e-001	-9.781041e-001
5220834.000	2.193305e-001	-9.782683e-001
5226828.000	2.179492e-001	-9.782447e-001
5232822.000	2.171255e-001	-9.784431e-001
5238816.000	2.157630e-001	-9.791011e-001
5244810.000	2.147015e-001	-9.789411e-001
5250804.000	2.134627e-001	-9.796207e-001
5256798.000	2.125317e-001	-9.795468e-001
5262792.000	2.115848e-001	-9.798065e-001
5268786.000	2.101345e-001	-9.799481e-001
5274780.000	2.090753e-001	-9.804768e-001
5280774.000	2.079635e-001	-9.802325e-001
5286768.000	2.069706e-001	-9.807868e-001
5292762.000	2.058877e-001	-9.810310e-001
5298756.000	2.045441e-001	-9.809787e-001
5304750.000	2.039353e-001	-9.812881e-001
5310744.000	2.026451e-001	-9.816947e-001
5316738.000	2.015518e-001	-9.819849e-001
5322732.000	2.003687e-001	-9.821644e-001
5328726.000	1.995753e-001	-9.824321e-001
5334720.000	1.980176e-001	-9.828174e-001
5340714.000	1.971292e-001	-9.826246e-001
5346708.000	1.962361e-001	-9.828304e-001
5352702.000	1.947850e-001	-9.831688e-001
5358696.000	1.940753e-001	-9.835420e-001
5364690.000	1.928872e-001	-9.837067e-001
5370684.000	1.915996e-001	-9.836907e-001
5376678.000	1.909234e-001	-9.840409e-001
5382672.000	1.896566e-001	-9.843142e-001
5388666.000	1.883935e-001	-9.844317e-001
5394660.000	1.875929e-001	-9.845034e-001
5400654.000	1.865872e-001	-9.848667e-001
5406648.000	1.850491e-001	-9.852844e-001
5412642.000	1.841088e-001	-9.854190e-001
5418636.000	1.832603e-001	-9.855453e-001
5424630.000	1.821129e-001	-9.856499e-001
5430624.000	1.808399e-001	-9.860126e-001
5436618.000	1.797697e-001	-9.861087e-001
5442612.000	1.786507e-001	-9.862498e-001
5448606.000	1.776970e-001	-9.862504e-001
5454600.000	1.767399e-001	-9.870228e-001
5460594.000	1.757376e-001	-9.867520e-001
5466588.000	1.743148e-001	-9.871191e-001
5472582.000	1.733685e-001	-9.872093e-001
5478576.000	1.723322e-001	-9.873050e-001
5484570.000	1.712497e-001	-9.874244e-001
5490564.000	1.702279e-001	-9.879212e-001
5496558.000	1.695818e-001	-9.880145e-001
5502552.000	1.679911e-001	-9.881760e-001
5508546.000	1.668474e-001	-9.881398e-001
5514540.000	1.661790e-001	-9.883529e-001
5520534.000	1.649708e-001	-9.886896e-001
5526528.000	1.636211e-001	-9.886333e-001
5532522.000	1.631018e-001	-9.889757e-001
5538516.000	1.616237e-001	-9.893833e-001
5544510.000	1.607385e-001	-9.896182e-001
5550504.000	1.596460e-001	-9.894612e-001
5556498.000	1.585930e-001	-9.896634e-001
5562492.000	1.576923e-001	-9.899664e-001
5568486.000	1.562244e-001	-9.899033e-001
5574480.000	1.554044e-001	-9.903504e-001
5580474.000	1.542901e-001	-9.903524e-001
5586468.000	1.533437e-001	-9.905400e-001
5592462.000	1.524123e-001	-9.906784e-001
5598456.000	1.508952e-001	-9.907134e-001
5604450.000	1.502141e-001	-9.909001e-001
5610444.000	1.490822e-001	-9.913191e-001
5616438.000	1.477622e-001	-9.913353e-001
5622432.000	1.469452e-001	-9.916507e-001
5628426.000	1.458130e-001	-9.914272e-001
5634420.000	1.446212e-001	-9.916048e-001
5640414.000	1.437130e-001	-9.919516e-001
5646408.000	1.427020e-001	-9.921214e-001
5652402.000	1.420331e-001	-9.921439e-001
5658396.000	1.403857e-001	-9.923492e-001
5664390.000	1.397737e-001	-9.923939e-001
5670384.000	1.383905e-001	-9.925520e-001
5676378.000	1.374751e-001	-9.928675e-001
5682372.000	1.367081e-001	-9.928017e-001
5688366.000	1.359571e-001	-9.928832e-001
5694360.000	1.343576e-001	-9.929584e-001
5700354.000	1.334528e-001	-9.935187e-001
5706348.000	1.321457e-001	-9.932948e-001
5712342.000	1.312633e-001	-9.934597e-001
5718336.000	1.302357e-001	-9.936773e-001
5724330.000	1.290522e-001	-9.941182e-001
5730324.000	1.282478e-001	-9.939014e-001
5736318.000	1.270760e-001	-9.939393e-001
5742312.000	1.261290e-001	-9.940069e-001
5748306.000	1.251888e-001	-9.945506e-001
5754300.000	1.238938e-001	-9.944984e-001
5760294.000	1.230016e-001	-9.946087e-001
5766288.000	1.220508e-001	-9.946225e-001
5772282.000	1.209897e-001	-9.948880e-001
5778276.000	1.199400e-001	-9.945474e-001
5784270.000	1.189032e-001	-9.950415e-001
5790264.000	1.179625e-001	-9.949147e-001
5796258.000	1.167620e-001	-9.952438e-001
5802252.000	1.157286e-001	-9.951419e-001
5808246.000	1.146248e-001	-9.955627e-001
5814240.000	1.136116e-001	-9.954197e-001
5820234.000	1.129357e-001	-9.956398e-001
5826228.000	1.119794e-001	-9.958737e-001
5832222.000	1.106849e-001	-9.957545e-001
5838216.000	1.101614e-001	-9.962262e-001
5844210.000	1.087854e-001	-9.960846e-001
5850204.000	1.078415e-001	-9.960549e-001
5856198.000	1.063123e-001	-9.965383e-001
5862192.000	1.055905e-001	-9.965787e-001
5868186.000	1.045241e-001	-9.964650e-001
5874180.000	1.037637e-001	-9.965815e-001
5880174.000	1.028053e-001	-9.968411e-001
5886168.000	1.015944e-001	-9.968083e-001
5892162.000	1.007837e-001	-9.968807e-001
5898156.000	9.971033e-002	-9.971617e-001
5904150.000	9.892864e-002	-9.973355e-001
5910144.000	9.754820e-002	-9.972521e-001
5916138.000	9.696200e-002	-9.975322e-001
5922132.000	9.585090e-002	-9.973422e-001
5928126.000	9.468242e-002	-9.974526e-001
5934120.000	9.343945e-002	-9.973533e-001
5940114.000	9.271466e-002	-9.976260e-001
5946108.000	9.179610e-002	-9.979959e-001
5952102.000	9.060227e-002	-9.980368e-001
5958096.000	8.952847e-002	-9.978504e-001
5964090.000	8.876889e-002	-9.982550e-001
5970084.000	8.748839e-002	-9.981776e-001
5976078.000	8.643685e-002	-9.981049e-001
5982072.000	8.570405e-002	-9.981411e-001
5988066.000	8.471262e-002	-9.985585e-001
5994060.000	8.370301e-002	-9.983590e-001
6000054.000	8.258513e-002	-9.985398e-001
6006048.000	8.163841e-002	-9.986260e-001
6012042.000	8.055007e-002	-9.987389e-001
6018036.000	7.965148e-002	-9.990221e-001
6024030.000	7.851770e-002	-9.989524e-001
6030024.000	7.739185e-002	-9.990183e-001
6036018.000	7.646864e-002	-9.990570e-001
6042012.000	7.566992e-002	-9.991142e-001
6048006.000	7.479861e-002	-9.992750e-001
6054000.000	7.387631e-002	-9.993562e-001
6059994.000	7.278265e-002	-9.992827e-001
6065988.000	7.176153e-002	-9.995911e-001
6071982.000	7.067124e-002	-9.995100e-001
6077976.000	6.982571e-002	-9.994730e-001
6083970.000	6.876252e-002	-9.995830e-001
6089964.000	6.781440e-002	-9.996110e-001
6095958.000	6.669917e-002	-9.995843e-001
6101952.000	6.570546e-002	-9.995642e-001
6107946.000	6.487641e-002	-9.999540e-001
6113940.000	6.383933e-002	-1.000077e+000
6119934.000	6.288579e-002	-1.000110e+000
6125928.000	6.191558e-002	-1.000113e+000
6131922.000	6.073813e-002	-1.000207e+000
6137916.000	5.982947e-002	-1.000492e+000
6143910.000	5.883552e-002	-1.000145e+000
6149904.000	5.789968e-002	-1.000297e+000
6155898.000	5.686236e-002	-1.000317e+000
6161892.000	5.590398e-002	-1.000588e+000
6167886.000	5.473146e-002	-1.000696e+000
6173880.000	5.419062e-002	-1.000504e+000
6179874.000	5.275587e-002	-1.000416e+000
6185868.000	5.180443e-002	-1.000592e+000
6191862.000	5.111705e-002	-1.000695e+000
6197856.000	5.028859e-002	-1.000736e+000
6203850.000	4.930665e-002	-1.000855e+000
6209844.000	4.798529e-002	-1.000822e+000
6215838.000	4.713636e-002	-1.000458e+000
6221832.000	4.653372e-002	-1.000726e+000
6227826.000	4.517898e-002	-1.000989e+000
6233820.000	4.456583e-002	-1.001081e+000
6239814.000	4.350305e-002	-1.001127e+000
6245808.000	4.254610e-002	-1.000942e+000
6251802.000	4.121455e-002	-1.001096e+000
6257796.000	4.056867e-002	-1.001239e+000
6263790.000	3.948355e-002	-1.001042e+000
6269784.000	3.843743e-002	-1.001162e+000
6275778.000	3.767895e-002	-1.001302e+000
6281772.000	3.674202e-002	-1.001694e+000
6287766.000	3.573493e-002	-1.001115e+000
6293760.000	3.479500e-002	-1.001487e+000
6299754.000	3.374364e-002	-1.001450e+000
6305748.000	3.284691e-002	-1.001234e+000
6311742.000	3.213900e-002	-1.001410e+000
6317736.000	3.094175e-002	-1.001350e+000
6323730.000	3.002065e-002	-1.001069e+000
6329724.000	2.885263e-002	-1.001515e+000
6335718.000	2.829759e-002	-1.001690e+000
6341712.000	2.705758e-002	-1.001354e+000
6347706.000	2.600529e-002	-1.001633e+000
6353700.000	2.515409e-002	-1.001486e+000
6359694.000	2.436934e-002	-1.001632e+000
6365688.000	2.336182e-002	-1.001376e+000
6371682.000	2.241526e-002	-1.001515e+000
6377676.000	2.136542e-002	-1.001659e+000
6383670.000	2.044941e-002	-1.001730e+000
6389664.000	1.977499e-002	-1.001695e+000
6395658.000	1.869017e-002	-1.001579e+000
6401652.000	1.772774e-002	-1.001794e+000
6407646.000	1.654932e-002	-1.001530e+000
6413640.000	1.549406e-002	-1.001601e+000
6419634.000	1.490352e-002	-1.001572e+000
6425628.000	1.393086e-002	-1.001833e+000
6431622.000	1.292521e-002	-1.001874e+000
6437616.000	1.200406e-002	-1.002007e+000
6443610.000	1.116835e-002	-1.001725e+000
6449604.000	1.007760e-002	-1.001830e+000
6455598.000	9.548999e-003	-1.001878e+000
6461592.000	8.331734e-003	-1.001731e+000
6467586.000	7.627598e-003	-1.001872e+000
6473580.000	6.455429e-003	-1.001594e+000
6479574.000	5.560832e-003	-1.001692e+000
6485568.000	4.820069e-003	-1.001942e+000
6491562.000	3.417577e-003	-1.001590e+000
6497556.000	2.611737e-003	-1.001889e+000
6503550.000	1.940544e-003	-1.001566e+000
6509544.000	7.634902e-004	-1.001786e+000
6515538.000	-4.294655e-005	-1.001821e+000
6521532.000	-9.684566e-004	-1.002099e+000
6527526.000	-1.682326e-003	-1.001949e+000
6533520.000	-2.500970e-003	-1.001420e+000
6539514.000	-3.874829e-003	-1.001776e+000
6545508.000	-4.555116e-003	-1.001769e+000
6551502.000	-5.268030e-003	-1.001788e+000
6557496.000	-6.413470e-003	-1.001773e+000
6563490.000	-7.567797e-003	-1.001768e+000
6569484.000	-8.468319e-003	-1.001692e+000
6575478.000	-9.000227e-003	-1.001760e+000
6581472.000	-1.011312e-002	-1.001643e+000
6587466.000	-1.123998e-002	-1.001906e+000
6593460.000	-1.173813e-002	-1.001825e+000
6599454.000	-1.268486e-002	-1.001627e+000
6605448.000	-1.365500e-002	-1.001669e+000
6611442.000	-1.482104e-002	-1.001580e+000
6617436.000	-1.538040e-002	-1.001508e+000
6623430.000	-1.627761e-002	-1.001560e+000
6629424.000	-1.738162e-002	-1.001518e+000
6635418.000	-1.829236e-002	-1.001475e+000
6641412.000	-1.903368e-002	-1.001433e+000
6647406.000	-2.005254e-002	-1.001685e+000
6653400.000	-2.075819e-002	-1.001681e+000
6659394.000	-2.192190e-002	-1.001485e+000
6665388.000	-2.265439e-002	-1.001469e+000
6671382.000	-2.367862e-002	-1.001275e+000
6677376.000	-2.445280e-002	-1.001395e+000
6683370.000	-2.566887e-002	-1.001480e+000
6689364.000	-2.643985e-002	-1.001252e+000
6695358.000	-2.723641e-002	-1.001546e+000
6701352.000	-2.838288e-002	-1.001200e+000
6707346.000	-2.910741e-002	-1.001317e+000
6713340.000	-2.997868e-002	-1.000981e+000
6719334.000	-3.094508e-002	-1.001012e+000
6725328.000	-3.175023e-002	-1.001123e+000
6731322.000	-3.248357e-002	-1.001173e+000
6737316.000	-3.358612e-002	-1.001154e+000
6743310.000	-3.436121e-002	-1.000850e+000
6749304.000	-3.535165e-002	-1.001283e+000
6755298.000	-3.615128e-002	-1.000913e+000
6761292.000	-3.710945e-002	-1.001076e+000
6767286.000	-3.816018e-002	-1.000906e+000
6773280.000	-3.874833e-002	-1.000771e+000
6779274.000	-3.957440e-002	-1.000765e+000
6785268.000	-4.034066e-002	-1.000628e+000
6791262.000	-4.136495e-002	-1.000867e+000
6797256.000	-4.234307e-002	-1.000804e+000
6803250.000	-4.323335e-002	-1.000726e+000
6809244.000	-4.393467e-002	-1.000724e+000
6815238.000	-4.492863e-002	-1.000652e+000
6821232.000	-4.582430e-002	-1.000556e+000
6827226.000	-4.694394e-002	-1.000551e+000
6833220.000	-4.748560e-002	-1.000282e+000
6839214.000	-4.881612e-002	-1.000520e+000
6845208.000	-4.950296e-002	-1.000419e+000
6851202.000	-5.020735e-002	-1.000232e+000
6857196.000	-5.116629e-002	-1.000564e+000
6863190.000	-5.242035e-002	-1.000430e+000
6869184.000	-5.310035e-002	-1.000039e+000
6875178.000	-5.386831e-002	-1.000002e+000
6881172.000	-5.461651e-002	-1.000409e+000
6887166.000	-5.554981e-002	-1.000003e+000
6893160.000	-5.649814e-002	-1.000029e+000
6899154.000	-5.756696e-002	-1.000185e+000
6905148.000	-5.816174e-002	-1.000001e+000
6911142.000	-5.891547e-002	-9.998422e-001
6917136.000	-5.985655e-002	-9.997322e-001
6923130.000	-6.078369e-002	-9.996833e-001
6929124.000	-6.165746e-002	-9.996093e-001
6935118.000	-6.259846e-002	-9.996922e-001
6941112.000	-6.341195e-002	-9.994831e-001
6947106.000	-6.449590e-002	-9.994276e-001
6953100.000	-6.530249e-002	-9.994658e-001
6959094.000	-6.595560e-002	-9.993138e-001
6965088.000	-6.678141e-002	-9.994861e-001
6971082.000	-6.776043e-002	-9.989886e-001
6977076.000	-6.841437e-002	-9.992184e-001
6983070.000	-6.939358e-002	-9.991411e-001
6989064.000	-7.028600e-002	-9.992034e-001
6995058.000	-7.128704e-002	-9.990219e-001
7001052.000	-7.193075e-002	-9.985609e-001
7007046.000	-7.283591e-002	-9.989561e-001
7013040.000	-7.375945e-002	-9.989500e-001
7019034.000	-7.445133e-002	-9.988723e-001
7025028.000	-7.550616e-002	-9.985286e-001
7031022.000	-7.627030e-002	-9.987246e-001
7037016.000	-7.672447e-002	-9.988842e-001
7043010.000	-7.803145e-002	-9.983094e-001
7049004.000	-7.856640e-002	-9.986908e-001
7054998.000	-7.966665e-002	-9.985459e-001
7060992.000	-8.052810e-002	-9.982306e-001
7066986.000	-8.129827e-002	-9.983548e-001
7072980.000	-8.217641e-002	-9.982407e-001
7078974.000	-8.287555e-002	-9.982689e-001
7084968.000	-8.365423e-002	-9.980486e-001
7090962.000	-8.479851e-002	-9.979560e-001
7096956.000	-8.524028e-002	-9.978827e-001
7102950.000	-8.616760e-002	-9.978201e-001
7108944.000	-8.737514e-002	-9.979527e-001
7114938.000	-8.794420e-002	-9.974886e-001
7120932.000	-8.894710e-002	-9.971914e-001
7126926.000	-8.958237e-002	-9.974055e-001
7132920.000	-9.052173e-002	-9.972402e-001
7138914.000	-9.131527e-002	-9.973304e-001
7144908.000	-9.230689e-002	-9.971796e-001
7150902.000	-9.309603e-002	-9.973068e-001
7156896.000	-9.370978e-002	-9.973340e-001
7162890.000	-9.442329e-002	-9.967226e-001
7168884.000	-9.575829e-002	-9.968617e-001
7174878.000	-9.627958e-002	-9.968826e-001
7180872.000	-9.754995e-002	-9.966049e-001
7186866.000	-9.822221e-002	-9.966874e-001
7192860.000	-9.893076e-002	-9.965132e-001
7198854.000	-9.964121e-002	-9.964048e-001
7204848.000	-1.007450e-001	-9.964869e-001
7210842.000	-1.012281e-001	-9.962078e-001
7216836.000	-1.021141e-001	-9.961608e-001
7222830.000	-1.028304e-001	-9.960823e-001
7228824.000	-1.038164e-001	-9.962379e-001
7234818.000	-1.048147e-001	-9.960383e-001
7240812.000	-1.055617e-001	-9.958923e-001
7246806.000	-1.063415e-001	-9.958733e-001
7252800.000	-1.073031e-001	-9.953773e-001
7258794.000	-1.079073e-001	-9.954776e-001
7264788.000	-1.090074e-001	-9.955783e-001
7270782.000	-1.096718e-001	-9.955199e-001
7276776.000	-1.105334e-001	-9.953241e-001
7282770.000	-1.115212e-001	-9.952124e-001
7288764.000	-1.121737e-001	-9.949764e-001
7294758.000	-1.128897e-001	-9.950230e-001
7300752.000	-1.135830e-001	-9.949916e-001
7306746.000	-1.144846e-001	-9.949529e-001
7312740.000	-1.152956e-001	-9.947526e-001
7318734.000	-1.162296e-001	-9.946338e-001
7324728.000	-1.168569e-001	-9.947074e-001
7330722.000	-1.178878e-001	-9.944990e-001
7336716.000	-1.186858e-001	-9.944511e-001
7342710.000	-1.191454e-001	-9.943759e-001
7348704.000	-1.201468e-001	-9.941741e-001
7354698.000	-1.210052e-001	-9.942355e-001
7360692.000	-1.215931e-001	-9.941708e-001
7366686.000	-1.224560e-001	-9.936922e-001
7372680.000	-1.235751e-001	-9.937270e-001
7378674.000	-1.241290e-001	-9.936830e-001
7384668.000	-1.246834e-001	-9.936247e-001
7390662.000	-1.257162e-001	-9.935906e-001
7396656.000	-1.265342e-001	-9.934867e-001
7402650.000	-1.270880e-001	-9.932755e-001
7408644.000	-1.279152e-001	-9.932029e-001
7414638.000	-1.289434e-001	-9.930051e-001
7420632.000	-1.300095e-001	-9.930357e-001
7426626.000	-1.304815e-001	-9.930062e-001
7432620.000	-1.312538e-001	-9.928854e-001
7438614.000	-1.320749e-001	-9.925876e-001
7444608.000	-1.327167e-001	-9.927270e-001
7450602.000	-1.336865e-001	-9.923290e-001
7456596.000	-1.341059e-001	-9.922007e-001
7462590.000	-1.354288e-001	-9.922180e-001
7468584.000	-1.362626e-001	-9.921674e-001
7474578.000	-1.369354e-001	-9.919021e-001
7480572.000	-1.375723e-001	-9.917489e-001
7486566.000	-1.383430e-001	-9.920212e-001
7492560.000	-1.393660e-001	-9.916162e-001
7498554.000	-1.399570e-001	-9.912672e-001
7504548.000	-1.406609e-001	-9.912367e-001
7510542.000	-1.414471e-001	-9.913929e-001
7516536.000	-1.425892e-001	-9.914245e-001
7522530.000	-1.431028e-001	-9.909929e-001
7528524.000	-1.440285e-001	-9.909513e-001
7534518.000	-1.447377e-001	-9.908718e-001
7540512.000	-1.456364e-001	-9.906232e-001
7546506.000	-1.462873e-001	-9.904516e-001
7552500.000	-1.470152e-001	-9.904346e-001
7558494.000	-1.474725e-001	-9.904312e-001
7564488.000	-1.484614e-001	-9.904185e-001
7570482.000	-1.492237e-001	-9.899829e-001
7576476.000	-1.501833e-001	-9.897077e-001
7582470.000	-1.506767e-001	-9.897845e-001
7588464.000	-1.515972e-001	-9.898053e-001
7594458.000	-1.524534e-001	-9.897900e-001
7600452.000	-1.532810e-001	-9.892738e-001
7606446.000	-1.543158e-001	-9.891253e-001
7612440.000	-1.548080e-001	-9.893915e-001
7618434.000	-1.555352e-001	-9.890943e-001
7624428.000	-1.565327e-001	-9.890133e-001
7630422.000	-1.571194e-001	-9.887238e-001
7636416.000	-1.578067e-001	-9.887500e-001
7642410.000	-1.584624e-001	-9.888034e-001
7648404.000	-1.594471e-001	-9.886402e-001
7654398.000	-1.600712e-001	-9.883309e-001
7660392.000	-1.609155e-001	-9.883315e-001
7666386.000	-1.616947e-001	-9.881686e-001
7672380.000	-1.621604e-001	-9.880920e-001
7678374.000	-1.630865e-001	-9.878600e-001
7684368.000	-1.639569e-001	-9.878145e-001
7690362.000	-1.648853e-001	-9.874521e-001
7696356.000	-1.656271e-001	-9.874459e-001
7702350.000	-1.665036e-001	-9.870436e-001
7708344.000	-1.670008e-001	-9.873037e-001
7714338.000	-1.677670e-001	-9.871208e-001
7720332.000	-1.686544e-001	-9.869967e-001
7726326.000	-1.691692e-001	-9.867326e-001
7732320.000	-1.701635e-001	-9.868541e-001
7738314.000	-1.706696e-001	-9.864408e-001
7744308.000	-1.715910e-001	-9.864409e-001
7750302.000	-1.721096e-001	-9.861733e-001
7756296.000	-1.730457e-001	-9.862863e-001
7762290.000	-1.737768e-001	-9.861416e-001
7768284.000	-1.746310e-001	-9.859524e-001
7774278.000	-1.751180e-001	-9.855860e-001
7780272.000	-1.761490e-001	-9.857004e-001
7786266.000	-1.767099e-001	-9.853394e-001
7792260.000	-1.774600e-001	-9.854008e-001
7798254.000	-1.781779e-001	-9.852363e-001
7804248.000	-1.792348e-001	-9.848149e-001
7810242.000	-1.798667e-001	-9.845896e-001
7816236.000	-1.804746e-001	-9.845272e-001
7822230.000	-1.812968e-001	-9.847918e-001
7828224.000	-1.820436e-001	-9.845905e-001
7834218.000	-1.828503e-001	-9.843063e-001
7840212.000	-1.837554e-001	-9.840250e-001
7846206.000	-1.839425e-001	-9.840551e-001
7852200.000	-1.848818e-001	-9.839398e-001
7858194.000	-1.858404e-001	-9.837247e-001
7864188.000	-1.864354e-001	-9.833834e-001
7870182.000	-1.871630e-001	-9.834347e-001
7876176.000	-1.878842e-001	-9.834443e-001
7882170.000	-1.886936e-001	-9.832084e-001
7888164.000	-1.892763e-001	-9.831724e-001
7894158.000	-1.901771e-001	-9.826354e-001
7900152.000	-1.908629e-001	-9.828898e-001
7906146.000	-1.916743e-001	-9.826261e-001
7912140.000	-1.923382e-001	-9.824990e-001
7918134.000	-1.929717e-001	-9.825941e-001
7924128.000	-1.937031e-001	-9.822576e-001
7930122.000	-1.942292e-001	-9.819366e-001
7936116.000	-1.953750e-001	-9.817793e-001
7942110.000	-1.958300e-001	-9.819140e-001
7948104.000	-1.966419e-001	-9.815500e-001
7954098.000	-1.973379e-001	-9.813018e-001
7960092.000	-1.980501e-001	-9.813398e-001
7966086.000	-1.986551e-001	-9.813648e-001
7972080.000	-1.996517e-001	-9.809503e-001
7978074.000	-2.004046e-001	-9.810094e-001
7984068.000	-2.007801e-001	-9.810092e-001
7990062.000	-2.016906e-001	-9.809985e-001
7996056.000	-2.022235e-001	-9.805731e-001
8002050.000	-2.029251e-001	-9.804078e-001
8008044.000	-2.038777e-001	-9.801969e-001
8014038.000	-2.045195e-001	-9.797855e-001
8020032.000	-2.050858e-001	-9.796640e-001
8026026.000	-2.061016e-001	-9.793970e-001
8032020.000	-2.066284e-001	-9.796371e-001
8038014.000	-2.076237e-001	-9.791669e-001
8044008.000	-2.081886e-001	-9.791461e-001
8050002.000	-2.091188e-001	-9.791439e-001
8055996.000	-2.098085e-001	-9.786513e-001
8061990.000	-2.101520e-001	-9.787055e-001
8067984.000	-2.110585e-001	-9.784002e-001
8073978.000	-2.116079e-001	-9.781072e-001
8079972.000	-2.125417e-001	-9.780786e-001
8085966.000	-2.130462e-001	-9.778934e-001
8091960.000	-2.137803e-001	-9.781929e-001
8097954.000	-2.146376e-001	-9.776460e-001
8103948.000	-2.152494e-001	-9.775512e-001
8109942.000	-2.159789e-001	-9.774372e-001
8115936.000	-2.163875e-001	-9.772044e-001
8121930.000	-2.171430e-001	-9.771918e-001
8127924.000	-2.179243e-001	-9.769338e-001
8133918.000	-2.190620e-001	-9.765511e-001
8139912.000	-2.194790e-001	-9.765867e-001
8145906.000	-2.202216e-001	-9.764265e-001
8151900.000	-2.209897e-001	-9.763869e-001
8157894.000	-2.217516e-001	-9.762975e-001
8163888.000	-2.223730e-001	-9.761681e-001
8169882.000	-2.228231e-001	-9.759699e-001
8175876.000	-2.237804e-001	-9.754796e-001
8181870.000	-2.244359e-001	-9.756224e-001
8187864.000	-2.249041e-001	-9.755405e-001
8193858.000	-2.259444e-001	-9.753712e-001
8199852.000	-2.265318e-001	-9.750713e-001
8205846.000	-2.272979e-001	-9.747352e-001
8211840.000	-2.279551e-001	-9.745965e-001
8217834.000	-2.285887e-001	-9.745755e-001
8223828.000	-2.293630e-001	-9.741560e-001
8229822.000	-2.301654e-001	-9.742356e-001
8235816.000	-2.306809e-001	-9.737933e-001
8241810.000	-2.314751e-001	-9.740511e-001
8247804.000	-2.322252e-001	-9.737425e-001
8253798.000	-2.328581e-001	-9.732406e-001
8259792.000	-2.334429e-001	-9.734985e-001
8265786.000	-2.340425e-001	-9.733525e-001
8271780.000	-2.348043e-001	-9.730639e-001
8277774.000	-2.353908e-001	-9.729416e-001
8283768.000	-2.361515e-001	-9.727922e-001
8289762.000	-2.367117e-001	-9.725208e-001
8295756.000	-2.375906e-001	-9.722292e-001
8301750.000	-2.380809e-001	-9.720464e-001
8307744.000	-2.388523e-001	-9.720327e-001
8313738.000	-2.394488e-001	-9.721205e-001
8319732.000	-2.403445e-001	-9.716498e-001
8325726.000	-2.404485e-001	-9.716746e-001
8331720.000	-2.416085e-001	-9.711687e-001
8337714.000	-2.425482e-001	-9.709727e-001
8343708.000	-2.428124e-001	-9.710511e-001
8349702.000	-2.435502e-001	-9.706225e-001
8355696.000	-2.443963e-001	-9.707723e-001
8361690.000	-2.451109e-001	-9.704966e-001
8367684.000	-2.457753e-001	-9.701039e-001
8373678.000	-2.462196e-001	-9.700198e-001
8379672.000	-2.468597e-001	-9.699426e-001
8385666.000	-2.476523e-001	-9.699372e-001
8391660.000	-2.482259e-001	-9.696063e-001
8397654.000	-2.489987e-001	-9.694856e-001
8403648.000	-2.496729e-001	-9.692364e-001
8409642.000	-2.505821e-001	-9.694296e-001
8415636.000	-2.508955e-001	-9.688505e-001
8421630.000	-2.517413e-001	-9.687829e-001
8427624.000	-2.523307e-001	-9.685047e-001
8433618.000	-2.531280e-001	-9.683920e-001
8439612.000	-2.537596e-001	-9.682906e-001
8445606.000	-2.544210e-001	-9.678436e-001
8451600.000	-2.546161e-001	-9.677152e-001
8457594.000	-2.557003e-001	-9.674888e-001
8463588.000	-2.560878e-001	-9.674457e-001
8469582.000	-2.568567e-001	-9.671868e-001
8475576.000	-2.577203e-001	-9.669922e-001
8481570.000	-2.581774e-001	-9.667773e-001
8487564.000	-2.587482e-001	-9.667229e-001
8493558.000	-2.594699e-001	-9.664369e-001
8499552.000	-2.599160e-001	-9.664593e-001
8505546.000	-2.606481e-001	-9.662240e-001
8511540.000	-2.612490e-001	-9.661096e-001
8517534.000	-2.618922e-001	-9.659584e-001
8523528.000	-2.626090e-001	-9.656289e-001
8529522.000	-2.632372e-001	-9.655762e-001
8535516.000	-2.639988e-001	-9.654420e-001
8541510.000	-2.646997e-001	-9.651701e-001
8547504.000	-2.652801e-001	-9.649376e-001
8553498.000	-2.658119e-001	-9.647686e-001
8559492.000	-2.665249e-001	-9.645838e-001
8565486.000	-2.671981e-001	-9.644589e-001
8571480.000	-2.677157e-001	-9.643478e-001
8577474.000	-2.682531e-001	-9.641921e-001
8583468.000	-2.690002e-001	-9.638043e-001
8589462.000	-2.697071e-001	-9.635932e-001
8595456.000	-2.703952e-001	-9.636021e-001
8601450.000	-2.710537e-001	-9.632198e-001
8607444.000	-2.717085e-001	-9.631101e-001
8613438.000	-2.723826e-001	-9.628568e-001
8619432.000	-2.730032e-001	-9.628240e-001
8625426.000	-2.737235e-001	-9.625126e-001
8631420.000	-2.742640e-001	-9.623745e-001
8637414.000	-2.749704e-001	-9.622120e-001
8643408.000	-2.755268e-001	-9.619793e-001
8649402.000	-2.762880e-001	-9.617641e-001
8655396.000	-2.768159e-001	-9.616114e-001
8661390.000	-2.774789e-001	-9.613297e-001
8667384.000	-2.780864e-001	-9.613215e-001
8673378.000	-2.788100e-001	-9.611452e-001
8679372.000	-2.794438e-001	-9.609218e-001
8685366.000	-2.799551e-001	-9.607220e-001
8691360.000	-2.805815e-001	-9.606348e-001
8697354.000	-2.812441e-001	-9.602784e-001
8703348.000	-2.820223e-001	-9.602278e-001
8709342.000	-2.826761e-001	-9.599767e-001
8715336.000	-2.831751e-001	-9.598522e-001
8721330.000	-2.837967e-001	-9.595500e-001
8727324.000	-2.845176e-001	-9.595601e-001
8733318.000	-2.849263e-001	-9.592385e-001
8739312.000	-2.856925e-001	-9.591194e-001
8745306.000	-2.862791e-001	-9.588608e-001
8751300.000	-2.869815e-001	-9.586151e-001
8757294.000	-2.875442e-001	-9.584379e-001
8763288.000	-2.881384e-001	-9.583937e-001
8769282.000	-2.888659e-001	-9.580567e-001
8775276.000	-2.895864e-001	-9.579135e-001
8781270.000	-2.900810e-001	-9.577828e-001
8787264.000	-2.907857e-001	-9.575875e-001
8793258.000	-2.914434e-001	-9.573274e-001
8799252.000	-2.919458e-001	-9.571070e-001
8805246.000	-2.927194e-001	-9.569337e-001
8811240.000	-2.932079e-001	-9.566929e-001
8817234.000	-2.938221e-001	-9.566002e-001
8823228.000	-2.944972e-001	-9.563154e-001
8829222.000	-2.952503e-001	-9.561561e-001
8835216.000	-2.957523e-001	-9.558804e-001
8841210.000	-2.962743e-001	-9.558350e-001
8847204.000	-2.969903e-001	-9.555281e-001
8853198.000	-2.976894e-001	-9.552822e-001
8859192.000	-2.981831e-001	-9.551876e-001
8865186.000	-2.989171e-001	-9.549074e-001
8871180.000	-2.993281e-001	-9.547001e-001
8877174.000	-3.000558e-001	-9.545446e-001
8883168.000	-3.007987e-001	-9.543389e-001
8889162.000	-3.012213e-001	-9.542044e-001
8895156.000	-3.018904e-001	-9.541838e-001
8901150.000	-3.024179e-001	-9.538887e-001
8907144.000	-3.031065e-001	-9.536623e-001
8913138.000	-3.036727e-001	-9.533877e-001
8919132.000	-3.044786e-001	-9.531909e-001
8925126.000	-3.049523e-001	-9.530404e-001
8931120.000	-3.056407e-001	-9.527900e-001
8937114.000	-3.063506e-001	-9.526537e-001
8943108.000	-3.068464e-001	-9.523347e-001
8949102.000	-3.073791e-001	-9.521914e-001
8955096.000	-3.079835e-001	-9.519178e-001
8961090.000	-3.085767e-001	-9.518052e-001
8967084.000	-3.091451e-001	-9.515792e-001
8973078.000	-3.097976e-001	-9.514592e-001
8979072.000	-3.103818e-001	-9.513685e-001
8985066.000	-3.110595e-001	-9.508885e-001
8991060.000	-3.116457e-001	-9.507972e-001
8997054.000	-3.123502e-001	-9.505225e-001
9003048.000	-3.128141e-001	-9.505201e-001
9009042.000	-3.135467e-001	-9.501445e-001
9015036.000	-3.142246e-001	-9.498380e-001
9021030.000	-3.147478e-001	-9.496834e-001
9027024.000	-3.152154e-001	-9.495744e-001
9033018.000	-3.158103e-001	-9.494283e-001
9039012.000	-3.164791e-001	-9.491373e-001
9045006.000	-3.170757e-001	-9.490255e-001
9051000.000	-3.175868e-001	-9.487427e-001
9056994.000	-3.181589e-001	-9.485670e-001
9062988.000	-3.188859e-001	-9.482520e-001
9068982.000	-3.194997e-001	-9.480811e-001
9074976.000	-3.199476e-001	-9.479474e-001
9080970.000	-3.206850e-001	-9.477410e-001
9086964.000	-3.211552e-001	-9.475595e-001
9092958.000	-3.218074e-001	-9.472915e-001
9098952.000	-3.222977e-001	-9.470491e-001
9104946.000	-3.230140e-001	-9.468689e-001
9110940.000	-3.235542e-001	-9.467276e-001
9116934.000	-3.242273e-001	-9.465018e-001
9122928.000	-3.246556e-001	-9.461362e-001
9128922.000	-3.254245e-001	-9.461457e-001
9134916.000	-3.258291e-001	-9.459098e-001
9140910.000	-3.265686e-001	-9.456934e-001
9146904.000	-3.271296e-001	-9.454483e-001
9152898.000	-3.277319e-001	-9.453755e-001
9158892.000	-3.283268e-001	-9.450457e-001
9164886.000	-3.288230e-001	-9.450213e-001
9170880.000	-3.294638e-001	-9.447096e-001
9176874.000	-3.300010e-001	-9.444668e-001
9182868.000	-3.305940e-001	-9.443074e-001
9188862.000	-3.310592e-001	-9.440843e-001
9194856.000	-3.317185e-001	-9.438075e-001
9200850.000	-3.325061e-001	-9.436769e-001
9206844.000	-3.330025e-001	-9.432897e-001
9212838.000	-3.335858e-001	-9.430414e-001
9218832.000	-3.341252e-001	-9.429784e-001
9224826.000	-3.346847e-001	-9.427678e-001
9230820.000	-3.353737e-001	-9.424332e-001
9236814.000	-3.359437e-001	-9.423625e-001
9242808.000	-3.363952e-001	-9.421634e-001
9248802.000	-3.368672e-001	-9.420401e-001
9254796.000	-3.376384e-001	-9.417745e-001
9260790.000	-3.382297e-001	-9.416134e-001
9266784.000	-3.387868e-001	-9.413562e-001
9272778.000	-3.393583e-001	-9.411164e-001
9278772.000	-3.399656e-001	-9.407347e-001
9284766.000	-3.404922e-001	-9.407982e-001
9290760.000	-3.411426e-001	-9.404926e-001
9296754.000	-3.414263e-001	-9.402877e-001
9302748.000	-3.422033e-001	-9.400906e-001
9308742.000	-3.426476e-001	-9.398617e-001
9314736.000	-3.433368e-001	-9.395706e-001
9320730.000	-3.438583e-001	-9.394576e-001
9326724.000	-3.444732e-001	-9.391328e-001
9332718.000	-3.450449e-001	-9.389155e-001
9338712.000	-3.455602e-001	-9.388768e-001
9344706.000	-3.461063e-001	-9.385549e-001
9350700.000	-3.466589e-001	-9.384266e-001
9356694.000	-3.472191e-001	-9.382331e-001
9362688.000	-3.477337e-001	-9.380152e-001
9368682.000	-3.482839e-001	-9.376558e-001
9374676.000	-3.489576e-001	-9.375616e-001
9380670.000	-3.494215e-001	-9.374181e-001
9386664.000	-3.500381e-001	-9.372087e-001
9392658.000	-3.506403e-001	-9.368645e-001
9398652.000	-3.511717e-001	-9.367569e-001
9404646.000	-3.515715e-001	-9.365474e-001
9410640.000	-3.523241e-001	-9.362552e-001
9416634.000	-3.528884e-001	-9.361996e-001
9422628.000	-3.534014e-001	-9.359733e-001
9428622.000	-3.539087e-001	-9.357279e-001
9434616.000	-3.544192e-001	-9.354672e-001
9440610.000	-3.549672e-001	-9.353142e-001
9446604.000	-3.556213e-001	-9.349389e-001
9452598.000	-3.562032e-001	-9.347805e-001
9458592.000	-3.567697e-001	-9.345813e-001
9464586.000	-3.572877e-001	-9.343218e-001
9470580.000	-3.577516e-001	-9.341851e-001
9476574.000	-3.584517e-001	-9.338552e-001
9482568.000	-3.590416e-001	-9.336876e-001
9488562.000	-3.593439e-001	-9.334361e-001
9494556.000	-3.599736e-001	-9.332563e-001
9500550.000	-3.604826e-001	-9.331316e-001
9506544.000	-3.611380e-001	-9.328348e-001
9512538.000	-3.617263e-001	-9.327024e-001
9518532.000	-3.621384e-001	-9.324142e-001
9524526.000	-3.627437e-001	-9.323414e-001
9530520.000	-3.631862e-001	-9.321188e-001
9536514.000	-3.637590e-001	-9.318194e-001
9542508.000	-3.644751e-001	-9.315924e-001
9548502.000	-3.649542e-001	-9.313013e-001
9554496.000	-3.654755e-001	-9.311166e-001
9560490.000	-3.659584e-001	-9.309835e-001
9566484.000	-3.665654e-001	-9.308879e-001
9572478.000	-3.670564e-001	-9.305230e-001
9578472.000	-3.676036e-001	-9.302865e-001
9584466.000	-3.681846e-001	-9.300973e-001
9590460.000	-3.686244e-001	-9.298852e-001
9596454.000	-3.691748e-001	-9.296332e-001
9602448.000	-3.699179e-001	-9.294491e-001
9608442.000	-3.703691e-001	-9.293444e-001
9614436.000	-3.708464e-001	-9.290426e-001
9620430.000	-3.714719e-001	-9.287971e-001
9626424.000	-3.720691e-001	-9.284952e-001
9632418.000	-3.725388e-001	-9.284491e-001
9638412.000	-3.731008e-001	-9.280452e-001
9644406.000	-3.735140e-001	-9.279185e-001
9650400.000	-3.742095e-001	-9.277514e-001
9656394.000	-3.747110e-001	-9.275125e-001
9662388.000	-3.751977e-001	-9.273406e-001
9668382.000	-3.757603e-001	-9.269407e-001
9674376.000	-3.761848e-001	-9.268430e-001
9680370.000	-3.767796e-001	-9.266147e-001
9686364.000	-3.774609e-001	-9.262792e-001
9692358.000	-3.778246e-001	-9.260336e-001
9698352.000	-3.782426e-001	-9.260323e-001
9704346.000	-3.789526e-001	-9.256913e-001
9710340.000	-3.795033e-001	-9.254663e-001
9716334.000	-3.801313e-001	-9.252232e-001
9722328.000	-3.806516e-001	-9.249402e-001
9728322.000	-3.810976e-001	-9.247115e-001
9734316.000	-3.815814e-001	-9.245917e-001
9740310.000	-3.821531e-001	-9.242813e-001
9746304.000	-3.827222e-001	-9.240951e-001
9752298.000	-3.832319e-001	-9.239896e-001
9758292.000	-3.838614e-001	-9.236627e-001
9764286.000	-3.842038e-001	-9.234909e-001
9770280.000	-3.847659e-001	-9.231632e-001
9776274.000	-3.853893e-001	-9.229262e-001
9782268.000	-3.858737e-001	-9.227739e-001
9788262.000	-3.863847e-001	-9.224860e-001
9794256.000	-3.867664e-001	-9.224488e-001
9800250.000	-3.873004e-001	-9.221459e-001
9806244.000	-3.877978e-001	-9.218407e-001
9812238.000	-3.883688e-001	-9.215928e-001
9818232.000	-3.889332e-001	-9.214574e-001
9824226.000	-3.893523e-001	-9.213209e-001
9830220.000	-3.899379e-001	-9.209772e-001
9836214.000	-3.904429e-001	-9.207191e-001
9842208.000	-3.909501e-001	-9.206058e-001
9848202.000	-3.915068e-001	-9.203156e-001
9854196.000	-3.920506e-001	-9.201229e-001
9860190.000	-3.923985e-001	-9.199682e-001
9866184.000	-3.930931e-001	-9.196196e-001
9872178.000	-3.935788e-001	-9.195257e-001
9878172.000	-3.940946e-001	-9.192807e-001
9884166.000	-3.945536e-001	-9.189542e-001
9890160.000	-3.951431e-001	-9.187702e-001
9896154.000	-3.955800e-001	-9.184760e-001
9902148.000	-3.960535e-001	-9.184416e-001
9908142.000	-3.964376e-001	-9.181787e-001
9914136.000	-3.970273e-001	-9.180681e-001
9920130.000	-3.975979e-001	-9.177044e-001
9926124.000	-3.981552e-001	-9.175737e-001
9932118.000	-3.986652e-001	-9.173440e-001
9938112.000	-3.992134e-001	-9.171037e-001
9944106.000	-3.997699e-001	-9.168098e-001
9950100.000	-4.001265e-001	-9.165632e-001
9956094.000	-4.005798e-001	-9.163861e-001
9962088.000	-4.011247e-001	-9.161981e-001
9968082.000	-4.016799e-001	-9.159365e-001
9974076.000	-4.020883e-001	-9.156502e-001
9980070.000	-4.026355e-001	-9.155139e-001
9986064.000	-4.031262e-001	-9.154514e-001
9992058.000	-4.036804e-001	-9.151482e-001
9998052.000	-4.041436e-001	-9.150293e-001
10004046.000	-4.046718e-001	-9.146563e-001
10010040.000	-4.051672e-001	-9.144001e-001
10016034.000	-4.058448e-001	-9.140507e-001
10022028.000	-4.063301e-001	-9.140042e-001
10028022.000	-4.067904e-001	-9.138392e-001
10034016.000	-4.071069e-001	-9.136026e-001
10040010.000	-4.077691e-001	-9.131746e-001
10046004.000	-4.081605e-001	-9.130297e-001
10051998.000	-4.087029e-001	-9.126480e-001
10057992.000	-4.092818e-001	-9.125557e-001
10063986.000	-4.097175e-001	-9.123794e-001
10069980.000	-4.101544e-001	-9.122383e-001
10075974.000	-4.106479e-001	-9.119495e-001
10081968.000	-4.111209e-001	-9.116181e-001
10087962.000	-4.117120e-001	-9.115040e-001
10093956.000	-4.122493e-001	-9.111531e-001
10099950.000	-4.126621e-001	-9.109703e-001
10105944.000	-4.132897e-001	-9.108099e-001
10111938.000	-4.136900e-001	-9.105841e-001
10117932.000	-4.142119e-001	-9.104525e-001
10123926.000	-4.144702e-001	-9.101993e-001
10129920.000	-4.151625e-001	-9.099323e-001
10135914.000	-4.155916e-001	-9.095358e-001
10141908.000	-4.160064e-001	-9.093375e-001
10147902.000	-4.165393e-001	-9.091449e-001
10153896.000	-4.170402e-001	-9.090100e-001
10159890.000	-4.175193e-001	-9.087016e-001
10165884.000	-4.179765e-001	-9.085378e-001
10171878.000	-4.184287e-001	-9.082877e-001
10177872.000	-4.190769e-001	-9.081160e-001
10183866.000	-4.195095e-001	-9.079645e-001
10189860.000	-4.200121e-001	-9.076061e-001
10195854.000	-4.204965e-001	-9.073407e-001
10201848.000	-4.210153e-001	-9.071271e-001
10207842.000	-4.214602e-001	-9.068973e-001
10213836.000	-4.219194e-001	-9.065862e-001
10219830.000	-4.223359e-001	-9.064026e-001
10225824.000	-4.228977e-001	-9.061812e-001
10231818.000	-4.234509e-001	-9.059443e-001
10237812.000	-4.237134e-001	-9.059009e-001
10243806.000	-4.241960e-001	-9.055565e-001
10249800.000	-4.247961e-001	-9.053470e-001
10255794.000	-4.255717e-001	-9.050541e-001
10261788.000	-4.257172e-001	-9.049011e-001
10267782.000	-4.263394e-001	-9.046667e-001
10273776.000	-4.266512e-001	-9.045091e-001
10279770.000	-4.272863e-001	-9.041746e-001
10285764.000	-4.276927e-001	-9.039767e-001
10291758.000	-4.281800e-001	-9.037020e-001
10297752.000	-4.286288e-001	-9.035511e-001
10303746.000	-4.291052e-001	-9.032604e-001
10309740.000	-4.294615e-001	-9.030370e-001
10315734.000	-4.301572e-001	-9.028525e-001
10321728.000	-4.305749e-001	-9.024636e-001
10327722.000	-4.309847e-001	-9.023266e-001
10333716.000	-4.314878e-001	-9.021895e-001
10339710.000	-4.319845e-001	-9.019101e-001
10345704.000	-4.323401e-001	-9.017491e-001
10351698.000	-4.327710e-001	-9.016493e-001
10357692.000	-4.333290e-001	-9.013268e-001
10363686.000	-4.338127e-001	-9.010823e-001
10369680.000	-4.342375e-001	-9.007666e-001
10375674.000	-4.348299e-001	-9.005331e-001
10381668.000	-4.352392e-001	-9.002301e-001
10387662.000	-4.356791e-001	-9.001120e-001
10393656.000	-4.361854e-001	-8.999716e-001
10399650.000	-4.365986e-001	-8.996778e-001
10405644.000	-4.370264e-001	-8.993439e-001
10411638.000	-4.375458e-001	-8.990715e-001
10417632.000	-4.379987e-001	-8.989555e-001
10423626.000	-4.385525e-001	-8.986176e-001
10429620.000	-4.388943e-001	-8.984778e-001
10435614.000	-4.393247e-001	-8.982626e-001
10441608.000	-4.398755e-001	-8.980320e-001
10447602.000	-4.404655e-001	-8.978877e-001
10453596.000	-4.407983e-001	-8.976202e-001
10459590.000	-4.412745e-001	-8.973727e-001
10465584.000	-4.416814e-001	-8.969842e-001
10471578.000	-4.421584e-001	-8.968916e-001
10477572.000	-4.426919e-001	-8.964012e-001
10483566.000	-4.430999e-001	-8.963541e-001
10489560.000	-4.436273e-001	-8.961150e-001
10495554.000	-4.440114e-001	-8.959686e-001
10501548.000	-4.445353e-001	-8.957049e-001
10507542.000	-4.449681e-001	-8.954573e-001
10513536.000	-4.453220e-001	-8.951785e-001
10519530.000	-4.458152e-001	-8.949324e-001
10525524.000	-4.463153e-001	-8.948780e-001
10531518.000	-4.467507e-001	-8.944954e-001
10537512.000	-4.473054e-001	-8.942455e-001
10543506.000	-4.477613e-001	-8.940534e-001
10549500.000	-4.480930e-001	-8.938142e-001
10555494.000	-4.487316e-001	-8.935389e-001
10561488.000	-4.489923e-001	-8.934902e-001
10567482.000	-4.495149e-001	-8.931335e-001
10573476.000	-4.499179e-001	-8.929729e-001
10579470.000	-4.504153e-001	-8.927228e-001
10585464.000	-4.507986e-001	-8.923732e-001
10591458.000	-4.512262e-001	-8.923025e-001
10597452.000	-4.517426e-001	-8.919993e-001
10603446.000	-4.521457e-001	-8.916818e-001
10609440.000	-4.526838e-001	-8.915298e-001
10615434.000	-4.532050e-001	-8.912383e-001
10621428.000	-4.536124e-001	-8.910802e-001
10627422.000	-4.540872e-001	-8.908904e-001
10633416.000	-4.544905e-001	-8.905097e-001
10639410.000	-4.550366e-001	-8.903615e-001
10645404.000	-4.554399e-001	-8.900696e-001
10651398.000	-4.558242e-001	-8.899411e-001
10657392.000	-4.562720e-001	-8.897134e-001
10663386.000	-4.566813e-001	-8.895295e-001
10669380.000	-4.571784e-001	-8.891601e-001
10675374.000	-4.575879e-001	-8.890155e-001
10681368.000	-4.580340e-001	-8.887097e-001
10687362.000	-4.586189e-001	-8.884590e-001
10693356.000	-4.589536e-001	-8.883278e-001
10699350.000	-4.593128e-001	-8.879431e-001
10705344.000	-4.597706e-001	-8.878082e-001
10711338.000	-4.600728e-001	-8.875891e-001
10717332.000	-4.606297e-001	-8.875517e-001
10723326.000	-4.610946e-001	-8.871944e-001
10729320.000	-4.615747e-001	-8.869423e-001
10735314.000	-4.620761e-001	-8.866781e-001
10741308.000	-4.625146e-001	-8.862110e-001
10747302.000	-4.629434e-001	-8.862058e-001
10753296.000	-4.633273e-001	-8.859191e-001
10759290.000	-4.637584e-001	-8.857676e-001
10765284.000	-4.642574e-001	-8.854210e-001
10771278.000	-4.647264e-001	-8.852299e-001
10777272.000	-4.651379e-001	-8.851182e-001
10783266.000	-4.655366e-001	-8.847819e-001
10789260.000	-4.658638e-001	-8.845644e-001
10795254.000	-4.663123e-001	-8.844343e-001
10801248.000	-4.667643e-001	-8.841299e-001
10807242.000	-4.671677e-001	-8.838080e-001
10813236.000	-4.676204e-001	-8.835961e-001
10819230.000	-4.681751e-001	-8.834521e-001
10825224.000	-4.684883e-001	-8.830668e-001
10831218.000	-4.689754e-001	-8.829720e-001
10837212.000	-4.693806e-001	-8.826695e-001
10843206.000	-4.697975e-001	-8.825017e-001
10849200.000	-4.702079e-001	-8.822887e-001
10855194.000	-4.705957e-001	-8.820079e-001
10861188.000	-4.710679e-001	-8.818602e-001
10867182.000	-4.714927e-001	-8.816929e-001
10873176.000	-4.719372e-001	-8.812662e-001
10879170.000	-4.722994e-001	-8.811963e-001
10885164.000	-4.729044e-001	-8.809093e-001
10891158.000	-4.733350e-001	-8.806460e-001
10897152.000	-4.736423e-001	-8.805646e-001
10903146.000	-4.741153e-001	-8.801995e-001
10909140.000	-4.744489e-001	-8.799354e-001
10915134.000	-4.748959e-001	-8.797513e-001
10921128.000	-4.753494e-001	-8.795277e-001
10927122.000	-4.758412e-001	-8.792877e-001
10933116.000	-4.761413e-001	-8.790248e-001
10939110.000	-4.766453e-001	-8.788149e-001
10945104.000	-4.771640e-001	-8.786311e-001
10951098.000	-4.773810e-001	-8.782633e-001
10957092.000	-4.778625e-001	-8.780756e-001
10963086.000	-4.784237e-001	-8.778987e-001
10969080.000	-4.787073e-001	-8.775873e-001
10975074.000	-4.791438e-001	-8.774745e-001
10981068.000	-4.795468e-001	-8.772668e-001
10987062.000	-4.799823e-001	-8.769613e-001
10993056.000	-4.806265e-001	-8.766606e-001
10999050.000	-4.809279e-001	-8.765231e-001
11005044.000	-4.812018e-001	-8.761572e-001
11011038.000	-4.816307e-001	-8.758838e-001
11017032.000	-4.821169e-001	-8.756664e-001
11023026.000	-4.824892e-001	-8.755975e-001
11029020.000	-4.828312e-001	-8.753701e-001
11035014.000	-4.832854e-001	-8.751472e-001
11041008.000	-4.837490e-001	-8.748733e-001
11047002.000	-4.842092e-001	-8.745402e-001
11052996.000	-4.845993e-001	-8.745230e-001
11058990.000	-4.850668e-001	-8.742506e-001
11064984.000	-4.853792e-001	-8.741621e-001
11070978.000	-4.857697e-001	-8.738634e-001
11076972.000	-4.860985e-001	-8.735904e-001
11082966.000	-4.866866e-001	-8.733599e-001
11088960.000	-4.869575e-001	-8.731497e-001
11094954.000	-4.875012e-001	-8.727409e-001
11100948.000	-4.879745e-001	-8.725363e-001
11106942.000	-4.882931e-001	-8.723339e-001
11112936.000	-4.885078e-001	-8.720141e-001
11118930.000	-4.891755e-001	-8.717954e-001
11124924.000	-4.894567e-001	-8.717249e-001
11130918.000	-4.898807e-001	-8.714791e-001
11136912.000	-4.902638e-001	-8.711054e-001
11142906.000	-4.907412e-001	-8.708830e-001
11148900.000	-4.912040e-001	-8.708603e-001
11154894.000	-4.915016e-001	-8.703575e-001
11160888.000	-4.919554e-001	-8.701646e-001
11166882.000	-4.922717e-001	-8.700086e-001
11172876.000	-4.927830e-001	-8.696185e-001
11178870.000	-4.932406e-001	-8.696802e-001
11184864.000	-4.935671e-001	-8.693701e-001
11190858.000	-4.939996e-001	-8.690859e-001
11196852.000	-4.943641e-001	-8.688675e-001
11202846.000	-4.947989e-001	-8.686766e-001
11208840.000	-4.952201e-001	-8.684068e-001
11214834.000	-4.955798e-001	-8.682168e-001
11220828.000	-4.960301e-001	-8.680871e-001
11226822.000	-4.962986e-001	-8.676601e-001
11232816.000	-4.968097e-001	-8.675125e-001
11238810.000	-4.972213e-001	-8.670732e-001
11244804.000	-4.977279e-001	-8.669302e-001
11250798.000	-4.980085e-001	-8.667771e-001
11256792.000	-4.984436e-001	-8.664046e-001
11262786.000	-4.988683e-001	-8.663357e-001
11268780.000	-4.993167e-001	-8.660472e-001
11274774.000	-4.997093e-001	-8.657456e-001
11280768.000	-5.000315e-001	-8.655768e-001
11286762.000	-5.003974e-001	-8.654573e-001
11292756.000	-5.008034e-001	-8.651556e-001
11298750.000	-5.012839e-001	-8.649638e-001
11304744.000	-5.015992e-001	-8.646791e-001
11310738.000	-5.019282e-001	-8.645262e-001
11316732.000	-5.023990e-001	-8.642835e-001
11322726.000	-5.027843e-001	-8.639439e-001
11328720.000	-5.032736e-001	-8.636866e-001
11334714.000	-5.035452e-001	-8.635432e-001
11340708.000	-5.040019e-001	-8.632721e-001
11346702.000	-5.043237e-001	-8.629640e-001
11352696.000	-5.048165e-001	-8.627237e-001
11358690.000	-5.051680e-001	-8.625757e-001
11364684.000	-5.055016e-001	-8.623980e-001
11370678.000	-5.059666e-001	-8.620173e-001
11376672.000	-5.063304e-001	-8.619344e-001
11382666.000	-5.068657e-001	-8.616874e-001
11388660.000	-5.070919e-001	-8.614047e-001
11394654.000	-5.073830e-001	-8.612336e-001
11400648.000	-5.078902e-001	-8.608538e-001
11406642.000	-5.082505e-001	-8.607323e-001
11412636.000	-5.087896e-001	-8.603414e-001
11418630.000	-5.090850e-001	-8.602305e-001
11424624.000	-5.095450e-001	-8.601134e-001
11430618.000	-5.099453e-001	-8.597190e-001
11436612.000	-5.101859e-001	-8.594980e-001
11442606.000	-5.106398e-001	-8.592610e-001
11448600.000	-5.108762e-001	-8.589944e-001
11454594.000	-5.113486e-001	-8.589194e-001
11460588.000	-5.117485e-001	-8.586237e-001
11466582.000	-5.122884e-001	-8.583086e-001
11472576.000	-5.124691e-001	-8.581657e-001
11478570.000	-5.128846e-001	-8.579983e-001
11484564.000	-5.132892e-001	-8.576654e-001
11490558.000	-5.137989e-001	-8.573506e-001
11496552.000	-5.141722e-001	-8.570666e-001
11502546.000	-5.144098e-001	-8.568340e-001
11508540.000	-5.148646e-001	-8.566971e-001
11514534.000	-5.153233e-001	-8.564132e-001
11520528.000	-5.155819e-001	-8.562964e-001
11526522.000	-5.160996e-001	-8.559066e-001
11532516.000	-5.163922e-001	-8.558085e-001
11538510.000	-5.168595e-001	-8.555101e-001
11544504.000	-5.170997e-001	-8.552831e-001
11550498.000	-5.175998e-001	-8.549989e-001
11556492.000	-5.180314e-001	-8.548274e-001
11562486.000	-5.181405e-001	-8.547675e-001
11568480.000	-5.185089e-001	-8.543634e-001
11574474.000	-5.191699e-001	-8.541439e-001
11580468.000	-5.192361e-001	-8.539930e-001
11586462.000	-5.197308e-001	-8.538298e-001
11592456.000	-5.200884e-001	-8.536281e-001
11598450.000	-5.205000e-001	-8.533212e-001
11604444.000	-5.209918e-001	-8.530518e-001
11610438.000	-5.212682e-001	-8.529150e-001
11616432.000	-5.216271e-001	-8.525795e-001
11622426.000	-5.219298e-001	-8.523081e-001
11628420.000	-5.224012e-001	-8.521221e-001
11634414.000	-5.228164e-001	-8.518270e-001
11640408.000	-5.230932e-001	-8.516102e-001
11646402.000	-5.235442e-001	-8.514017e-001
11652396.000	-5.239614e-001	-8.510873e-001
11658390.000	-5.243706e-001	-8.509340e-001
11664384.000	-5.245967e-001	-8.506522e-001
11670378.000	-5.249441e-001	-8.504416e-001
11676372.000	-5.253738e-001	-8.501581e-001
11682366.000	-5.256807e-001	-8.499723e-001
11688360.000	-5.259732e-001	-8.497775e-001
11694354.000	-5.265102e-001	-8.495077e-001
11700348.000	-5.266527e-001	-8.493640e-001
11706342.000	-5.272199e-001	-8.490921e-001
11712336.000	-5.277239e-001	-8.488475e-001
11718330.000	-5.279463e-001	-8.485803e-001
11724324.000	-5.283086e-001	-8.484575e-001
11730318.000	-5.287485e-001	-8.481314e-001
11736312.000	-5.290932e-001	-8.479371e-001
11742306.000	-5.293827e-001	-8.476953e-001
11748300.000	-5.298713e-001	-8.474624e-001
11754294.000	-5.302391e-001	-8.471005e-001
11760288.000	-5.305280e-001	-8.468788e-001
11766282.000	-5.310771e-001	-8.466438e-001
11772276.000	-5.313575e-001	-8.465904e-001
11778270.000	-5.316920e-001	-8.462054e-001
11784264.000	-5.320252e-001	-8.461173e-001
11790258.000	-5.323365e-001	-8.458567e-001
11796252.000	-5.327714e-001	-8.454933e-001
11802246.000	-5.331189e-001	-8.454594e-001
11808240.000	-5.333872e-001	-8.451824e-001
11814234.000	-5.337595e-001	-8.449855e-001
11820228.000	-5.340803e-001	-8.447924e-001
11826222.000	-5.344996e-001	-8.445016e-001
11832216.000	-5.348664e-001	-8.441324e-001
11838210.000	-5.353033e-001	-8.440242e-001
11844204.000	-5.356446e-001	-8.437196e-001
11850198.000	-5.360084e-001	-8.435890e-001
11856192.000	-5.363577e-001	-8.432423e-001
11862186.000	-5.368415e-001	-8.431409e-001
11868180.000	-5.370057e-001	-8.429211e-001
11874174.000	-5.374013e-001	-8.426761e-001
11880168.000	-5.378218e-001	-8.422799e-001
11886162.000	-5.381386e-001	-8.422491e-001
11892156.000	-5.384742e-001	-8.418923e-001
11898150.000	-5.387244e-001	-8.415676e-001
11904144.000	-5.391973e-001	-8.415593e-001
11910138.000	-5.394682e-001	-8.412091e-001
11916132.000	-5.398924e-001	-8.410128e-001
11922126.000	-5.402721e-001	-8.407533e-001
11928120.000	-5.406175e-001	-8.404925e-001
11934114.000	-5.408788e-001	-8.403250e-001
11940108.000	-5.413127e-001	-8.400171e-001
11946102.000	-5.417863e-001	-8.399105e-001
11952096.000	-5.421737e-001	-8.395254e-001
11958090.000	-5.424431e-001	-8.393776e-001
11964084.000	-5.427515e-001	-8.392172e-001
11970078.000	-5.429973e-001	-8.388586e-001
11976072.000	-5.435172e-001	-8.386403e-001
11982066.000	-5.438305e-001	-8.384286e-001
11988060.000	-5.441646e-001	-8.382321e-001
11994054.000	-5.444264e-001	-8.380210e-001
12000048.000	-5.448818e-001	-8.377279e-001
12006042.000	-5.451042e-001	-8.374898e-001
12012036.000	-5.455338e-001	-8.373460e-001
12018030.000	-5.459029e-001	-8.371574e-001
12024024.000	-5.461906e-001	-8.369190e-001
12030018.000	-5.465545e-001	-8.366391e-001
12036012.000	-5.468414e-001	-8.363346e-001
12042006.000	-5.472636e-001	-8.361983e-001
12048000.000	-5.476554e-001	-8.360407e-001
12053994.000	-5.480877e-001	-8.356506e-001
12059988.000	-5.482863e-001	-8.356231e-001
12065982.000	-5.486233e-001	-8.353140e-001
12071976.000	-5.490508e-001	-8.350138e-001
12077970.000	-5.493994e-001	-8.348261e-001
12083964.000	-5.496236e-001	-8.346593e-001
12089958.000	-5.500097e-001	-8.344792e-001
12095952.000	-5.501608e-001	-8.343884e-001
12101946.000	-5.508266e-001	-8.339449e-001
12107940.000	-5.510617e-001	-8.336482e-001
12113934.000	-5.515490e-001	-8.333678e-001
12119928.000	-5.517862e-001	-8.331716e-001
12125922.000	-5.521810e-001	-8.328936e-001
12131916.000	-5.525098e-001	-8.326884e-001
12137910.000	-5.527755e-001	-8.324036e-001
12143904.000	-5.532072e-001	-8.322554e-001
12149898.000	-5.535238e-001	-8.320462e-001
12155892.000	-5.538410e-001	-8.317442e-001
12161886.000	-5.541022e-001	-8.316218e-001
12167880.000	-5.545268e-001	-8.312243e-001
12173874.000	-5.548993e-001	-8.310021e-001
12179868.000	-5.551936e-001	-8.308017e-001
12185862.000	-5.554422e-001	-8.307107e-001
12191856.000	-5.560885e-001	-8.303261e-001
12197850.000	-5.562945e-001	-8.301577e-001
12203844.000	-5.566062e-001	-8.299576e-001
12209838.000	-5.568241e-001	-8.297159e-001
12215832.000	-5.573519e-001	-8.295152e-001
12221826.000	-5.575829e-001	-8.294612e-001
12227820.000	-5.578977e-001	-8.291112e-001
12233814.000	-5.581895e-001	-8.288166e-001
12239808.000	-5.585066e-001	-8.286220e-001
12245802.000	-5.589450e-001	-8.283562e-001
12251796.000	-5.592533e-001	-8.281602e-001
12257790.000	-5.596012e-001	-8.278159e-001
12263784.000	-5.598999e-001	-8.277367e-001
12269778.000	-5.603544e-001	-8.274552e-001
12275772.000	-5.607200e-001	-8.273220e-001
12281766.000	-5.609383e-001	-8.270051e-001
12287760.000	-5.613957e-001	-8.267807e-001
12293754.000	-5.615696e-001	-8.266492e-001
12299748.000	-5.618530e-001	-8.264196e-001
12305742.000	-5.623436e-001	-8.260815e-001
12311736.000	-5.626282e-001	-8.258923e-001
12317730.000	-5.629170e-001	-8.256012e-001
12323724.000	-5.631728e-001	-8.254308e-001
12329718.000	-5.634785e-001	-8.252540e-001
12335712.000	-5.637899e-001	-8.249668e-001
12341706.000	-5.642635e-001	-8.246833e-001
12347700.000	-5.645532e-001	-8.244934e-001
12353694.000	-5.648773e-001	-8.243259e-001
12359688.000	-5.652085e-001	-8.240924e-001
12365682.000	-5.655318e-001	-8.237964e-001
12371676.000	-5.658127e-001	-8.234962e-001
12377670.000	-5.662276e-001	-8.233348e-001
12383664.000	-5.665476e-001	-8.231450e-001
12389658.000	-5.669746e-001	-8.227894e-001
12395652.000	-5.672765e-001	-8.226570e-001
12401646.000	-5.674958e-001	-8.224883e-001
12407640.000	-5.678288e-001	-8.221457e-001
12413634.000	-5.681051e-001	-8.219815e-001
12419628.000	-5.684115e-001	-8.217220e-001
12425622.000	-5.687254e-001	-8.215418e-001
12431616.000	-5.691150e-001	-8.214179e-001
12437610.000	-5.695836e-001	-8.210875e-001
12443604.000	-5.698560e-001	-8.207078e-001
12449598.000	-5.701466e-001	-8.204784e-001
12455592.000	-5.704336e-001	-8.204087e-001
12461586.000	-5.706702e-001	-8.202286e-001
12467580.000	-5.710562e-001	-8.200722e-001
12473574.000	-5.713478e-001	-8.199349e-001
12479568.000	-5.717557e-001	-8.195754e-001
12485562.000	-5.720655e-001	-8.192795e-001
12491556.000	-5.722893e-001	-8.191233e-001
12497550.000	-5.725913e-001	-8.189459e-001
12503544.000	-5.728334e-001	-8.185756e-001
12509538.000	-5.731716e-001	-8.184261e-001
12515532.000	-5.736515e-001	-8.180808e-001
12521526.000	-5.740515e-001	-8.177942e-001
12527520.000	-5.744278e-001	-8.176616e-001
12533514.000	-5.746442e-001	-8.174161e-001
12539508.000	-5.750314e-001	-8.171775e-001
12545502.000	-5.752385e-001	-8.169998e-001
12551496.000	-5.755531e-001	-8.167426e-001
12557490.000	-5.759257e-001	-8.164383e-001
12563484.000	-5.762557e-001	-8.162257e-001
12569478.000	-5.765773e-001	-8.161566e-001
12575472.000	-5.768314e-001	-8.157459e-001
12581466.000	-5.772997e-001	-8.155822e-001
12587460.000	-5.774858e-001	-8.152857e-001
12593454.000	-5.778192e-001	-8.151097e-001
12599448.000	-5.781957e-001	-8.148501e-001
12605442.000	-5.783365e-001	-8.147183e-001
12611436.000	-5.787364e-001	-8.144595e-001
12617430.000	-5.790710e-001	-8.142294e-001
12623424.000	-5.794367e-001	-8.140922e-001
12629418.000	-5.796796e-001	-8.139901e-001
12635412.000	-5.799997e-001	-8.138235e-001
12641406.000	-5.803028e-001	-8.134217e-001
12647400.000	-5.805983e-001	-8.131818e-001
12653394.000	-5.810441e-001	-8.129902e-001
12659388.000	-5.812370e-001	-8.126628e-001
12665382.000	-5.815884e-001	-8.124154e-001
12671376.000	-5.820188e-001	-8.121618e-001
12677370.000	-5.821861e-001	-8.120764e-001
12683364.000	-5.824679e-001	-8.117315e-001
12689358.000	-5.828394e-001	-8.115429e-001
12695352.000	-5.831764e-001	-8.114741e-001
12701346.000	-5.834098e-001	-8.111425e-001
12707340.000	-5.838055e-001	-8.108747e-001
12713334.000	-5.840611e-001	-8.106746e-001
12719328.000	-5.842977e-001	-8.105006e-001
12725322.000	-5.847636e-001	-8.101138e-001
12731316.000	-5.849399e-001	-8.101081e-001
12737310.000	-5.853991e-001	-8.097733e-001
12743304.000	-5.855731e-001	-8.095487e-001
12749298.000	-5.860019e-001	-8.093332e-001
12755292.000	-5.862562e-001	-8.090515e-001
12761286.000	-5.865467e-001	-8.087944e-001
12767280.000	-5.867922e-001	-8.086594e-001
12773274.000	-5.871885e-001	-8.084713e-001
12779268.000	-5.874926e-001	-8.081133e-001
12785262.000	-5.878295e-001	-8.079921e-001
12791256.000	-5.880541e-001	-8.078537e-001
12797250.000	-5.883296e-001	-8.076193e-001
12803244.000	-5.887553e-001	-8.071898e-001
12809238.000	-5.889784e-001	-8.071368e-001
12815232.000	-5.893376e-001	-8.069229e-001
12821226.000	-5.895975e-001	-8.066087e-001
12827220.000	-5.898894e-001	-8.063910e-001
12833214.000	-5.902940e-001	-8.060978e-001
12839208.000	-5.905752e-001	-8.060542e-001
12845202.000	-5.909269e-001	-8.057512e-001
12851196.000	-5.912572e-001	-8.053583e-001
12857190.000	-5.915515e-001	-8.051831e-001
12863184.000	-5.917205e-001	-8.049312e-001
12869178.000	-5.921129e-001	-8.047229e-001
12875172.000	-5.923531e-001	-8.045335e-001
12881166.000	-5.925062e-001	-8.044032e-001
12887160.000	-5.930113e-001	-8.040442e-001
12893154.000	-5.933481e-001	-8.038374e-001
12899148.000	-5.935058e-001	-8.036650e-001
12905142.000	-5.939455e-001	-8.034645e-001
12911136.000	-5.942131e-001	-8.033028e-001
12917130.000	-5.945369e-001	-8.029387e-001
12923124.000	-5.947055e-001	-8.027457e-001
12929118.000	-5.951001e-001	-8.026061e-001
12935112.000	-5.953939e-001	-8.022773e-001
12941106.000	-5.957704e-001	-8.020453e-001
12947100.000	-5.960355e-001	-8.018215e-001
12953094.000	-5.962450e-001	-8.015802e-001
12959088.000	-5.965720e-001	-8.014878e-001
12965082.000	-5.968694e-001	-8.012346e-001
12971076.000	-5.972603e-001	-8.008811e-001
12977070.000	-5.974726e-001	-8.006284e-001
12983064.000	-5.977134e-001	-8.004708e-001
12989058.000	-5.980360e-001	-8.002762e-001
12995052.000	-5.983472e-001	-8.000652e-001
13001046.000	-5.986582e-001	-7.996931e-001
13007040.000	-5.988775e-001	-7.995320e-001
13013034.000	-5.993276e-001	-7.992055e-001
13019028.000	-5.994862e-001	-7.991945e-001
13025022.000	-5.997910e-001	-7.988903e-001
13031016.000	-6.000338e-001	-7.986627e-001
13037010.000	-6.004620e-001	-7.983120e-001
13043004.000	-6.007362e-001	-7.982678e-001
13048998.000	-6.010444e-001	-7.980189e-001
13054992.000	-6.013286e-001	-7.977974e-001
13060986.000	-6.015844e-001	-7.974735e-001
13066980.000	-6.019888e-001	-7.972214e-001
13072974.000	-6.021572e-001	-7.971849e-001
13078968.000	-6.023923e-001	-7.969320e-001
13084962.000	-6.027338e-001	-7.968351e-001
13090956.000	-6.029559e-001	-7.966239e-001
13096950.000	-6.033717e-001	-7.962846e-001
13102944.000	-6.035522e-001	-7.961626e-001
13108938.000	-6.038989e-001	-7.957327e-001
13114932.000	-6.041973e-001	-7.956222e-001
13120926.000	-6.044403e-001	-7.953787e-001
13126920.000	-6.047150e-001	-7.952166e-001
13132914.000	-6.051551e-001	-7.948742e-001
13138908.000	-6.052351e-001	-7.948040e-001
13144902.000	-6.055889e-001	-7.945160e-001
13150896.000	-6.058452e-001	-7.944100e-001
13156890.000	-6.061629e-001	-7.940200e-001
13162884.000	-6.064799e-001	-7.938711e-001
13168878.000	-6.067792e-001	-7.936859e-001
13174872.000	-6.070134e-001	-7.934880e-001
13180866.000	-6.073871e-001	-7.932999e-001
13186860.000	-6.075107e-001	-7.930883e-001
13192854.000	-6.078811e-001	-7.927954e-001
13198848.000	-6.082855e-001	-7.924406e-001
13204842.000	-6.085565e-001	-7.923615e-001
13210836.000	-6.088319e-001	-7.921468e-001
13216830.000	-6.090855e-001	-7.919058e-001
13222824.000	-6.092970e-001	-7.915380e-001
13228818.000	-6.096954e-001	-7.914279e-001
13234812.000	-6.098968e-001	-7.912789e-001
13240806.000	-6.101950e-001	-7.910915e-001
13246800.000	-6.105827e-001	-7.907474e-001
13252794.000	-6.106217e-001	-7.905606e-001
13258788.000	-6.109649e-001	-7.905140e-001
13264782.000	-6.113311e-001	-7.902229e-001
13270776.000	-6.115854e-001	-7.899246e-001
13276770.000	-6.119433e-001	-7.896328e-001
13282764.000	-6.121906e-001	-7.894409e-001
13288758.000	-6.125130e-001	-7.892134e-001
13294752.000	-6.127949e-001	-7.889306e-001
13300746.000	-6.129674e-001	-7.887427e-001
13306740.000	-6.133028e-001	-7.883926e-001
13312734.000	-6.135789e-001	-7.882169e-001
13318728.000	-6.139900e-001	-7.879638e-001
13324722.000	-6.142843e-001	-7.877088e-001
13330716.000	-6.144491e-001	-7.877400e-001
13336710.000	-6.146671e-001	-7.875170e-001
13342704.000	-6.150015e-001	-7.871363e-001
13348698.000	-6.151825e-001	-7.869596e-001
13354692.000	-6.155549e-001	-7.868868e-001
13360686.000	-6.157860e-001	-7.865514e-001
13366680.000	-6.161019e-001	-7.862663e-001
13372674.000	-6.163747e-001	-7.861519e-001
13378668.000	-6.166684e-001	-7.857926e-001
13384662.000	-6.170065e-001	-7.855049e-001
13390656.000	-6.170818e-001	-7.854199e-001
13396650.000	-6.175462e-001	-7.852779e-001
13402644.000	-6.177120e-001	-7.849526e-001
13408638.000	-6.180365e-001	-7.847358e-001
13414632.000	-6.182718e-001	-7.846710e-001
13420626.000	-6.185810e-001	-7.843545e-001
13426620.000	-6.188493e-001	-7.841753e-001
13432614.000	-6.191456e-001	-7.840539e-001
13438608.000	-6.193187e-001	-7.837800e-001
13444602.000	-6.196644e-001	-7.835234e-001
13450596.000	-6.197830e-001	-7.834754e-001
13456590.000	-6.201789e-001	-7.830347e-001
13462584.000	-6.205211e-001	-7.828572e-001
13468578.000	-6.207037e-001	-7.826005e-001
13474572.000	-6.210794e-001	-7.824178e-001
13480566.000	-6.212789e-001	-7.821330e-001
13486560.000	-6.215999e-001	-7.820089e-001
13492554.000	-6.217730e-001	-7.817429e-001
13498548.000	-6.221424e-001	-7.815864e-001
13504542.000	-6.224184e-001	-7.812963e-001
13510536.000	-6.226160e-001	-7.809722e-001
13516530.000	-6.228248e-001	-7.809449e-001
13522524.000	-6.231912e-001	-7.807628e-001
13528518.000	-6.235965e-001	-7.803560e-001
13534512.000	-6.237556e-001	-7.802431e-001
13540506.000	-6.239375e-001	-7.800730e-001
13546500.000	-6.242102e-001	-7.799122e-001
13552494.000	-6.244247e-001	-7.797980e-001
13558488.000	-6.248862e-001	-7.793617e-001
13564482.000	-6.250307e-001	-7.792315e-001
13570476.000	-6.252865e-001	-7.790974e-001
13576470.000	-6.255750e-001	-7.788877e-001
13582464.000	-6.260659e-001	-7.785778e-001
13588458.000	-6.261740e-001	-7.783549e-001
13594452.000	-6.264798e-001	-7.780987e-001
13600446.000	-6.266790e-001	-7.778162e-001
13606440.000	-6.268453e-001	-7.776188e-001
13612434.000	-6.272381e-001	-7.774841e-001
13618428.000	-6.274868e-001	-7.772175e-001
13624422.000	-6.277071e-001	-7.769243e-001
13630416.000	-6.280659e-001	-7.766627e-001
13636410.000	-6.282359e-001	-7.765900e-001
13642404.000	-6.284872e-001	-7.763540e-001
13648398.000	-6.287759e-001	-7.761047e-001
13654392.000	-6.290888e-001	-7.759217e-001
13660386.000	-6.293472e-001	-7.756933e-001
13666380.000	-6.294561e-001	-7.754491e-001
13672374.000	-6.299017e-001	-7.751141e-001
13678368.000	-6.301783e-001	-7.750825e-001
13684362.000	-6.304768e-001	-7.749109e-001
13690356.000	-6.306598e-001	-7.745589e-001
13696350.000	-6.308307e-001	-7.745480e-001
13702344.000	-6.310080e-001	-7.742359e-001
13708338.000	-6.315058e-001	-7.739730e-001
13714332.000	-6.316212e-001	-7.738115e-001
13720326.000	-6.320903e-001	-7.735915e-001
13726320.000	-6.322691e-001	-7.735162e-001
13732314.000	-6.323412e-001	-7.733097e-001
13738308.000	-6.328358e-001	-7.728279e-001
13744302.000	-6.330442e-001	-7.727593e-001
13750296.000	-6.331751e-001	-7.726366e-001
13756290.000	-6.334113e-001	-7.724142e-001
13762284.000	-6.337940e-001	-7.721332e-001
13768278.000	-6.339595e-001	-7.719312e-001
13774272.000	-6.343553e-001	-7.716436e-001
13780266.000	-6.345773e-001	-7.714286e-001
13786260.000	-6.348897e-001	-7.713093e-001
13792254.000	-6.350838e-001	-7.711282e-001
13798248.000	-6.354442e-001	-7.707706e-001
13804242.000	-6.355453e-001	-7.705871e-001
13810236.000	-6.358104e-001	-7.704241e-001
13816230.000	-6.361048e-001	-7.703006e-001
13822224.000	-6.363146e-001	-7.699943e-001
13828218.000	-6.365298e-001	-7.697450e-001
13834212.000	-6.367787e-001	-7.695662e-001
13840206.000	-6.371697e-001	-7.694683e-001
13846200.000	-6.373861e-001	-7.692270e-001
13852194.000	-6.375734e-001	-7.689798e-001
13858188.000	-6.379689e-001	-7.686510e-001
13864182.000	-6.381485e-001	-7.685602e-001
13870176.000	-6.383276e-001	-7.683175e-001
13876170.000	-6.385066e-001	-7.679817e-001
13882164.000	-6.389579e-001	-7.679007e-001
13888158.000	-6.391630e-001	-7.676323e-001
13894152.000	-6.394092e-001	-7.674497e-001
13900146.000	-6.396526e-001	-7.670847e-001
13906140.000	-6.400397e-001	-7.669534e-001
13912134.000	-6.403198e-001	-7.667640e-001
13918128.000	-6.404423e-001	-7.664669e-001
13924122.000	-6.406919e-001	-7.662332e-001
13930116.000	-6.410209e-001	-7.660493e-001
13936110.000	-6.411381e-001	-7.658758e-001
13942104.000	-6.413899e-001	-7.657959e-001
13948098.000	-6.416713e-001	-7.655376e-001
13954092.000	-6.419252e-001	-7.652814e-001
13960086.000	-6.422599e-001	-7.649753e-001
13966080.000	-6.422863e-001	-7.648481e-001
13972074.000	-6.426422e-001	-7.645981e-001
13978068.000	-6.429851e-001	-7.644073e-001
13984062.000	-6.431832e-001	-7.640199e-001
13990056.000	-6.434517e-001	-7.639013e-001
13996050.000	-6.437311e-001	-7.637061e-001
14002044.000	-6.438531e-001	-7.634618e-001
14008038.000	-6.441699e-001	-7.634119e-001
14014032.000	-6.444484e-001	-7.631223e-001
14020026.000	-6.447170e-001	-7.629768e-001
14026020.000	-6.449000e-001	-7.626760e-001
14032014.000	-6.451250e-001	-7.624630e-001
14038008.000	-6.455958e-001	-7.621985e-001
14044002.000	-6.457293e-001	-7.621313e-001
14049996.000	-6.459847e-001	-7.618405e-001
14055990.000	-6.462060e-001	-7.615697e-001
14061984.000	-6.464922e-001	-7.613239e-001
14067978.000	-6.467301e-001	-7.611283e-001
14073972.000	-6.469282e-001	-7.609049e-001
14079966.000	-6.472401e-001	-7.607558e-001
14085960.000	-6.474773e-001	-7.604090e-001
14091954.000	-6.476819e-001	-7.602901e-001
14097948.000	-6.478967e-001	-7.601382e-001
14103942.000	-6.482001e-001	-7.598583e-001
14109936.000	-6.483665e-001	-7.597010e-001
14115930.000	-6.486694e-001	-7.593283e-001
14121924.000	-6.490243e-001	-7.592456e-001
14127918.000	-6.491031e-001	-7.589621e-001
14133912.000	-6.493585e-001	-7.589073e-001
14139906.000	-6.495431e-001	-7.587342e-001
14145900.000	-6.498623e-001	-7.584419e-001
14151894.000	-6.501321e-001	-7.583522e-001
14157888.000	-6.502806e-001	-7.580699e-001
14163882.000	-6.505022e-001	-7.579090e-001
14169876.000	-6.507719e-001	-7.576712e-001
14175870.000	-6.511021e-001	-7.574073e-001
14181864.000	-6.512886e-001	-7.572038e-001
14187858.000	-6.514963e-001	-7.569300e-001
14193852.000	-6.519338e-001	-7.569426e-001
14199846.000	-6.521227e-001	-7.566146e-001
14205840.000	-6.523515e-001	-7.564324e-001
14211834.000	-6.526485e-001	-7.561019e-001
14217828.000	-6.528765e-001	-7.558792e-001
14223822.000	-6.530225e-001	-7.556364e-001
14229816.000	-6.533611e-001	-7.554945e-001
14235810.000	-6.535671e-001	-7.551900e-001
14241804.000	-6.538334e-001	-7.548695e-001
14247798.000	-6.539977e-001	-7.547119e-001
14253792.000	-6.542981e-001	-7.545958e-001
14259786.000	-6.545468e-001	-7.543687e-001
14265780.000	-6.546799e-001	-7.542342e-001
14271774.000	-6.549829e-001	-7.540505e-001
14277768.000	-6.551367e-001	-7.539936e-001
14283762.000	-6.553478e-001	-7.536683e-001
14289756.000	-6.557456e-001	-7.534198e-001
14295750.000	-6.558501e-001	-7.531574e-001
14301744.000	-6.561557e-001	-7.528733e-001
14307738.000	-6.562826e-001	-7.528060e-001
14313732.000	-6.565532e-001	-7.525455e-001
14319726.000	-6.567444e-001	-7.521805e-001
14325720.000	-6.570526e-001	-7.522147e-001
14331714.000	-6.573045e-001	-7.520253e-001
14337708.000	-6.575009e-001	-7.516832e-001
14343702.000	-6.577718e-001	-7.516277e-001
14349696.000	-6.579855e-001	-7.512819e-001
14355690.000	-6.582352e-001	-7.511644e-001
14361684.000	-6.584434e-001	-7.508022e-001
14367678.000	-6.587373e-001	-7.506374e-001
14373672.000	-6.590259e-001	-7.504938e-001
14379666.000	-6.591269e-001	-7.503271e-001
14385660.000	-6.594376e-001	-7.499940e-001
14391654.000	-6.595858e-001	-7.498314e-001
14397648.000	-6.598259e-001	-7.496868e-001
14403642.000	-6.600325e-001	-7.494723e-001
14409636.000	-6.602371e-001	-7.491916e-001
14415630.000	-6.606135e-001	-7.490338e-001
14421624.000	-6.607814e-001	-7.488066e-001
14427618.000	-6.610905e-001	-7.485234e-001
14433612.000	-6.613400e-001	-7.483812e-001
14439606.000	-6.616051e-001	-7.481594e-001
14445600.000	-6.617259e-001	-7.480611e-001
14451594.000	-6.619005e-001	-7.478485e-001
14457588.000	-6.622033e-001	-7.475304e-001
14463582.000	-6.625641e-001	-7.473330e-001
14469576.000	-6.627026e-001	-7.471142e-001
14475570.000	-6.629978e-001	-7.469225e-001
14481564.000	-6.631718e-001	-7.468459e-001
14487558.000	-6.634656e-001	-7.465425e-001
14493552.000	-6.636832e-001	-7.463624e-001
14499546.000	-6.639227e-001	-7.460328e-001
14505540.000	-6.641828e-001	-7.458191e-001
14511534.000	-6.643508e-001	-7.455666e-001
14517528.000	-6.645442e-001	-7.453436e-001
14523522.000	-6.646839e-001	-7.452239e-001
14529516.000	-6.649976e-001	-7.449960e-001
14535510.000	-6.651890e-001	-7.447958e-001
14541504.000	-6.654422e-001	-7.446218e-001
14547498.000	-6.656214e-001	-7.445411e-001
14553492.000	-6.659205e-001	-7.443559e-001
14559486.000	-6.660800e-001	-7.442238e-001
14565480.000	-6.662840e-001	-7.438745e-001
14571474.000	-6.666036e-001	-7.436964e-001
14577468.000	-6.667873e-001	-7.433876e-001
14583462.000	-6.670757e-001	-7.433106e-001
14589456.000	-6.672571e-001	-7.431070e-001
14595450.000	-6.675549e-001	-7.429315e-001
14601444.000	-6.677229e-001	-7.426677e-001
14607438.000	-6.679763e-001	-7.424268e-001
14613432.000	-6.681561e-001	-7.421585e-001
14619426.000	-6.684671e-001	-7.419886e-001
14625420.000	-6.686888e-001	-7.417328e-001
14631414.000	-6.689705e-001	-7.415870e-001
14637408.000	-6.691243e-001	-7.412469e-001
14643402.000	-6.693729e-001	-7.411767e-001
14649396.000	-6.695631e-001	-7.408764e-001
14655390.000	-6.698507e-001	-7.406956e-001
14661384.000	-6.700022e-001	-7.404521e-001
14667378.000	-6.702080e-001	-7.403691e-001
14673372.000	-6.703624e-001	-7.401003e-001
14679366.000	-6.705788e-001	-7.399399e-001
14685360.000	-6.709552e-001	-7.397577e-001
14691354.000	-6.710996e-001	-7.395353e-001
14697348.000	-6.713890e-001	-7.393712e-001
14703342.000	-6.715257e-001	-7.390821e-001
14709336.000	-6.717282e-001	-7.390283e-001
14715330.000	-6.719359e-001	-7.387194e-001
14721324.000	-6.721252e-001	-7.386123e-001
14727318.000	-6.724434e-001	-7.383211e-001
14733312.000	-6.726013e-001	-7.380876e-001
14739306.000	-6.729166e-001	-7.377906e-001
14745300.000	-6.730884e-001	-7.376582e-001
14751294.000	-6.733075e-001	-7.374664e-001
14757288.000	-6.735632e-001	-7.372280e-001
14763282.000	-6.737866e-001	-7.370437e-001
14769276.000	-6.740461e-001	-7.368897e-001
14775270.000	-6.742167e-001	-7.366915e-001
14781264.000	-6.744697e-001	-7.364663e-001
14787258.000	-6.746111e-001	-7.362714e-001
14793252.000	-6.748911e-001	-7.359621e-001
14799246.000	-6.751449e-001	-7.357693e-001
14805240.000	-6.753222e-001	-7.355666e-001
14811234.000	-6.755178e-001	-7.354256e-001
14817228.000	-6.758509e-001	-7.351489e-001
14823222.000	-6.759049e-001	-7.350964e-001
14829216.000	-6.761789e-001	-7.347371e-001
14835210.000	-6.764507e-001	-7.345079e-001
14841204.000	-6.766444e-001	-7.343758e-001
14847198.000	-6.768658e-001	-7.341288e-001
14853192.000	-6.771501e-001	-7.340013e-001
14859186.000	-6.772683e-001	-7.340209e-001
14865180.000	-6.775308e-001	-7.337844e-001
14871174.000	-6.776662e-001	-7.334319e-001
14877168.000	-6.779324e-001	-7.332755e-001
14883162.000	-6.780907e-001	-7.331388e-001
14889156.000	-6.782737e-001	-7.327258e-001
14895150.000	-6.785296e-001	-7.326981e-001
14901144.000	-6.787280e-001	-7.324356e-001
14907138.000	-6.789351e-001	-7.323407e-001
14913132.000	-6.792569e-001	-7.320415e-001
14919126.000	-6.793324e-001	-7.319263e-001
14925120.000	-6.796435e-001	-7.316602e-001
14931114.000	-6.799096e-001	-7.313917e-001
14937108.000	-6.801689e-001	-7.311442e-001
14943102.000	-6.803011e-001	-7.310868e-001
14949096.000	-6.805250e-001	-7.308048e-001
14955090.000	-6.806651e-001	-7.305867e-001
14961084.000	-6.809390e-001	-7.303824e-001
14967078.000	-6.811283e-001	-7.300078e-001
14973072.000	-6.813942e-001	-7.297413e-001
14979066.000	-6.815755e-001	-7.296880e-001
14985060.000	-6.817863e-001	-7.297360e-001
14991054.000	-6.820447e-001	-7.293302e-001
14997048.000	-6.822318e-001	-7.291879e-001
15003042.000	-6.823902e-001	-7.289300e-001
15009036.000	-6.827122e-001	-7.288546e-001
15015030.000	-6.828588e-001	-7.286516e-001
15021024.000	-6.831036e-001	-7.285180e-001
15027018.000	-6.832772e-001	-7.282372e-001
15033012.000	-6.833892e-001	-7.280411e-001
15039006.000	-6.837641e-001	-7.278770e-001
15045000.000	-6.839985e-001	-7.277196e-001
15050994.000	-6.842377e-001	-7.274469e-001
15056988.000	-6.844451e-001	-7.272743e-001
15062982.000	-6.844563e-001	-7.270579e-001
15068976.000	-6.847229e-001	-7.268039e-001
15074970.000	-6.850343e-001	-7.266151e-001
15080964.000	-6.851679e-001	-7.264090e-001
15086958.000	-6.854579e-001	-7.262271e-001
15092952.000	-6.855081e-001	-7.261193e-001
15098946.000	-6.858512e-001	-7.257921e-001
15104940.000	-6.859732e-001	-7.255386e-001
15110934.000	-6.861186e-001	-7.254848e-001
15116928.000	-6.864498e-001	-7.252014e-001
15122922.000	-6.866230e-001	-7.249667e-001
15128916.000	-6.868548e-001	-7.248701e-001
15134910.000	-6.870034e-001	-7.246203e-001
15140904.000	-6.872892e-001	-7.244122e-001
15146898.000	-6.874606e-001	-7.242064e-001
15152892.000	-6.877109e-001	-7.240736e-001
15158886.000	-6.879592e-001	-7.237935e-001
15164880.000	-6.881412e-001	-7.236555e-001
15170874.000	-6.882208e-001	-7.234676e-001
15176868.000	-6.885638e-001	-7.232793e-001
15182862.000	-6.886739e-001	-7.231037e-001
15188856.000	-6.888428e-001	-7.229323e-001
15194850.000	-6.892179e-001	-7.227036e-001
15200844.000	-6.893038e-001	-7.224781e-001
15206838.000	-6.895300e-001	-7.223561e-001
15212832.000	-6.898049e-001	-7.220713e-001
15218826.000	-6.898518e-001	-7.217378e-001
15224820.000	-6.902272e-001	-7.216236e-001
15230814.000	-6.902729e-001	-7.214158e-001
15236808.000	-6.905449e-001	-7.212600e-001
15242802.000	-6.908341e-001	-7.210352e-001
15248796.000	-6.910499e-001	-7.209833e-001
15254790.000	-6.913302e-001	-7.207655e-001
15260784.000	-6.914409e-001	-7.205648e-001
15266778.000	-6.915489e-001	-7.203423e-001
15272772.000	-6.918370e-001	-7.201388e-001
15278766.000	-6.919801e-001	-7.199444e-001
15284760.000	-6.922910e-001	-7.197367e-001
15290754.000	-6.923592e-001	-7.195451e-001
15296748.000	-6.926484e-001	-7.192727e-001
15302742.000	-6.928522e-001	-7.193136e-001
15308736.000	-6.930542e-001	-7.189192e-001
15314730.000	-6.931207e-001	-7.186532e-001
15320724.000	-6.934196e-001	-7.185543e-001
15326718.000	-6.935148e-001	-7.184670e-001
15332712.000	-6.938306e-001	-7.181029e-001
15338706.000	-6.940444e-001	-7.178868e-001
15344700.000	-6.941879e-001	-7.177075e-001
15350694.000	-6.943970e-001	-7.175213e-001
15356688.000	-6.947127e-001	-7.173074e-001
15362682.000	-6.946939e-001	-7.172392e-001
15368676.000	-6.951006e-001	-7.169300e-001
15374670.000	-6.952652e-001	-7.167239e-001
15380664.000	-6.954737e-001	-7.162917e-001
15386658.000	-6.955429e-001	-7.162238e-001
15392652.000	-6.957640e-001	-7.161594e-001
15398646.000	-6.959252e-001	-7.161096e-001
15404640.000	-6.962247e-001	-7.157809e-001
15410634.000	-6.964129e-001	-7.155570e-001
15416628.000	-6.966010e-001	-7.153100e-001
15422622.000	-6.968339e-001	-7.151850e-001
15428616.000	-6.969511e-001	-7.150251e-001
15434610.000	-6.972154e-001	-7.149831e-001
15440604.000	-6.973766e-001	-7.145514e-001
15446598.000	-6.976344e-001	-7.145252e-001
15452592.000	-6.977654e-001	-7.141661e-001
15458586.000	-6.980381e-001	-7.139903e-001
15464580.000	-6.981068e-001	-7.138570e-001
15470574.000	-6.983761e-001	-7.136350e-001
15476568.000	-6.986342e-001	-7.134144e-001
15482562.000	-6.986608e-001	-7.132169e-001
15488556.000	-6.990041e-001	-7.129717e-001
15494550.000	-6.991932e-001	-7.127592e-001
15500544.000	-6.993683e-001	-7.125832e-001
15506538.000	-6.994543e-001	-7.123999e-001
15512532.000	-6.997152e-001	-7.121688e-001
15518526.000	-6.999654e-001	-7.120925e-001
15524520.000	-7.000520e-001	-7.119267e-001
15530514.000	-7.003984e-001	-7.117147e-001
15536508.000	-7.006514e-001	-7.114490e-001
15542502.000	-7.007709e-001	-7.113311e-001
15548496.000	-7.009039e-001	-7.110599e-001
15554490.000	-7.011600e-001	-7.110627e-001
15560484.000	-7.013904e-001	-7.107320e-001
15566478.000	-7.014961e-001	-7.105009e-001
15572472.000	-7.016444e-001	-7.102989e-001
15578466.000	-7.019422e-001	-7.101952e-001
15584460.000	-7.021208e-001	-7.100770e-001
15590454.000	-7.022900e-001	-7.096901e-001
15596448.000	-7.024275e-001	-7.097288e-001
15602442.000	-7.026380e-001	-7.093106e-001
15608436.000	-7.028946e-001	-7.092002e-001
15614430.000	-7.030235e-001	-7.089357e-001
15620424.000	-7.031580e-001	-7.086958e-001
15626418.000	-7.035152e-001	-7.085029e-001
15632412.000	-7.036948e-001	-7.083565e-001
15638406.000	-7.037332e-001	-7.081728e-001
15644400.000	-7.039847e-001	-7.079877e-001
15650394.000	-7.042171e-001	-7.078375e-001
15656388.000	-7.044244e-001	-7.077071e-001
15662382.000	-7.046518e-001	-7.074571e-001
15668376.000	-7.048303e-001	-7.072200e-001
15674370.000	-7.049669e-001	-7.070926e-001
15680364.000	-7.051031e-001	-7.068254e-001
15686358.000	-7.053112e-001	-7.066150e-001
15692352.000	-7.055692e-001	-7.065010e-001
15698346.000	-7.056699e-001	-7.062483e-001
15704340.000	-7.060290e-001	-7.061641e-001
15710334.000	-7.062229e-001	-7.058785e-001
15716328.000	-7.062594e-001	-7.056339e-001
15722322.000	-7.065207e-001	-7.055246e-001
15728316.000	-7.067382e-001	-7.054743e-001
15734310.000	-7.068429e-001	-7.051437e-001
15740304.000	-7.070403e-001	-7.049160e-001
15746298.000	-7.073024e-001	-7.049009e-001
15752292.000	-7.072993e-001	-7.045536e-001
15758286.000	-7.077332e-001	-7.043887e-001
15764280.000	-7.078411e-001	-7.041076e-001
15770274.000	-7.079578e-001	-7.039622e-001
15776268.000	-7.082370e-001	-7.037480e-001
15782262.000	-7.084036e-001	-7.036482e-001
15788256.000	-7.086439e-001	-7.034357e-001
15794250.000	-7.088418e-001	-7.031070e-001
15800244.000	-7.089999e-001	-7.029797e-001
15806238.000	-7.091670e-001	-7.029276e-001
15812232.000	-7.092419e-001	-7.026843e-001
15818226.000	-7.095771e-001	-7.024492e-001
15824220.000	-7.098089e-001	-7.021182e-001
15830214.000	-7.097445e-001	-7.020684e-001
15836208.000	-7.100571e-001	-7.018150e-001
15842202.000	-7.102321e-001	-7.016058e-001
15848196.000	-7.103819e-001	-7.014734e-001
15854190.000	-7.105626e-001	-7.012678e-001
15860184.000	-7.109423e-001	-7.010966e-001
15866178.000	-7.110547e-001	-7.009735e-001
15872172.000	-7.112264e-001	-7.007533e-001
15878166.000	-7.114732e-001	-7.005099e-001
15884160.000	-7.115789e-001	-7.003269e-001
15890154.000	-7.117768e-001	-7.001210e-001
15896148.000	-7.119227e-001	-7.000165e-001
15902142.000	-7.120740e-001	-6.997303e-001
15908136.000	-7.123878e-001	-6.995392e-001
15914130.000	-7.124638e-001	-6.993459e-001
15920124.000	-7.126428e-001	-6.993121e-001
15926118.000	-7.128080e-001	-6.990443e-001
15932112.000	-7.129625e-001	-6.988671e-001
15938106.000	-7.133138e-001	-6.986406e-001
15944100.000	-7.134637e-001	-6.984378e-001
15950094.000	-7.135677e-001	-6.983099e-001
15956088.000	-7.137209e-001	-6.982660e-001
15962082.000	-7.139873e-001	-6.978571e-001
15968076.000	-7.140899e-001	-6.976457e-001
15974070.000	-7.144241e-001	-6.975118e-001
15980064.000	-7.145500e-001	-6.973081e-001
15986058.000	-7.147001e-001	-6.971319e-001
15992052.000	-7.149048e-001	-6.970034e-001
15998046.000	-7.150123e-001	-6.967703e-001
16004040.000	-7.152622e-001	-6.966281e-001
16010034.000	-7.154082e-001	-6.965519e-001
16016028.000	-7.155742e-001	-6.963194e-001
16022022.000	-7.158396e-001	-6.961189e-001
16028016.000	-7.160146e-001	-6.957997e-001
16034010.000	-7.161357e-001	-6.956383e-001
16040004.000	-7.162807e-001	-6.955201e-001
16045998.000	-7.164465e-001	-6.953930e-001
16051992.000	-7.165874e-001	-6.950637e-001
16057986.000	-7.168380e-001	-6.949007e-001
16063980.000	-7.170054e-001	-6.948019e-001
16069974.000	-7.172705e-001	-6.945436e-001
16075968.000	-7.173919e-001	-6.944103e-001
16081962.000	-7.175435e-001	-6.942666e-001
16087956.000	-7.178323e-001	-6.939042e-001
16093950.000	-7.180287e-001	-6.938735e-001
16099944.000	-7.179817e-001	-6.936689e-001
16105938.000	-7.183752e-001	-6.935189e-001
16111932.000	-7.184238e-001	-6.933709e-001
16117926.000	-7.186568e-001	-6.930369e-001
16123920.000	-7.187989e-001	-6.929666e-001
16129914.000	-7.189390e-001	-6.925970e-001
16135908.000	-7.191144e-001	-6.924741e-001
16141902.000	-7.193833e-001	-6.921875e-001
16147896.000	-7.195037e-001	-6.920356e-001
16153890.000	-7.197427e-001	-6.918589e-001
16159884.000	-7.198153e-001	-6.918557e-001
16165878.000	-7.200612e-001	-6.915542e-001
16171872.000	-7.202964e-001	-6.913822e-001
16177866.000	-7.205050e-001	-6.912342e-001
16183860.000	-7.206078e-001	-6.909372e-001
16189854.000	-7.208870e-001	-6.908590e-001
16195848.000	-7.210157e-001	-6.905511e-001
16201842.000	-7.211335e-001	-6.903982e-001
16207836.000	-7.212984e-001	-6.903376e-001
16213830.000	-7.215202e-001	-6.900156e-001
16219824.000	-7.216536e-001	-6.898343e-001
16225818.000	-7.218565e-001	-6.897716e-001
16231812.000	-7.219963e-001	-6.894590e-001
16237806.000	-7.222784e-001	-6.892529e-001
16243800.000	-7.224159e-001	-6.889751e-001
16249794.000	-7.225794e-001	-6.888462e-001
16255788.000	-7.227851e-001	-6.887539e-001
16261782.000	-7.229696e-001	-6.885247e-001
16267776.000	-7.229601e-001	-6.883326e-001
16273770.000	-7.232157e-001	-6.880869e-001
16279764.000	-7.234053e-001	-6.878430e-001
16285758.000	-7.235335e-001	-6.877653e-001
16291752.000	-7.237984e-001	-6.876172e-001
16297746.000	-7.240114e-001	-6.874396e-001
16303740.000	-7.241273e-001	-6.872918e-001
16309734.000	-7.241633e-001	-6.869827e-001
16315728.000	-7.244431e-001	-6.868225e-001
16321722.000	-7.246650e-001	-6.868313e-001
16327716.000	-7.248383e-001	-6.864019e-001
16333710.000	-7.249884e-001	-6.862867e-001
16339704.000	-7.251341e-001	-6.861640e-001
16345698.000	-7.253642e-001	-6.859093e-001
16351692.000	-7.255397e-001	-6.857873e-001
16357686.000	-7.257336e-001	-6.855579e-001
16363680.000	-7.258945e-001	-6.854995e-001
16369674.000	-7.260561e-001	-6.852422e-001
16375668.000	-7.262057e-001	-6.850441e-001
16381662.000	-7.264066e-001	-6.847703e-001
16387656.000	-7.265785e-001	-6.846905e-001
16393650.000	-7.267635e-001	-6.845431e-001
16399644.000	-7.268153e-001	-6.842638e-001
16405638.000	-7.270182e-001	-6.841662e-001
16411632.000	-7.271661e-001	-6.839079e-001
16417626.000	-7.273689e-001	-6.836449e-001
16423620.000	-7.275677e-001	-6.835992e-001
16429614.000	-7.277496e-001	-6.834654e-001
16435608.000	-7.278335e-001	-6.832409e-001
16441602.000	-7.279990e-001	-6.830162e-001
16447596.000	-7.281960e-001	-6.829704e-001
16453590.000	-7.282841e-001	-6.828383e-001
16459584.000	-7.284991e-001	-6.825663e-001
16465578.000	-7.288197e-001	-6.825258e-001
16471572.000	-7.289020e-001	-6.820446e-001
16477566.000	-7.291405e-001	-6.820090e-001
16483560.000	-7.292024e-001	-6.816395e-001
16489554.000	-7.294638e-001	-6.816619e-001
16495548.000	-7.295857e-001	-6.816780e-001
16501542.000	-7.297603e-001	-6.812254e-001
16507536.000	-7.298992e-001	-6.811604e-001
16513530.000	-7.300331e-001	-6.809666e-001
16519524.000	-7.302832e-001	-6.807140e-001
16525518.000	-7.303259e-001	-6.804737e-001
16531512.000	-7.306419e-001	-6.803636e-001
16537506.000	-7.307100e-001	-6.801207e-001
16543500.000	-7.309485e-001	-6.800479e-001
16549494.000	-7.310746e-001	-6.797555e-001
16555488.000	-7.313183e-001	-6.795065e-001
16561482.000	-7.314632e-001	-6.795024e-001
16567476.000	-7.315701e-001	-6.791584e-001
16573470.000	-7.317782e-001	-6.790803e-001
16579464.000	-7.318902e-001	-6.789013e-001
16585458.000	-7.320115e-001	-6.786219e-001
16591452.000	-7.322835e-001	-6.785074e-001
16597446.000	-7.325289e-001	-6.782243e-001
16603440.000	-7.326630e-001	-6.782259e-001
16609434.000	-7.327268e-001	-6.778595e-001
16615428.000	-7.329541e-001	-6.778062e-001
16621422.000	-7.330815e-001	-6.775382e-001
16627416.000	-7.331470e-001	-6.775373e-001
16633410.000	-7.333791e-001	-6.772704e-001
16639404.000	-7.335054e-001	-6.772640e-001
16645398.000	-7.337591e-001	-6.769452e-001
16651392.000	-7.339184e-001	-6.768294e-001
16657386.000	-7.341433e-001	-6.765376e-001
16663380.000	-7.342003e-001	-6.763804e-001
16669374.000	-7.344601e-001	-6.762110e-001
16675368.000	-7.346102e-001	-6.759250e-001
16681362.000	-7.348245e-001	-6.757873e-001
16687356.000	-7.348610e-001	-6.757553e-001
16693350.000	-7.350852e-001	-6.755118e-001
16699344.000	-7.352459e-001	-6.752643e-001
16705338.000	-7.354460e-001	-6.750484e-001
16711332.000	-7.355332e-001	-6.749747e-001
16717326.000	-7.356955e-001	-6.748616e-001
16723320.000	-7.359039e-001	-6.745972e-001
16729314.000	-7.361000e-001	-6.744395e-001
16735308.000	-7.363009e-001	-6.742990e-001
16741302.000	-7.362835e-001	-6.740189e-001
16747296.000	-7.365647e-001	-6.738466e-001
16753290.000	-7.366993e-001	-6.737142e-001
16759284.000	-7.367751e-001	-6.735448e-001
16765278.000	-7.369756e-001	-6.734139e-001
16771272.000	-7.371822e-001	-6.731705e-001
16777266.000	-7.372941e-001	-6.729721e-001
16783260.000	-7.375221e-001	-6.728370e-001
16789254.000	-7.376210e-001	-6.726594e-001
16795248.000	-7.378156e-001	-6.725028e-001
16801242.000	-7.379591e-001	-6.722488e-001
16807236.000	-7.381715e-001	-6.722252e-001
16813230.000	-7.383016e-001	-6.717536e-001
16819224.000	-7.384715e-001	-6.717194e-001
16825218.000	-7.387512e-001	-6.715699e-001
16831212.000	-7.388872e-001	-6.712789e-001
16837206.000	-7.389543e-001	-6.710774e-001
16843200.000	-7.391629e-001	-6.710409e-001
16849194.000	-7.393523e-001	-6.708310e-001
16855188.000	-7.393813e-001	-6.707541e-001
16861182.000	-7.396461e-001	-6.705285e-001
16867176.000	-7.397831e-001	-6.702275e-001
16873170.000	-7.399682e-001	-6.701115e-001
16879164.000	-7.402053e-001	-6.699089e-001
16885158.000	-7.402814e-001	-6.698603e-001
16891152.000	-7.403558e-001	-6.696915e-001
16897146.000	-7.407128e-001	-6.695218e-001
16903140.000	-7.407202e-001	-6.689965e-001
16909134.000	-7.408984e-001	-6.690981e-001
16915128.000	-7.411070e-001	-6.688305e-001
16921122.000	-7.412465e-001	-6.686884e-001
16927116.000	-7.413756e-001	-6.684264e-001
16933110.000	-7.414309e-001	-6.684113e-001
16939104.000	-7.416701e-001	-6.681900e-001
16945098.000	-7.418957e-001	-6.680642e-001
16951092.000	-7.421484e-001	-6.678645e-001
16957086.000	-7.421447e-001	-6.676993e-001
16963080.000	-7.422476e-001	-6.675965e-001
16969074.000	-7.425730e-001	-6.673047e-001
16975068.000	-7.426661e-001	-6.671944e-001
16981062.000	-7.427560e-001	-6.670153e-001
16987056.000	-7.430072e-001	-6.668039e-001
16993050.000	-7.432274e-001	-6.664857e-001
16999044.000	-7.431800e-001	-6.663860e-001
17005038.000	-7.434187e-001	-6.662772e-001
17011032.000	-7.435569e-001	-6.660685e-001
17017026.000	-7.437104e-001	-6.658819e-001
17023020.000	-7.438978e-001	-6.656598e-001
17029014.000	-7.440478e-001	-6.655057e-001
17035008.000	-7.441720e-001	-6.653424e-001
17041002.000	-7.443934e-001	-6.649981e-001
17046996.000	-7.445111e-001	-6.649827e-001
17052990.000	-7.447685e-001	-6.647589e-001
17058984.000	-7.447047e-001	-6.645862e-001
17064978.000	-7.449236e-001	-6.643874e-001
17070972.000	-7.451549e-001	-6.642719e-001
17076966.000	-7.452133e-001	-6.639742e-001
17082960.000	-7.455363e-001	-6.637821e-001
17088954.000	-7.455306e-001	-6.637539e-001
17094948.000	-7.456688e-001	-6.636455e-001
17100942.000	-7.458150e-001	-6.634218e-001
17106936.000	-7.460173e-001	-6.632719e-001
17112930.000	-7.463225e-001	-6.630929e-001
17118924.000	-7.463787e-001	-6.628886e-001
17124918.000	-7.464911e-001	-6.626413e-001
17130912.000	-7.467334e-001	-6.626399e-001
17136906.000	-7.466855e-001	-6.624590e-001
17142900.000	-7.470765e-001	-6.621519e-001
17148894.000	-7.471196e-001	-6.619603e-001
17154888.000	-7.471468e-001	-6.619816e-001
17160882.000	-7.474464e-001	-6.615783e-001
17166876.000	-7.476099e-001	-6.615014e-001
17172870.000	-7.477555e-001	-6.613790e-001
17178864.000	-7.478910e-001	-6.610406e-001
17184858.000	-7.480868e-001	-6.608560e-001
17190852.000	-7.480362e-001	-6.608077e-001
17196846.000	-7.483910e-001	-6.607657e-001
17202840.000	-7.484081e-001	-6.604693e-001
17208834.000	-7.486696e-001	-6.602730e-001
17214828.000	-7.486999e-001	-6.602779e-001
17220822.000	-7.489182e-001	-6.601366e-001
17226816.000	-7.490589e-001	-6.599315e-001
17232810.000	-7.492821e-001	-6.595865e-001
17238804.000	-7.494335e-001	-6.594652e-001
17244798.000	-7.495654e-001	-6.592287e-001
17250792.000	-7.498492e-001	-6.590774e-001
17256786.000	-7.498943e-001	-6.588734e-001
17262780.000	-7.499425e-001	-6.586404e-001
17268774.000	-7.501863e-001	-6.584758e-001
17274768.000	-7.503529e-001	-6.582574e-001
17280762.000	-7.504357e-001	-6.580311e-001
17286756.000	-7.506353e-001	-6.579855e-001
17292750.000	-7.507937e-001	-6.578199e-001
17298744.000	-7.508793e-001	-6.576896e-001
17304738.000	-7.509419e-001	-6.575470e-001
17310732.000	-7.511589e-001	-6.572736e-001
17316726.000	-7.513331e-001	-6.571491e-001
17322720.000	-7.515452e-001	-6.568661e-001
17328714.000	-7.517103e-001	-6.566404e-001
17334708.000	-7.518920e-001	-6.565196e-001
17340702.000	-7.519829e-001	-6.564535e-001
17346696.000	-7.520456e-001	-6.562531e-001
17352690.000	-7.522785e-001	-6.560147e-001
17358684.000	-7.524165e-001	-6.558629e-001
17364678.000	-7.525420e-001	-6.556573e-001
17370672.000	-7.528104e-001	-6.555306e-001
17376666.000	-7.529271e-001	-6.552907e-001
17382660.000	-7.529934e-001	-6.550899e-001
17388654.000	-7.531001e-001	-6.551359e-001
17394648.000	-7.532856e-001	-6.548969e-001
17400642.000	-7.534090e-001	-6.547862e-001
17406636.000	-7.535497e-001	-6.545160e-001
17412630.000	-7.537932e-001	-6.543663e-001
17418624.000	-7.538095e-001	-6.541912e-001
17424618.000	-7.539210e-001	-6.540161e-001
17430612.000	-7.541109e-001	-6.540514e-001
17436606.000	-7.542898e-001	-6.538341e-001
17442600.000	-7.543941e-001	-6.536694e-001
17448594.000	-7.545962e-001	-6.534401e-001
17454588.000	-7.547418e-001	-6.533052e-001
17460582.000	-7.548515e-001	-6.530214e-001
17466576.000	-7.550145e-001	-6.529040e-001
17472570.000	-7.552192e-001	-6.527755e-001
17478564.000	-7.553039e-001	-6.527116e-001
17484558.000	-7.555258e-001	-6.525366e-001
17490552.000	-7.556623e-001	-6.522581e-001
17496546.000	-7.557724e-001	-6.520902e-001
17502540.000	-7.559448e-001	-6.519245e-001
17508534.000	-7.560908e-001	-6.517941e-001
17514528.000	-7.563429e-001	-6.515362e-001
17520522.000	-7.563292e-001	-6.514069e-001
17526516.000	-7.565468e-001	-6.512078e-001
17532510.000	-7.566822e-001	-6.511903e-001
17538504.000	-7.568150e-001	-6.509576e-001
17544498.000	-7.569073e-001	-6.508002e-001
17550492.000	-7.571265e-001	-6.505240e-001
17556486.000	-7.572768e-001	-6.505160e-001
17562480.000	-7.573763e-001	-6.502502e-001
17568474.000	-7.575490e-001	-6.500999e-001
17574468.000	-7.576377e-001	-6.498265e-001
17580462.000	-7.577586e-001	-6.497237e-001
17586456.000	-7.579733e-001	-6.495792e-001
17592450.000	-7.580596e-001	-6.493826e-001
17598444.000	-7.582725e-001	-6.491815e-001
17604438.000	-7.585158e-001	-6.491259e-001
17610432.000	-7.583834e-001	-6.488934e-001
17616426.000	-7.586884e-001	-6.486145e-001
17622420.000	-7.588538e-001	-6.485494e-001
17628414.000	-7.590641e-001	-6.483181e-001
17634408.000	-7.590707e-001	-6.481793e-001
17640402.000	-7.593164e-001	-6.480489e-001
17646396.000	-7.594375e-001	-6.479109e-001
17652390.000	-7.594730e-001	-6.477123e-001
17658384.000	-7.596874e-001	-6.474100e-001
17664378.000	-7.597670e-001	-6.474006e-001
17670372.000	-7.599789e-001	-6.472110e-001
17676366.000	-7.600734e-001	-6.469585e-001
17682360.000	-7.603330e-001	-6.468100e-001
17688354.000	-7.603938e-001	-6.466965e-001
17694348.000	-7.605127e-001	-6.465296e-001
17700342.000	-7.606570e-001	-6.463599e-001
17706336.000	-7.608077e-001	-6.460876e-001
17712330.000	-7.609196e-001	-6.460551e-001
17718324.000	-7.610432e-001	-6.459077e-001
17724318.000	-7.613217e-001	-6.455869e-001
17730312.000	-7.614095e-001	-6.455239e-001
17736306.000	-7.615219e-001	-6.454071e-001
17742300.000	-7.616378e-001	-6.452267e-001
17748294.000	-7.618761e-001	-6.449792e-001
17754288.000	-7.619054e-001	-6.449952e-001
17760282.000	-7.620585e-001	-6.446911e-001
17766276.000	-7.621227e-001	-6.444536e-001
17772270.000	-7.623895e-001	-6.443080e-001
17778264.000	-7.625657e-001	-6.442624e-001
17784258.000	-7.626006e-001	-6.439363e-001
17790252.000	-7.628052e-001	-6.437877e-001
17796246.000	-7.629610e-001	-6.437010e-001
17802240.000	-7.630947e-001	-6.434643e-001
17808234.000	-7.631803e-001	-6.432953e-001
17814228.000	-7.632873e-001	-6.431555e-001
17820222.000	-7.634312e-001	-6.430646e-001
17826216.000	-7.636481e-001	-6.429153e-001
17832210.000	-7.637748e-001	-6.426899e-001
17838204.000	-7.638098e-001	-6.424203e-001
17844198.000	-7.640591e-001	-6.423388e-001
17850192.000	-7.641394e-001	-6.422487e-001
17856186.000	-7.642395e-001	-6.420327e-001
17862180.000	-7.644521e-001	-6.417059e-001
17868174.000	-7.646291e-001	-6.415791e-001
17874168.000	-7.647469e-001	-6.414747e-001
17880162.000	-7.649414e-001	-6.412216e-001
17886156.000	-7.650088e-001	-6.410443e-001
17892150.000	-7.651967e-001	-6.408803e-001
17898144.000	-7.652597e-001	-6.408061e-001
17904138.000	-7.655877e-001	-6.407678e-001
17910132.000	-7.655703e-001	-6.404543e-001
17916126.000	-7.656918e-001	-6.402585e-001
17922120.000	-7.657969e-001	-6.400575e-001
17928114.000	-7.661828e-001	-6.398952e-001
17934108.000	-7.661428e-001	-6.397400e-001
17940102.000	-7.662338e-001	-6.396781e-001
17946096.000	-7.663352e-001	-6.394237e-001
17952090.000	-7.665187e-001	-6.392285e-001
17958084.000	-7.665208e-001	-6.391030e-001
17964078.000	-7.667708e-001	-6.388821e-001
17970072.000	-7.669767e-001	-6.388030e-001
17976066.000	-7.669793e-001	-6.387181e-001
17982060.000	-7.671979e-001	-6.385426e-001
17988054.000	-7.673113e-001	-6.382202e-001
17994048.000	-7.675216e-001	-6.381600e-001
18000042.000	-7.675234e-001	-6.379262e-001
18006036.000	-7.677751e-001	-6.378197e-001
18012030.000	-7.678300e-001	-6.376726e-001
18018024.000	-7.679922e-001	-6.374966e-001
18024018.000	-7.682314e-001	-6.372256e-001
18030012.000	-7.681906e-001	-6.369803e-001
18036006.000	-7.685184e-001	-6.368565e-001
18042000.000	-7.685122e-001	-6.369124e-001
18047994.000	-7.686208e-001	-6.367263e-001
18053988.000	-7.689140e-001	-6.365172e-001
18059982.000	-7.689397e-001	-6.362893e-001
18065976.000	-7.690037e-001	-6.361622e-001
18071970.000	-7.691882e-001	-6.360653e-001
18077964.000	-7.693196e-001	-6.359122e-001
18083958.000	-7.693484e-001	-6.358242e-001
18089952.000	-7.695976e-001	-6.355522e-001
18095946.000	-7.697845e-001	-6.353552e-001
18101940.000	-7.698381e-001	-6.352699e-001
18107934.000	-7.699940e-001	-6.349865e-001
18113928.000	-7.701067e-001	-6.348913e-001
18119922.000	-7.703096e-001	-6.346505e-001
18125916.000	-7.703231e-001	-6.345124e-001
18131910.000	-7.705953e-001	-6.343173e-001
18137904.000	-7.706615e-001	-6.342916e-001
18143898.000	-7.708795e-001	-6.340831e-001
18149892.000	-7.710166e-001	-6.339011e-001
18155886.000	-7.711434e-001	-6.337217e-001
18161880.000	-7.712781e-001	-6.336950e-001
18167874.000	-7.712984e-001	-6.334213e-001
18173868.000	-7.715017e-001	-6.333105e-001
18179862.000	-7.716515e-001	-6.332041e-001
18185856.000	-7.717585e-001	-6.328615e-001
18191850.000	-7.718935e-001	-6.326947e-001
18197844.000	-7.720613e-001	-6.326823e-001
18203838.000	-7.721082e-001	-6.325723e-001
18209832.000	-7.721664e-001	-6.323561e-001
18215826.000	-7.724511e-001	-6.322540e-001
18221820.000	-7.725727e-001	-6.320184e-001
18227814.000	-7.725686e-001	-6.318758e-001
18233808.000	-7.727352e-001	-6.316224e-001
18239802.000	-7.728197e-001	-6.314317e-001
18245796.000	-7.730396e-001	-6.312928e-001
18251790.000	-7.730844e-001	-6.312644e-001
18257784.000	-7.733903e-001	-6.308315e-001
18263778.000	-7.734506e-001	-6.307718e-001
18269772.000	-7.735233e-001	-6.306307e-001
18275766.000	-7.738112e-001	-6.305012e-001
18281760.000	-7.738937e-001	-6.302997e-001
18287754.000	-7.738624e-001	-6.301511e-001
18293748.000	-7.740348e-001	-6.300745e-001
18299742.000	-7.742406e-001	-6.298685e-001
18305736.000	-7.742711e-001	-6.298194e-001
18311730.000	-7.745243e-001	-6.296490e-001
18317724.000	-7.745245e-001	-6.294496e-001
18323718.000	-7.748280e-001	-6.291730e-001
18329712.000	-7.748838e-001	-6.289871e-001
18335706.000	-7.750287e-001	-6.290059e-001
18341700.000	-7.752031e-001	-6.286738e-001
18347694.000	-7.753161e-001	-6.284774e-001
18353688.000	-7.753921e-001	-6.284749e-001
18359682.000	-7.755288e-001	-6.283785e-001
18365676.000	-7.756661e-001	-6.282272e-001
18371670.000	-7.757406e-001	-6.280586e-001
18377664.000	-7.759067e-001	-6.277459e-001
18383658.000	-7.760676e-001	-6.276725e-001
18389652.000	-7.760564e-001	-6.275930e-001
18395646.000	-7.762722e-001	-6.275488e-001
18401640.000	-7.764087e-001	-6.271530e-001
18407634.000	-7.765966e-001	-6.271083e-001
18413628.000	-7.766145e-001	-6.268547e-001
18419622.000	-7.768411e-001	-6.268113e-001
18425616.000	-7.769367e-001	-6.265663e-001
18431610.000	-7.771188e-001	-6.262746e-001
18437604.000	-7.771784e-001	-6.262498e-001
18443598.000	-7.772664e-001	-6.259740e-001
18449592.000	-7.774366e-001	-6.257269e-001
18455586.000	-7.776177e-001	-6.256408e-001
18461580.000	-7.777368e-001	-6.255055e-001
18467574.000	-7.778511e-001	-6.253261e-001
18473568.000	-7.778650e-001	-6.251788e-001
18479562.000	-7.781067e-001	-6.249535e-001
18485556.000	-7.780787e-001	-6.249381e-001
18491550.000	-7.783312e-001	-6.247702e-001
18497544.000	-7.784126e-001	-6.246335e-001
18503538.000	-7.785954e-001	-6.245147e-001
18509532.000	-7.787817e-001	-6.243663e-001
18515526.000	-7.788541e-001	-6.240821e-001
18521520.000	-7.788733e-001	-6.239062e-001
18527514.000	-7.791146e-001	-6.238049e-001
18533508.000	-7.793568e-001	-6.236920e-001
18539502.000	-7.793898e-001	-6.235112e-001
18545496.000	-7.795598e-001	-6.233559e-001
18551490.000	-7.796012e-001	-6.231736e-001
18557484.000	-7.798373e-001	-6.230762e-001
18563478.000	-7.798232e-001	-6.230019e-001
18569472.000	-7.799086e-001	-6.227673e-001
18575466.000	-7.801614e-001	-6.225963e-001
18581460.000	-7.803202e-001	-6.223982e-001
18587454.000	-7.803413e-001	-6.223083e-001
18593448.000	-7.804867e-001	-6.221597e-001
18599442.000	-7.805829e-001	-6.218760e-001
18605436.000	-7.807012e-001	-6.215915e-001
18611430.000	-7.808029e-001	-6.216185e-001
18617424.000	-7.809430e-001	-6.214619e-001
18623418.000	-7.811093e-001	-6.213575e-001
18629412.000	-7.812079e-001	-6.211166e-001
18635406.000	-7.812985e-001	-6.209089e-001
18641400.000	-7.814754e-001	-6.208024e-001
18647394.000	-7.816549e-001	-6.205896e-001
18653388.000	-7.817677e-001	-6.205015e-001
18659382.000	-7.818619e-001	-6.202714e-001
18665376.000	-7.820109e-001	-6.202569e-001
18671370.000	-7.820702e-001	-6.200086e-001
18677364.000	-7.822628e-001	-6.199655e-001
18683358.000	-7.822771e-001	-6.198042e-001
18689352.000	-7.823553e-001	-6.197347e-001
18695346.000	-7.824972e-001	-6.195046e-001
18701340.000	-7.827419e-001	-6.194463e-001
18707334.000	-7.828932e-001	-6.191969e-001
18713328.000	-7.829525e-001	-6.190423e-001
18719322.000	-7.831316e-001	-6.190283e-001
18725316.000	-7.831561e-001	-6.187780e-001
18731310.000	-7.833468e-001	-6.185277e-001
18737304.000	-7.834436e-001	-6.183314e-001
18743298.000	-7.836024e-001	-6.182344e-001
18749292.000	-7.836239e-001	-6.181042e-001
18755286.000	-7.838955e-001	-6.179167e-001
18761280.000	-7.839437e-001	-6.178380e-001
18767274.000	-7.840285e-001	-6.177046e-001
18773268.000	-7.841831e-001	-6.174938e-001
18779262.000	-7.843420e-001	-6.172239e-001
18785256.000	-7.844538e-001	-6.171822e-001
18791250.000	-7.845643e-001	-6.169316e-001
18797244.000	-7.846265e-001	-6.168754e-001
18803238.000	-7.848351e-001	-6.167093e-001
18809232.000	-7.849584e-001	-6.165394e-001
18815226.000	-7.849629e-001	-6.163128e-001
18821220.000	-7.852693e-001	-6.162882e-001
18827214.000	-7.854064e-001	-6.160097e-001
18833208.000	-7.854063e-001	-6.158340e-001
18839202.000	-7.854126e-001	-6.157580e-001
18845196.000	-7.856307e-001	-6.156227e-001
18851190.000	-7.858171e-001	-6.154136e-001
18857184.000	-7.859228e-001	-6.152884e-001
18863178.000	-7.860844e-001	-6.151335e-001
18869172.000	-7.861744e-001	-6.150058e-001
18875166.000	-7.862759e-001	-6.147110e-001
18881160.000	-7.863433e-001	-6.146036e-001
18887154.000	-7.864946e-001	-6.144935e-001
18893148.000	-7.866562e-001	-6.144250e-001
18899142.000	-7.867960e-001	-6.142530e-001
18905136.000	-7.868742e-001	-6.140603e-001
18911130.000	-7.869317e-001	-6.138269e-001
18917124.000	-7.870944e-001	-6.137006e-001
18923118.000	-7.871368e-001	-6.135496e-001
18929112.000	-7.872963e-001	-6.132927e-001
18935106.000	-7.875053e-001	-6.132165e-001
18941100.000	-7.875983e-001	-6.132712e-001
18947094.000	-7.876200e-001	-6.130167e-001
18953088.000	-7.877350e-001	-6.129080e-001
18959082.000	-7.879678e-001	-6.127742e-001
18965076.000	-7.880090e-001	-6.124760e-001
18971070.000	-7.882637e-001	-6.123966e-001
18977064.000	-7.882885e-001	-6.122566e-001
18983058.000	-7.883542e-001	-6.120684e-001
18989052.000	-7.885127e-001	-6.118518e-001
18995046.000	-7.886756e-001	-6.117204e-001
19001040.000	-7.887441e-001	-6.114872e-001
19007034.000	-7.889533e-001	-6.114178e-001
19013028.000	-7.890294e-001	-6.113429e-001
19019022.000	-7.890397e-001	-6.111386e-001
19025016.000	-7.892754e-001	-6.110105e-001
19031010.000	-7.892977e-001	-6.107755e-001
19037004.000	-7.895293e-001	-6.106189e-001
19042998.000	-7.896463e-001	-6.105775e-001
19048992.000	-7.898037e-001	-6.102240e-001
19054986.000	-7.897699e-001	-6.102389e-001
19060980.000	-7.899356e-001	-6.101127e-001
19066974.000	-7.900472e-001	-6.099358e-001
19072968.000	-7.902144e-001	-6.097503e-001
19078962.000	-7.902375e-001	-6.095763e-001
19084956.000	-7.903251e-001	-6.094945e-001
19090950.000	-7.906072e-001	-6.092690e-001
19096944.000	-7.905761e-001	-6.091219e-001
19102938.000	-7.908102e-001	-6.090285e-001
19108932.000	-7.909048e-001	-6.088379e-001
19114926.000	-7.911068e-001	-6.087147e-001
19120920.000	-7.911622e-001	-6.086062e-001
19126914.000	-7.912133e-001	-6.083867e-001
19132908.000	-7.913992e-001	-6.081095e-001
19138902.000	-7.914236e-001	-6.080389e-001
19144896.000	-7.915320e-001	-6.079402e-001
19150890.000	-7.916638e-001	-6.076836e-001
19156884.000	-7.918104e-001	-6.075559e-001
19162878.000	-7.918631e-001	-6.074125e-001
19168872.000	-7.919786e-001	-6.072288e-001
19174866.000	-7.921058e-001	-6.071183e-001
19180860.000	-7.922060e-001	-6.069799e-001
19186854.000	-7.923485e-001	-6.067798e-001
19192848.000	-7.924839e-001	-6.067263e-001
19198842.000	-7.926199e-001	-6.065217e-001
19204836.000	-7.926955e-001	-6.063382e-001
19210830.000	-7.929133e-001	-6.061645e-001
19216824.000	-7.929362e-001	-6.061053e-001
19222818.000	-7.930106e-001	-6.060296e-001
19228812.000	-7.932037e-001	-6.057478e-001
19234806.000	-7.933783e-001	-6.055896e-001
19240800.000	-7.934629e-001	-6.055462e-001
19246794.000	-7.935957e-001	-6.053284e-001
19252788.000	-7.936645e-001	-6.052060e-001
19258782.000	-7.937661e-001	-6.050998e-001
19264776.000	-7.939026e-001	-6.047704e-001
19270770.000	-7.939681e-001	-6.047950e-001
19276764.000	-7.939950e-001	-6.048427e-001
19282758.000	-7.941525e-001	-6.045498e-001
19288752.000	-7.942942e-001	-6.043075e-001
19294746.000	-7.945331e-001	-6.042509e-001
19300740.000	-7.945547e-001	-6.040490e-001
19306734.000	-7.946132e-001	-6.039813e-001
19312728.000	-7.947052e-001	-6.038387e-001
19318722.000	-7.948906e-001	-6.037336e-001
19324716.000	-7.949106e-001	-6.034628e-001
19330710.000	-7.951225e-001	-6.032255e-001
19336704.000	-7.952146e-001	-6.031934e-001
19342698.000	-7.954152e-001	-6.030881e-001
19348692.000	-7.954111e-001	-6.027826e-001
19354686.000	-7.955225e-001	-6.025979e-001
19360680.000	-7.956752e-001	-6.025299e-001
19366674.000	-7.958738e-001	-6.024290e-001
19372668.000	-7.959437e-001	-6.023188e-001
19378662.000	-7.959664e-001	-6.021492e-001
19384656.000	-7.960691e-001	-6.020566e-001
19390650.000	-7.963234e-001	-6.017701e-001
19396644.000	-7.962820e-001	-6.016335e-001
19402638.000	-7.963066e-001	-6.014419e-001
19408632.000	-7.965889e-001	-6.014049e-001
19414626.000	-7.966904e-001	-6.011709e-001
19420620.000	-7.968436e-001	-6.010351e-001
19426614.000	-7.969571e-001	-6.009331e-001
19432608.000	-7.970218e-001	-6.007151e-001
19438602.000	-7.970842e-001	-6.006761e-001
19444596.000	-7.972592e-001	-6.004104e-001
19450590.000	-7.974303e-001	-6.003650e-001
19456584.000	-7.974734e-001	-6.001402e-001
19462578.000	-7.975322e-001	-5.999960e-001
19468572.000	-7.975869e-001	-5.997910e-001
19474566.000	-7.977588e-001	-5.996569e-001
19480560.000	-7.979301e-001	-5.993863e-001
19486554.000	-7.979015e-001	-5.993924e-001
19492548.000	-7.982057e-001	-5.992799e-001
19498542.000	-7.983003e-001	-5.991613e-001
19504536.000	-7.983471e-001	-5.989186e-001
19510530.000	-7.984077e-001	-5.988525e-001
19516524.000	-7.985697e-001	-5.985587e-001
19522518.000	-7.986126e-001	-5.984329e-001
19528512.000	-7.987828e-001	-5.983497e-001
19534506.000	-7.987992e-001	-5.982447e-001
19540500.000	-7.989735e-001	-5.980428e-001
19546494.000	-7.991642e-001	-5.978309e-001
19552488.000	-7.991702e-001	-5.979010e-001
19558482.000	-7.992624e-001	-5.976570e-001
19564476.000	-7.993657e-001	-5.974085e-001
19570470.000	-7.995615e-001	-5.974219e-001
19576464.000	-7.995459e-001	-5.971260e-001
19582458.000	-7.997547e-001	-5.971466e-001
19588452.000	-7.999519e-001	-5.970115e-001
19594446.000	-7.999910e-001	-5.968040e-001
19600440.000	-8.001032e-001	-5.966863e-001
19606434.000	-8.000775e-001	-5.964945e-001
19612428.000	-8.002560e-001	-5.963319e-001
19618422.000	-8.003574e-001	-5.960676e-001
19624416.000	-8.005478e-001	-5.960403e-001
19630410.000	-8.006295e-001	-5.959394e-001
19636404.000	-8.007529e-001	-5.957533e-001
19642398.000	-8.008880e-001	-5.955869e-001
19648392.000	-8.009579e-001	-5.954950e-001
19654386.000	-8.009784e-001	-5.953923e-001
19660380.000	-8.010837e-001	-5.952151e-001
19666374.000	-8.013821e-001	-5.950766e-001
19672368.000	-8.014143e-001	-5.948521e-001
19678362.000	-8.014195e-001	-5.946443e-001
19684356.000	-8.017004e-001	-5.945076e-001
19690350.000	-8.018039e-001	-5.943240e-001
19696344.000	-8.018066e-001	-5.942442e-001
19702338.000	-8.018979e-001	-5.940028e-001
19708332.000	-8.020131e-001	-5.940521e-001
19714326.000	-8.020780e-001	-5.937212e-001
19720320.000	-8.022734e-001	-5.937017e-001
19726314.000	-8.023007e-001	-5.935492e-001
19732308.000	-8.023845e-001	-5.933456e-001
19738302.000	-8.025027e-001	-5.933196e-001
19744296.000	-8.026911e-001	-5.931376e-001
19750290.000	-8.027716e-001	-5.929345e-001
19756284.000	-8.029325e-001	-5.927753e-001
19762278.000	-8.030828e-001	-5.925664e-001
19768272.000	-8.031288e-001	-5.925843e-001
19774266.000	-8.032922e-001	-5.922927e-001
19780260.000	-8.032665e-001	-5.923641e-001
19786254.000	-8.034486e-001	-5.921085e-001
19792248.000	-8.035617e-001	-5.919983e-001
19798242.000	-8.037041e-001	-5.917200e-001
19804236.000	-8.037485e-001	-5.914812e-001
19810230.000	-8.038626e-001	-5.915558e-001
19816224.000	-8.039849e-001	-5.913553e-001
19822218.000	-8.040261e-001	-5.911797e-001
19828212.000	-8.041347e-001	-5.910617e-001
19834206.000	-8.042585e-001	-5.907890e-001
19840200.000	-8.044826e-001	-5.908690e-001
19846194.000	-8.045656e-001	-5.904933e-001
19852188.000	-8.045187e-001	-5.905350e-001
19858182.000	-8.047072e-001	-5.903439e-001
19864176.000	-8.048713e-001	-5.902160e-001
19870170.000	-8.048370e-001	-5.898797e-001
19876164.000	-8.051393e-001	-5.898050e-001
19882158.000	-8.051468e-001	-5.897610e-001
19888152.000	-8.052702e-001	-5.895233e-001
19894146.000	-8.053279e-001	-5.894484e-001
19900140.000	-8.054883e-001	-5.892255e-001
19906134.000	-8.055845e-001	-5.890208e-001
19912128.000	-8.056656e-001	-5.889077e-001
19918122.000	-8.058000e-001	-5.888532e-001
19924116.000	-8.059621e-001	-5.887028e-001
19930110.000	-8.059990e-001	-5.885307e-001
19936104.000	-8.060574e-001	-5.883817e-001
19942098.000	-8.062379e-001	-5.882069e-001
19948092.000	-8.063718e-001	-5.880749e-001
19954086.000	-8.064467e-001	-5.880202e-001
19960080.000	-8.064574e-001	-5.878574e-001
19966074.000	-8.066103e-001	-5.877040e-001
19972068.000	-8.066897e-001	-5.876374e-001
19978062.000	-8.067414e-001	-5.874434e-001
19984056.000	-8.068943e-001	-5.871359e-001
19990050.000	-8.070304e-001	-5.871168e-001
19996044.000	-8.070854e-001	-5.870142e-001
20002038.000	-8.071136e-001	-5.868656e-001
20008032.000	-8.073387e-001	-5.866708e-001
20014026.000	-8.074890e-001	-5.865546e-001
20020020.000	-8.075628e-001	-5.863503e-001
20026014.000	-8.076001e-001	-5.864486e-001
20032008.000	-8.076765e-001	-5.862009e-001
20038002.000	-8.078523e-001	-5.859871e-001
20043996.000	-8.079682e-001	-5.858869e-001
20049990.000	-8.081057e-001	-5.857075e-001
20055984.000	-8.081159e-001	-5.856225e-001
20061978.000	-8.082628e-001	-5.855400e-001
20067972.000	-8.083987e-001	-5.852759e-001
20073966.000	-8.085151e-001	-5.850760e-001
20079960.000	-8.085724e-001	-5.850164e-001
20085954.000	-8.086678e-001	-5.847611e-001
20091948.000	-8.087311e-001	-5.845175e-001
20097942.000	-8.088995e-001	-5.845174e-001
20103936.000	-8.090124e-001	-5.843185e-001
20109930.000	-8.091235e-001	-5.841580e-001
20115924.000	-8.092101e-001	-5.840799e-001
20121918.000	-8.092831e-001	-5.838914e-001
20127912.000	-8.092936e-001	-5.837989e-001
20133906.000	-8.094753e-001	-5.836417e-001
20139900.000	-8.095251e-001	-5.835547e-001
20145894.000	-8.096863e-001	-5.833322e-001
20151888.000	-8.097801e-001	-5.833976e-001
20157882.000	-8.098945e-001	-5.830879e-001
20163876.000	-8.098268e-001	-5.828421e-001
20169870.000	-8.100374e-001	-5.828960e-001
20175864.000	-8.101737e-001	-5.827365e-001
20181858.000	-8.102383e-001	-5.825364e-001
20187852.000	-8.102879e-001	-5.825531e-001
20193846.000	-8.103895e-001	-5.822168e-001
20199840.000	-8.106191e-001	-5.821305e-001
20205834.000	-8.106559e-001	-5.819964e-001
20211828.000	-8.108197e-001	-5.819780e-001
20217822.000	-8.109137e-001	-5.818236e-001
20223816.000	-8.109703e-001	-5.816355e-001
20229810.000	-8.110719e-001	-5.815020e-001
20235804.000	-8.111004e-001	-5.814880e-001
20241798.000	-8.113671e-001	-5.813045e-001
20247792.000	-8.114020e-001	-5.811125e-001
20253786.000	-8.114186e-001	-5.809585e-001
20259780.000	-8.115490e-001	-5.806961e-001
20265774.000	-8.115812e-001	-5.805433e-001
20271768.000	-8.117796e-001	-5.804592e-001
20277762.000	-8.119491e-001	-5.802199e-001
20283756.000	-8.120420e-001	-5.799821e-001
20289750.000	-8.120405e-001	-5.799971e-001
20295744.000	-8.121351e-001	-5.800357e-001
20301738.000	-8.122971e-001	-5.797845e-001
20307732.000	-8.125066e-001	-5.796877e-001
20313726.000	-8.123627e-001	-5.794452e-001
20319720.000	-8.126540e-001	-5.793835e-001
20325714.000	-8.126877e-001	-5.791316e-001
20331708.000	-8.128262e-001	-5.791651e-001
20337702.000	-8.129155e-001	-5.789852e-001
20343696.000	-8.129903e-001	-5.788628e-001
20349690.000	-8.130674e-001	-5.786507e-001
20355684.000	-8.132529e-001	-5.784043e-001
20361678.000	-8.132609e-001	-5.783595e-001
20367672.000	-8.133553e-001	-5.780802e-001
20373666.000	-8.134651e-001	-5.779130e-001
20379660.000	-8.137037e-001	-5.778929e-001
20385654.000	-8.136698e-001	-5.777189e-001
20391648.000	-8.136623e-001	-5.776250e-001
20397642.000	-8.138792e-001	-5.775452e-001
20403636.000	-8.139043e-001	-5.773346e-001
20409630.000	-8.141214e-001	-5.772293e-001
20415624.000	-8.140924e-001	-5.770190e-001
20421618.000	-8.141939e-001	-5.769632e-001
20427612.000	-8.143599e-001	-5.767719e-001
20433606.000	-8.144366e-001	-5.765949e-001
20439600.000	-8.144747e-001	-5.765585e-001
20445594.000	-8.146630e-001	-5.763169e-001
20451588.000	-8.149532e-001	-5.763060e-001
20457582.000	-8.148680e-001	-5.761434e-001
20463576.000	-8.149269e-001	-5.759855e-001
20469570.000	-8.149869e-001	-5.757594e-001
20475564.000	-8.151820e-001	-5.757061e-001
20481558.000	-8.152078e-001	-5.755430e-001
20487552.000	-8.152744e-001	-5.754023e-001
20493546.000	-8.154764e-001	-5.752900e-001
20499540.000	-8.155385e-001	-5.751704e-001
20505534.000	-8.156051e-001	-5.750356e-001
20511528.000	-8.156686e-001	-5.749249e-001
20517522.000	-8.158189e-001	-5.746517e-001
20523516.000	-8.159607e-001	-5.747696e-001
20529510.000	-8.161027e-001	-5.745539e-001
20535504.000	-8.161597e-001	-5.743987e-001
20541498.000	-8.162355e-001	-5.741996e-001
20547492.000	-8.162254e-001	-5.741376e-001
20553486.000	-8.163374e-001	-5.739267e-001
20559480.000	-8.164501e-001	-5.737121e-001
20565474.000	-8.165511e-001	-5.736279e-001
20571468.000	-8.166570e-001	-5.736404e-001
20577462.000	-8.167632e-001	-5.733997e-001
20583456.000	-8.168619e-001	-5.733536e-001
20589450.000	-8.169973e-001	-5.731769e-001
20595444.000	-8.170709e-001	-5.730545e-001
20601438.000	-8.172061e-001	-5.728152e-001
20607432.000	-8.173696e-001	-5.725926e-001
20613426.000	-8.173186e-001	-5.726459e-001
20619420.000	-8.174973e-001	-5.724756e-001
20625414.000	-8.176003e-001	-5.723673e-001
20631408.000	-8.176025e-001	-5.721544e-001
20637402.000	-8.177601e-001	-5.719855e-001
20643396.000	-8.177933e-001	-5.719102e-001
20649390.000	-8.179449e-001	-5.717389e-001
20655384.000	-8.180123e-001	-5.716525e-001
20661378.000	-8.180782e-001	-5.714803e-001
20667372.000	-8.180959e-001	-5.713422e-001
20673366.000	-8.182733e-001	-5.712085e-001
20679360.000	-8.184801e-001	-5.710649e-001
20685354.000	-8.184857e-001	-5.710880e-001
20691348.000	-8.185555e-001	-5.708676e-001
20697342.000	-8.186474e-001	-5.707364e-001
20703336.000	-8.187776e-001	-5.704589e-001
20709330.000	-8.189075e-001	-5.704571e-001
20715324.000	-8.189687e-001	-5.702731e-001
20721318.000	-8.191153e-001	-5.701995e-001
20727312.000	-8.190588e-001	-5.699237e-001
20733306.000	-8.193524e-001	-5.698872e-001
20739300.000	-8.194133e-001	-5.697275e-001
20745294.000	-8.193982e-001	-5.696509e-001
20751288.000	-8.194738e-001	-5.694718e-001
20757282.000	-8.196057e-001	-5.693064e-001
20763276.000	-8.197798e-001	-5.691233e-001
20769270.000	-8.197497e-001	-5.689134e-001
20775264.000	-8.198898e-001	-5.687878e-001
20781258.000	-8.200725e-001	-5.687013e-001
20787252.000	-8.200346e-001	-5.685070e-001
20793246.000	-8.201905e-001	-5.683551e-001
20799240.000	-8.203022e-001	-5.681984e-001
20805234.000	-8.204316e-001	-5.680920e-001
20811228.000	-8.203789e-001	-5.680204e-001
20817222.000	-8.205478e-001	-5.679170e-001
20823216.000	-8.205801e-001	-5.678056e-001
20829210.000	-8.207595e-001	-5.676822e-001
20835204.000	-8.209029e-001	-5.675425e-001
20841198.000	-8.210765e-001	-5.674688e-001
20847192.000	-8.211234e-001	-5.673349e-001
20853186.000	-8.210689e-001	-5.670785e-001
20859180.000	-8.212378e-001	-5.669637e-001
20865174.000	-8.212542e-001	-5.669282e-001
20871168.000	-8.214406e-001	-5.667391e-001
20877162.000	-8.215012e-001	-5.666210e-001
20883156.000	-8.216317e-001	-5.664652e-001
20889150.000	-8.217453e-001	-5.662867e-001
20895144.000	-8.218195e-001	-5.662164e-001
20901138.000	-8.219082e-001	-5.659881e-001
20907132.000	-8.219793e-001	-5.657931e-001
20913126.000	-8.221167e-001	-5.658166e-001
20919120.000	-8.221936e-001	-5.655019e-001
20925114.000	-8.221645e-001	-5.653698e-001
20931108.000	-8.223425e-001	-5.653703e-001
20937102.000	-8.224917e-001	-5.652921e-001
20943096.000	-8.226538e-001	-5.650450e-001
20949090.000	-8.226111e-001	-5.648003e-001
20955084.000	-8.226283e-001	-5.648083e-001
20961078.000	-8.228863e-001	-5.645989e-001
20967072.000	-8.229106e-001	-5.645067e-001
20973066.000	-8.230070e-001	-5.643421e-001
20979060.000	-8.231115e-001	-5.643095e-001
20985054.000	-8.231498e-001	-5.641901e-001
20991048.000	-8.232254e-001	-5.638763e-001
20997042.000	-8.233964e-001	-5.638515e-001
21003036.000	-8.234006e-001	-5.635765e-001
21009030.000	-8.235005e-001	-5.636275e-001
21015024.000	-8.236054e-001	-5.634581e-001
21021018.000	-8.236972e-001	-5.633956e-001
21027012.000	-8.237690e-001	-5.632865e-001
21033006.000	-8.239276e-001	-5.630954e-001
21039000.000	-8.240827e-001	-5.630203e-001
21044994.000	-8.240162e-001	-5.629121e-001
21050988.000	-8.241965e-001	-5.628088e-001
21056982.000	-8.242298e-001	-5.625507e-001
21062976.000	-8.243398e-001	-5.623674e-001
21068970.000	-8.243300e-001	-5.624213e-001
21074964.000	-8.245419e-001	-5.622560e-001
21080958.000	-8.245890e-001	-5.620447e-001
21086952.000	-8.245560e-001	-5.618974e-001
21092946.000	-8.247457e-001	-5.617490e-001
21098940.000	-8.248470e-001	-5.616435e-001
21104934.000	-8.250950e-001	-5.614686e-001
21110928.000	-8.249575e-001	-5.613945e-001
21116922.000	-8.251434e-001	-5.611555e-001
21122916.000	-8.252227e-001	-5.610637e-001
21128910.000	-8.253359e-001	-5.608010e-001
21134904.000	-8.253394e-001	-5.608337e-001
21140898.000	-8.254081e-001	-5.607518e-001
21146892.000	-8.256384e-001	-5.606182e-001
21152886.000	-8.255814e-001	-5.603405e-001
21158880.000	-8.257101e-001	-5.602625e-001
21164874.000	-8.258647e-001	-5.601327e-001
21170868.000	-8.258682e-001	-5.600339e-001
21176862.000	-8.259931e-001	-5.598621e-001
21182856.000	-8.261894e-001	-5.597906e-001
21188850.000	-8.261448e-001	-5.596076e-001
21194844.000	-8.263379e-001	-5.594669e-001
21200838.000	-8.262654e-001	-5.592023e-001
21206832.000	-8.265106e-001	-5.593374e-001
21212826.000	-8.264719e-001	-5.590325e-001
21218820.000	-8.266631e-001	-5.590020e-001
21224814.000	-8.268561e-001	-5.588116e-001
21230808.000	-8.267626e-001	-5.585414e-001
21236802.000	-8.269789e-001	-5.584698e-001
21242796.000	-8.270173e-001	-5.583816e-001
21248790.000	-8.270436e-001	-5.582365e-001
21254784.000	-8.271328e-001	-5.580832e-001
21260778.000	-8.272199e-001	-5.578966e-001
21266772.000	-8.273554e-001	-5.578776e-001
21272766.000	-8.274031e-001	-5.578647e-001
21278760.000	-8.275376e-001	-5.576385e-001
21284754.000	-8.276536e-001	-5.574922e-001
21290748.000	-8.276975e-001	-5.573911e-001
21296742.000	-8.278144e-001	-5.573317e-001
21302736.000	-8.279160e-001	-5.571068e-001
21308730.000	-8.280504e-001	-5.568576e-001
21314724.000	-8.280798e-001	-5.568902e-001
21320718.000	-8.282114e-001	-5.565577e-001
21326712.000	-8.281139e-001	-5.565898e-001
21332706.000	-8.283156e-001	-5.564362e-001
21338700.000	-8.284675e-001	-5.563780e-001
21344694.000	-8.284926e-001	-5.560837e-001
21350688.000	-8.285799e-001	-5.561266e-001
21356682.000	-8.286635e-001	-5.558727e-001
21362676.000	-8.287484e-001	-5.557258e-001
21368670.000	-8.288194e-001	-5.556727e-001
21374664.000	-8.289976e-001	-5.555397e-001
21380658.000	-8.289996e-001	-5.554183e-001
21386652.000	-8.291100e-001	-5.553445e-001
21392646.000	-8.291510e-001	-5.552653e-001
21398640.000	-8.292181e-001	-5.549881e-001
21404634.000	-8.293724e-001	-5.547931e-001
21410628.000	-8.294740e-001	-5.548513e-001
21416622.000	-8.295414e-001	-5.546327e-001
21422616.000	-8.296154e-001	-5.545670e-001
21428610.000	-8.296728e-001	-5.542620e-001
21434604.000	-8.297930e-001	-5.543054e-001
21440598.000	-8.298818e-001	-5.540628e-001
21446592.000	-8.299254e-001	-5.538902e-001
21452586.000	-8.300262e-001	-5.537744e-001
21458580.000	-8.302060e-001	-5.537583e-001
21464574.000	-8.302518e-001	-5.536226e-001
21470568.000	-8.302031e-001	-5.535478e-001
21476562.000	-8.304289e-001	-5.533419e-001
21482556.000	-8.304632e-001	-5.532170e-001
21488550.000	-8.305363e-001	-5.530797e-001
21494544.000	-8.307312e-001	-5.529073e-001
21500538.000	-8.307352e-001	-5.528973e-001
21506532.000	-8.308872e-001	-5.525802e-001
21512526.000	-8.309925e-001	-5.525828e-001
21518520.000	-8.310333e-001	-5.523902e-001
21524514.000	-8.310433e-001	-5.522941e-001
21530508.000	-8.311779e-001	-5.522681e-001
21536502.000	-8.312070e-001	-5.519931e-001
21542496.000	-8.313901e-001	-5.519259e-001
21548490.000	-8.313432e-001	-5.518515e-001
21554484.000	-8.314258e-001	-5.517618e-001
21560478.000	-8.316361e-001	-5.516211e-001
21566472.000	-8.317259e-001	-5.514508e-001
21572466.000	-8.317972e-001	-5.512383e-001
21578460.000	-8.319299e-001	-5.512155e-001
21584454.000	-8.319767e-001	-5.509854e-001
21590448.000	-8.319139e-001	-5.508404e-001
21596442.000	-8.320291e-001	-5.507295e-001
21602436.000	-8.322391e-001	-5.506783e-001
21608430.000	-8.323454e-001	-5.503878e-001
21614424.000	-8.323323e-001	-5.504335e-001
21620418.000	-8.324146e-001	-5.503045e-001
21626412.000	-8.324755e-001	-5.501586e-001
21632406.000	-8.326324e-001	-5.498920e-001
21638400.000	-8.328247e-001	-5.500177e-001
21644394.000	-8.328459e-001	-5.498418e-001
21650388.000	-8.329151e-001	-5.496730e-001
21656382.000	-8.329117e-001	-5.493687e-001
21662376.000	-8.330445e-001	-5.492967e-001
21668370.000	-8.330834e-001	-5.491209e-001
21674364.000	-8.332027e-001	-5.489358e-001
21680358.000	-8.332783e-001	-5.488956e-001
21686352.000	-8.332572e-001	-5.487170e-001
21692346.000	-8.333899e-001	-5.485373e-001
21698340.000	-8.334975e-001	-5.484447e-001
21704334.000	-8.335293e-001	-5.483923e-001
21710328.000	-8.337346e-001	-5.482969e-001
21716322.000	-8.336388e-001	-5.481365e-001
21722316.000	-8.337886e-001	-5.480038e-001
21728310.000	-8.339807e-001	-5.478511e-001
21734304.000	-8.340718e-001	-5.479532e-001
21740298.000	-8.341031e-001	-5.477358e-001
21746292.000	-8.341749e-001	-5.475921e-001
21752286.000	-8.342250e-001	-5.474716e-001
21758280.000	-8.343386e-001	-5.472723e-001
21764274.000	-8.344036e-001	-5.471249e-001
21770268.000	-8.345245e-001	-5.470362e-001
21776262.000	-8.345256e-001	-5.468983e-001
21782256.000	-8.347072e-001	-5.468025e-001
21788250.000	-8.349081e-001	-5.467346e-001
21794244.000	-8.347784e-001	-5.464978e-001
21800238.000	-8.348921e-001	-5.464867e-001
21806232.000	-8.350198e-001	-5.462216e-001
21812226.000	-8.351656e-001	-5.460429e-001
21818220.000	-8.350819e-001	-5.459742e-001
21824214.000	-8.352352e-001	-5.458693e-001
21830208.000	-8.353020e-001	-5.456395e-001
21836202.000	-8.354016e-001	-5.455647e-001
21842196.000	-8.355043e-001	-5.455751e-001
21848190.000	-8.356572e-001	-5.453492e-001
21854184.000	-8.356983e-001	-5.453027e-001
21860178.000	-8.357321e-001	-5.450780e-001
21866172.000	-8.358343e-001	-5.450683e-001
21872166.000	-8.359714e-001	-5.449853e-001
21878160.000	-8.360398e-001	-5.448451e-001
21884154.000	-8.362033e-001	-5.447142e-001
21890148.000	-8.362570e-001	-5.446062e-001
21896142.000	-8.362702e-001	-5.444932e-001
21902136.000	-8.363082e-001	-5.442697e-001
21908130.000	-8.364253e-001	-5.442038e-001
21914124.000	-8.365535e-001	-5.441128e-001
21920118.000	-8.365474e-001	-5.438484e-001
21926112.000	-8.365895e-001	-5.436602e-001
21932106.000	-8.366498e-001	-5.435857e-001
21938100.000	-8.368483e-001	-5.435162e-001
21944094.000	-8.368858e-001	-5.434002e-001
21950088.000	-8.370704e-001	-5.433557e-001
21956082.000	-8.368874e-001	-5.431691e-001
21962076.000	-8.370758e-001	-5.430566e-001
21968070.000	-8.372635e-001	-5.428713e-001
21974064.000	-8.373100e-001	-5.428495e-001
21980058.000	-8.373156e-001	-5.427524e-001
21986052.000	-8.374775e-001	-5.425120e-001
21992046.000	-8.375429e-001	-5.423608e-001
21998040.000	-8.375959e-001	-5.421827e-001
22004034.000	-8.377348e-001	-5.421380e-001
22010028.000	-8.377519e-001	-5.420343e-001
22016022.000	-8.379094e-001	-5.418669e-001
22022016.000	-8.378487e-001	-5.416743e-001
22028010.000	-8.380802e-001	-5.415115e-001
22034004.000	-8.380930e-001	-5.414650e-001
22039998.000	-8.381604e-001	-5.413806e-001
22045992.000	-8.383230e-001	-5.411958e-001
22051986.000	-8.383055e-001	-5.411092e-001
22057980.000	-8.384255e-001	-5.410065e-001
22063974.000	-8.384788e-001	-5.409334e-001
22069968.000	-8.386243e-001	-5.407527e-001
22075962.000	-8.386821e-001	-5.406468e-001
22081956.000	-8.386491e-001	-5.405502e-001
22087950.000	-8.387844e-001	-5.404120e-001
22093944.000	-8.388981e-001	-5.403298e-001
22099938.000	-8.389289e-001	-5.401988e-001
22105932.000	-8.390037e-001	-5.399680e-001
22111926.000	-8.391937e-001	-5.399646e-001
22117920.000	-8.391280e-001	-5.397300e-001
22123914.000	-8.393264e-001	-5.396233e-001
22129908.000	-8.393516e-001	-5.396419e-001
22135902.000	-8.394716e-001	-5.393108e-001
22141896.000	-8.394075e-001	-5.392687e-001
22147890.000	-8.395735e-001	-5.390818e-001
22153884.000	-8.396488e-001	-5.390803e-001
22159878.000	-8.398104e-001	-5.389169e-001
22165872.000	-8.398482e-001	-5.387359e-001
22171866.000	-8.398526e-001	-5.385977e-001
22177860.000	-8.398932e-001	-5.385158e-001
22183854.000	-8.400447e-001	-5.383783e-001
22189848.000	-8.401503e-001	-5.381197e-001
22195842.000	-8.403062e-001	-5.381635e-001
22201836.000	-8.403273e-001	-5.379436e-001
22207830.000	-8.403787e-001	-5.377864e-001
22213824.000	-8.405300e-001	-5.377790e-001
22219818.000	-8.404547e-001	-5.375575e-001
22225812.000	-8.405696e-001	-5.375584e-001
22231806.000	-8.406680e-001	-5.373949e-001
22237800.000	-8.408253e-001	-5.371461e-001
22243794.000	-8.408367e-001	-5.371529e-001
22249788.000	-8.408832e-001	-5.368940e-001
22255782.000	-8.409801e-001	-5.367018e-001
22261776.000	-8.410068e-001	-5.367215e-001
22267770.000	-8.412189e-001	-5.365692e-001
22273764.000	-8.412109e-001	-5.365431e-001
22279758.000	-8.412598e-001	-5.362667e-001
22285752.000	-8.415063e-001	-5.361691e-001
22291746.000	-8.415123e-001	-5.361274e-001
22297740.000	-8.416525e-001	-5.361201e-001
22303734.000	-8.415463e-001	-5.358899e-001
22309728.000	-8.416258e-001	-5.357512e-001
22315722.000	-8.418331e-001	-5.356651e-001
22321716.000	-8.419554e-001	-5.355585e-001
22327710.000	-8.419582e-001	-5.354390e-001
22333704.000	-8.420557e-001	-5.352818e-001
22339698.000	-8.421509e-001	-5.352332e-001
22345692.000	-8.421828e-001	-5.349403e-001
22351686.000	-8.423163e-001	-5.347562e-001
22357680.000	-8.423460e-001	-5.346685e-001
22363674.000	-8.424228e-001	-5.346433e-001
22369668.000	-8.424937e-001	-5.343775e-001
22375662.000	-8.425793e-001	-5.343944e-001
22381656.000	-8.426134e-001	-5.342267e-001
22387650.000	-8.427230e-001	-5.341639e-001
22393644.000	-8.428745e-001	-5.340878e-001
22399638.000	-8.427041e-001	-5.338351e-001
22405632.000	-8.429989e-001	-5.337507e-001
22411626.000	-8.430492e-001	-5.336573e-001
22417620.000	-8.431154e-001	-5.335840e-001
22423614.000	-8.431455e-001	-5.333502e-001
22429608.000	-8.433388e-001	-5.332307e-001
22435602.000	-8.433394e-001	-5.331769e-001
22441596.000	-8.433710e-001	-5.330305e-001
22447590.000	-8.434237e-001	-5.329781e-001
22453584.000	-8.435609e-001	-5.329362e-001
22459578.000	-8.435933e-001	-5.325957e-001
22465572.000	-8.437460e-001	-5.325516e-001
22471566.000	-8.437720e-001	-5.326032e-001
22477560.000	-8.439292e-001	-5.324687e-001
22483554.000	-8.439181e-001	-5.323891e-001
22489548.000	-8.439640e-001	-5.322219e-001
22495542.000	-8.440997e-001	-5.319271e-001
22501536.000	-8.441189e-001	-5.318456e-001
22507530.000	-8.442350e-001	-5.317227e-001
22513524.000	-8.442642e-001	-5.317518e-001
22519518.000	-8.444465e-001	-5.315535e-001
22525512.000	-8.444127e-001	-5.314880e-001
22531506.000	-8.445784e-001	-5.311672e-001
22537500.000	-8.445904e-001	-5.312073e-001
22543494.000	-8.447232e-001	-5.310851e-001
22549488.000	-8.447735e-001	-5.308273e-001
22555482.000	-8.447549e-001	-5.307403e-001
22561476.000	-8.448073e-001	-5.306131e-001
22567470.000	-8.449905e-001	-5.306224e-001
22573464.000	-8.449501e-001	-5.304134e-001
22579458.000	-8.452327e-001	-5.304097e-001
22585452.000	-8.451829e-001	-5.301113e-001
22591446.000	-8.453098e-001	-5.300422e-001
22597440.000	-8.452803e-001	-5.298687e-001
22603434.000	-8.455168e-001	-5.299614e-001
22609428.000	-8.454702e-001	-5.298319e-001
22615422.000	-8.455486e-001	-5.296129e-001
22621416.000	-8.456432e-001	-5.294611e-001
22627410.000	-8.456385e-001	-5.291934e-001
22633404.000	-8.458390e-001	-5.292576e-001
22639398.000	-8.457989e-001	-5.291019e-001
22645392.000	-8.459879e-001	-5.289036e-001
22651386.000	-8.459928e-001	-5.289008e-001
22657380.000	-8.460357e-001	-5.287422e-001
22663374.000	-8.462051e-001	-5.288061e-001
22669368.000	-8.462175e-001	-5.285423e-001
22675362.000	-8.463582e-001	-5.284581e-001
22681356.000	-8.464471e-001	-5.282844e-001
22687350.000	-8.465274e-001	-5.282016e-001
22693344.000	-8.465391e-001	-5.281398e-001
22699338.000	-8.466578e-001	-5.279344e-001
22705332.000	-8.468136e-001	-5.279498e-001
22711326.000	-8.466855e-001	-5.277709e-001
22717320.000	-8.468425e-001	-5.275778e-001
22723314.000	-8.469548e-001	-5.275014e-001
22729308.000	-8.470472e-001	-5.274539e-001
22735302.000	-8.471352e-001	-5.272727e-001
22741296.000	-8.471483e-001	-5.270650e-001
22747290.000	-8.472269e-001	-5.270054e-001
22753284.000	-8.473776e-001	-5.269185e-001
22759278.000	-8.474203e-001	-5.267310e-001
22765272.000	-8.474494e-001	-5.265859e-001
22771266.000	-8.474705e-001	-5.264539e-001
22777260.000	-8.476274e-001	-5.263603e-001
22783254.000	-8.475843e-001	-5.262723e-001
22789248.000	-8.477458e-001	-5.262062e-001
22795242.000	-8.477262e-001	-5.261031e-001
22801236.000	-8.479986e-001	-5.258869e-001
22807230.000	-8.479957e-001	-5.257695e-001
22813224.000	-8.481760e-001	-5.256279e-001
22819218.000	-8.480807e-001	-5.255984e-001
22825212.000	-8.482548e-001	-5.255252e-001
22831206.000	-8.482236e-001	-5.254003e-001
22837200.000	-8.482991e-001	-5.251950e-001
22843194.000	-8.484479e-001	-5.251897e-001
22849188.000	-8.483789e-001	-5.249217e-001
22855182.000	-8.486164e-001	-5.247489e-001
22861176.000	-8.486423e-001	-5.246639e-001
22867170.000	-8.487615e-001	-5.247512e-001
22873164.000	-8.488336e-001	-5.244536e-001
22879158.000	-8.487980e-001	-5.244073e-001
22885152.000	-8.489477e-001	-5.243161e-001
22891146.000	-8.490455e-001	-5.243093e-001
22897140.000	-8.490096e-001	-5.241974e-001
22903134.000	-8.491746e-001	-5.238941e-001
22909128.000	-8.491657e-001	-5.238011e-001
22915122.000	-8.492495e-001	-5.237467e-001
22921116.000	-8.493923e-001	-5.235869e-001
22927110.000	-8.494213e-001	-5.234616e-001
22933104.000	-8.494549e-001	-5.233710e-001
22939098.000	-8.495140e-001	-5.231687e-001
22945092.000	-8.496892e-001	-5.231104e-001
22951086.000	-8.496622e-001	-5.230783e-001
22957080.000	-8.497562e-001	-5.229084e-001
22963074.000	-8.498099e-001	-5.228619e-001
22969068.000	-8.498929e-001	-5.226450e-001
22975062.000	-8.500589e-001	-5.224827e-001
22981056.000	-8.500261e-001	-5.224810e-001
22987050.000	-8.501380e-001	-5.222301e-001
22993044.000	-8.503021e-001	-5.221335e-001
22999038.000	-8.502393e-001	-5.220345e-001
23005032.000	-8.503133e-001	-5.218435e-001
23011026.000	-8.503968e-001	-5.216121e-001
23017020.000	-8.504146e-001	-5.215890e-001
23023014.000	-8.506046e-001	-5.215951e-001
23029008.000	-8.505554e-001	-5.215094e-001
23035002.000	-8.507590e-001	-5.213426e-001
23040996.000	-8.508288e-001	-5.213066e-001
23046990.000	-8.507394e-001	-5.212346e-001
23052984.000	-8.510268e-001	-5.210291e-001
23058978.000	-8.510238e-001	-5.209456e-001
23064972.000	-8.510593e-001	-5.208150e-001
23070966.000	-8.511498e-001	-5.207024e-001
23076960.000	-8.511852e-001	-5.205594e-001
23082954.000	-8.513059e-001	-5.205320e-001
23088948.000	-8.512872e-001	-5.202850e-001
23094942.000	-8.514290e-001	-5.200910e-001
23100936.000	-8.514534e-001	-5.200952e-001
23106930.000	-8.516163e-001	-5.199720e-001
23112924.000	-8.516245e-001	-5.199229e-001
23118918.000	-8.516851e-001	-5.198130e-001
23124912.000	-8.517346e-001	-5.195904e-001
23130906.000	-8.518303e-001	-5.195806e-001
23136900.000	-8.518885e-001	-5.193026e-001
23142894.000	-8.519008e-001	-5.191989e-001
23148888.000	-8.520968e-001	-5.192032e-001
23154882.000	-8.521498e-001	-5.189721e-001
23160876.000	-8.522044e-001	-5.190878e-001
23166870.000	-8.523052e-001	-5.187422e-001
23172864.000	-8.522984e-001	-5.187062e-001
23178858.000	-8.524411e-001	-5.184405e-001
23184852.000	-8.523634e-001	-5.184368e-001
23190846.000	-8.524316e-001	-5.184037e-001
23196840.000	-8.526418e-001	-5.181736e-001
23202834.000	-8.526694e-001	-5.180503e-001
23208828.000	-8.527483e-001	-5.180479e-001
23214822.000	-8.528221e-001	-5.178929e-001
23220816.000	-8.528950e-001	-5.177765e-001
23226810.000	-8.529253e-001	-5.176260e-001
23232804.000	-8.530104e-001	-5.174884e-001
23238798.000	-8.530967e-001	-5.174184e-001
23244792.000	-8.530778e-001	-5.172742e-001
23250786.000	-8.531363e-001	-5.171704e-001
23256780.000	-8.533006e-001	-5.171038e-001
23262774.000	-8.534090e-001	-5.169702e-001
23268768.000	-8.534418e-001	-5.168764e-001
23274762.000	-8.535131e-001	-5.168999e-001
23280756.000	-8.536062e-001	-5.165479e-001
23286750.000	-8.536501e-001	-5.165209e-001
23292744.000	-8.537419e-001	-5.164649e-001
23298738.000	-8.538164e-001	-5.162203e-001
23304732.000	-8.538611e-001	-5.163269e-001
23310726.000	-8.539441e-001	-5.162136e-001
23316720.000	-8.540479e-001	-5.159299e-001
23322714.000	-8.539682e-001	-5.158532e-001
23328708.000	-8.541875e-001	-5.156035e-001
23334702.000	-8.541730e-001	-5.156131e-001
23340696.000	-8.542135e-001	-5.154908e-001
23346690.000	-8.543277e-001	-5.153887e-001
23352684.000	-8.544134e-001	-5.151471e-001
23358678.000	-8.545672e-001	-5.151271e-001
23364672.000	-8.545926e-001	-5.149852e-001
23370666.000	-8.545715e-001	-5.148974e-001
23376660.000	-8.546443e-001	-5.147603e-001
23382654.000	-8.547866e-001	-5.146563e-001
23388648.000	-8.547874e-001	-5.146449e-001
23394642.000	-8.548197e-001	-5.144864e-001
23400636.000	-8.548944e-001	-5.144390e-001
23406630.000	-8.548655e-001	-5.143132e-001
23412624.000	-8.550631e-001	-5.141074e-001
23418618.000	-8.551271e-001	-5.139912e-001
23424612.000	-8.551414e-001	-5.139233e-001
23430606.000	-8.552994e-001	-5.138259e-001
23436600.000	-8.553281e-001	-5.135461e-001
23442594.000	-8.554074e-001	-5.135005e-001
23448588.000	-8.554689e-001	-5.134751e-001
23454582.000	-8.556124e-001	-5.133449e-001
23460576.000	-8.555377e-001	-5.131808e-001
23466570.000	-8.557181e-001	-5.131805e-001
23472564.000	-8.557915e-001	-5.130969e-001
23478558.000	-8.557355e-001	-5.129133e-001
23484552.000	-8.559318e-001	-5.127080e-001
23490546.000	-8.560788e-001	-5.126543e-001
23496540.000	-8.560036e-001	-5.125655e-001
23502534.000	-8.559925e-001	-5.123698e-001
23508528.000	-8.561547e-001	-5.123442e-001
23514522.000	-8.561835e-001	-5.121780e-001
23520516.000	-8.562818e-001	-5.119832e-001
23526510.000	-8.563237e-001	-5.118526e-001
23532504.000	-8.564894e-001	-5.117639e-001
23538498.000	-8.565427e-001	-5.117405e-001
23544492.000	-8.565955e-001	-5.115904e-001
23550486.000	-8.565425e-001	-5.115646e-001
23556480.000	-8.566493e-001	-5.112739e-001
23562474.000	-8.568126e-001	-5.112503e-001
23568468.000	-8.567751e-001	-5.111409e-001
23574462.000	-8.569023e-001	-5.110252e-001
23580456.000	-8.570039e-001	-5.109550e-001
23586450.000	-8.569767e-001	-5.109092e-001
23592444.000	-8.572239e-001	-5.108534e-001
23598438.000	-8.572559e-001	-5.107433e-001
23604432.000	-8.572896e-001	-5.105229e-001
23610426.000	-8.572901e-001	-5.104519e-001
23616420.000	-8.574043e-001	-5.102845e-001
23622414.000	-8.573628e-001	-5.102048e-001
23628408.000	-8.574366e-001	-5.100834e-001
23634402.000	-8.574537e-001	-5.099419e-001
23640396.000	-8.576351e-001	-5.098369e-001
23646390.000	-8.577275e-001	-5.096399e-001
23652384.000	-8.577317e-001	-5.095442e-001
23658378.000	-8.577072e-001	-5.095185e-001
23664372.000	-8.578789e-001	-5.094682e-001
23670366.000	-8.578428e-001	-5.094033e-001
23676360.000	-8.580451e-001	-5.092091e-001
23682354.000	-8.580816e-001	-5.090703e-001
23688348.000	-8.580822e-001	-5.089376e-001
23694342.000	-8.583048e-001	-5.088166e-001
23700336.000	-8.582584e-001	-5.087045e-001
23706330.000	-8.584118e-001	-5.086294e-001
23712324.000	-8.584616e-001	-5.084623e-001
23718318.000	-8.584849e-001	-5.082667e-001
23724312.000	-8.585455e-001	-5.082793e-001
23730306.000	-8.586300e-001	-5.081430e-001
23736300.000	-8.587950e-001	-5.080572e-001
23742294.000	-8.587887e-001	-5.079283e-001
23748288.000	-8.587883e-001	-5.078163e-001
23754282.000	-8.588544e-001	-5.077155e-001
23760276.000	-8.589056e-001	-5.076164e-001
23766270.000	-8.591108e-001	-5.074712e-001
23772264.000	-8.591233e-001	-5.074774e-001
23778258.000	-8.591148e-001	-5.071684e-001
23784252.000	-8.592962e-001	-5.070833e-001
23790246.000	-8.592438e-001	-5.071115e-001
23796240.000	-8.593573e-001	-5.069893e-001
23802234.000	-8.594813e-001	-5.068822e-001
23808228.000	-8.594332e-001	-5.066087e-001
23814222.000	-8.594909e-001	-5.066175e-001
23820216.000	-8.596173e-001	-5.065729e-001
23826210.000	-8.596746e-001	-5.063735e-001
23832204.000	-8.596645e-001	-5.063422e-001
23838198.000	-8.599916e-001	-5.061961e-001
23844192.000	-8.598890e-001	-5.061115e-001
23850186.000	-8.598916e-001	-5.060114e-001
23856180.000	-8.599590e-001	-5.058219e-001
23862174.000	-8.601393e-001	-5.057984e-001
23868168.000	-8.600782e-001	-5.056609e-001
23874162.000	-8.601813e-001	-5.055232e-001
23880156.000	-8.602842e-001	-5.053632e-001
23886150.000	-8.602803e-001	-5.053054e-001
23892144.000	-8.604073e-001	-5.052750e-001
23898138.000	-8.604290e-001	-5.051619e-001
23904132.000	-8.605808e-001	-5.051899e-001
23910126.000	-8.606874e-001	-5.050243e-001
23916120.000	-8.605903e-001	-5.049857e-001
23922114.000	-8.607268e-001	-5.046751e-001
23928108.000	-8.607831e-001	-5.046939e-001
23934102.000	-8.608007e-001	-5.045038e-001
23940096.000	-8.609544e-001	-5.042906e-001
23946090.000	-8.608986e-001	-5.042436e-001
23952084.000	-8.610518e-001	-5.042446e-001
23958078.000	-8.610952e-001	-5.039882e-001
23964072.000	-8.611214e-001	-5.038690e-001
23970066.000	-8.612789e-001	-5.037706e-001
23976060.000	-8.613985e-001	-5.036511e-001
23982054.000	-8.613068e-001	-5.035701e-001
23988048.000	-8.614712e-001	-5.035044e-001
23994042.000	-8.615038e-001	-5.034102e-001
24000036.000	-8.615079e-001	-5.032016e-001
24006030.000	-8.615497e-001	-5.031157e-001
24012024.000	-8.616322e-001	-5.029924e-001
24018018.000	-8.616638e-001	-5.029168e-001
24024012.000	-8.617652e-001	-5.027870e-001
24030006.000	-8.618376e-001	-5.027019e-001
24036000.000	-8.619386e-001	-5.024851e-001
24041994.000	-8.620096e-001	-5.024086e-001
24047988.000	-8.620548e-001	-5.023505e-001
24053982.000	-8.620844e-001	-5.022813e-001
24059976.000	-8.620758e-001	-5.021334e-001
24065970.000	-8.622016e-001	-5.020272e-001
24071964.000	-8.622650e-001	-5.019260e-001
24077958.000	-8.622953e-001	-5.018336e-001
24083952.000	-8.623612e-001	-5.016957e-001
24089946.000	-8.623965e-001	-5.016331e-001
24095940.000	-8.625288e-001	-5.013303e-001
24101934.000	-8.625457e-001	-5.012825e-001
24107928.000	-8.626643e-001	-5.012030e-001
24113922.000	-8.627296e-001	-5.010394e-001
24119916.000	-8.628027e-001	-5.011714e-001
24125910.000	-8.628587e-001	-5.009197e-001
24131904.000	-8.629249e-001	-5.008287e-001
24137898.000	-8.630201e-001	-5.007688e-001
24143892.000	-8.631538e-001	-5.006115e-001
24149886.000	-8.631577e-001	-5.005674e-001
24155880.000	-8.631951e-001	-5.003623e-001
24161874.000	-8.632629e-001	-5.003031e-001
24167868.000	-8.633498e-001	-5.002372e-001
24173862.000	-8.633394e-001	-4.999550e-001
24179856.000	-8.633875e-001	-4.999520e-001
24185850.000	-8.635558e-001	-4.999095e-001
24191844.000	-8.636047e-001	-4.997301e-001
24197838.000	-8.635947e-001	-4.995599e-001
24203832.000	-8.636354e-001	-4.994364e-001
24209826.000	-8.637499e-001	-4.995099e-001
24215820.000	-8.638142e-001	-4.994835e-001
24221814.000	-8.638435e-001	-4.991592e-001
24227808.000	-8.639834e-001	-4.991755e-001
24233802.000	-8.640082e-001	-4.989517e-001
24239796.000	-8.640933e-001	-4.989363e-001
24245790.000	-8.640136e-001	-4.987798e-001
24251784.000	-8.641694e-001	-4.986787e-001
24257778.000	-8.642541e-001	-4.985250e-001
24263772.000	-8.642792e-001	-4.984733e-001
24269766.000	-8.642410e-001	-4.984754e-001
24275760.000	-8.644060e-001	-4.981431e-001
24281754.000	-8.644626e-001	-4.980380e-001
24287748.000	-8.645044e-001	-4.980156e-001
24293742.000	-8.647210e-001	-4.978767e-001
24299736.000	-8.646588e-001	-4.977852e-001
24305730.000	-8.647387e-001	-4.977323e-001
24311724.000	-8.647721e-001	-4.975527e-001
24317718.000	-8.648485e-001	-4.975074e-001
24323712.000	-8.648841e-001	-4.973053e-001
24329706.000	-8.649152e-001	-4.971935e-001
24335700.000	-8.650800e-001	-4.970369e-001
24341694.000	-8.652151e-001	-4.969901e-001
24347688.000	-8.650511e-001	-4.968733e-001
24353682.000	-8.652760e-001	-4.968373e-001
24359676.000	-8.652708e-001	-4.966909e-001
24365670.000	-8.653848e-001	-4.966641e-001
24371664.000	-8.654059e-001	-4.964901e-001
24377658.000	-8.654253e-001	-4.964600e-001
24383652.000	-8.655202e-001	-4.962984e-001
24389646.000	-8.655765e-001	-4.961070e-001
24395640.000	-8.656903e-001	-4.960705e-001
24401634.000	-8.656538e-001	-4.959679e-001
24407628.000	-8.657827e-001	-4.959199e-001
24413622.000	-8.658955e-001	-4.958355e-001
24419616.000	-8.658904e-001	-4.957387e-001
24425610.000	-8.658615e-001	-4.955777e-001
24431604.000	-8.659215e-001	-4.954842e-001
24437598.000	-8.661745e-001	-4.954395e-001
24443592.000	-8.661118e-001	-4.951916e-001
24449586.000	-8.661319e-001	-4.951968e-001
24455580.000	-8.662820e-001	-4.950470e-001
24461574.000	-8.662832e-001	-4.948763e-001
24467568.000	-8.663882e-001	-4.949553e-001
24473562.000	-8.664129e-001	-4.947361e-001
24479556.000	-8.664586e-001	-4.946470e-001
24485550.000	-8.665248e-001	-4.946266e-001
24491544.000	-8.667128e-001	-4.944038e-001
24497538.000	-8.667291e-001	-4.942109e-001
24503532.000	-8.666886e-001	-4.941135e-001
24509526.000	-8.667541e-001	-4.940358e-001
24515520.000	-8.668376e-001	-4.939774e-001
24521514.000	-8.668754e-001	-4.938353e-001
24527508.000	-8.669800e-001	-4.936210e-001
24533502.000	-8.669676e-001	-4.936381e-001
24539496.000	-8.670775e-001	-4.935039e-001
24545490.000	-8.670350e-001	-4.934213e-001
24551484.000	-8.671889e-001	-4.932446e-001
24557478.000	-8.672279e-001	-4.931357e-001
24563472.000	-8.671809e-001	-4.931000e-001
24569466.000	-8.673337e-001	-4.929263e-001
24575460.000	-8.673991e-001	-4.928564e-001
24581454.000	-8.674164e-001	-4.927824e-001
24587448.000	-8.675086e-001	-4.926710e-001
24593442.000	-8.676962e-001	-4.926978e-001
24599436.000	-8.677319e-001	-4.925166e-001
24605430.000	-8.678327e-001	-4.923865e-001
24611424.000	-8.677907e-001	-4.921938e-001
24617418.000	-8.679363e-001	-4.921440e-001
24623412.000	-8.678520e-001	-4.920852e-001
24629406.000	-8.679467e-001	-4.918982e-001
24635400.000	-8.680678e-001	-4.918474e-001
24641394.000	-8.681840e-001	-4.917877e-001
24647388.000	-8.681634e-001	-4.916513e-001
24653382.000	-8.682442e-001	-4.914720e-001
24659376.000	-8.683111e-001	-4.913607e-001
24665370.000	-8.683732e-001	-4.912494e-001
24671364.000	-8.685111e-001	-4.912767e-001
24677358.000	-8.684754e-001	-4.910531e-001
24683352.000	-8.685314e-001	-4.908997e-001
24689346.000	-8.686144e-001	-4.910184e-001
24695340.000	-8.687032e-001	-4.908080e-001
24701334.000	-8.686753e-001	-4.907459e-001
24707328.000	-8.687906e-001	-4.906748e-001
24713322.000	-8.688038e-001	-4.904530e-001
24719316.000	-8.688045e-001	-4.903950e-001
24725310.000	-8.689673e-001	-4.903117e-001
24731304.000	-8.690661e-001	-4.900943e-001
24737298.000	-8.689396e-001	-4.899485e-001
24743292.000	-8.690280e-001	-4.899182e-001
24749286.000	-8.690811e-001	-4.897886e-001
24755280.000	-8.691828e-001	-4.896590e-001
24761274.000	-8.692233e-001	-4.895787e-001
24767268.000	-8.692638e-001	-4.895624e-001
24773262.000	-8.693723e-001	-4.893647e-001
24779256.000	-8.693940e-001	-4.892652e-001
24785250.000	-8.693692e-001	-4.890048e-001
24791244.000	-8.695302e-001	-4.890613e-001
24797238.000	-8.696693e-001	-4.890703e-001
24803232.000	-8.697146e-001	-4.889846e-001
24809226.000	-8.696264e-001	-4.887541e-001
24815220.000	-8.699134e-001	-4.885917e-001
24821214.000	-8.698627e-001	-4.885647e-001
24827208.000	-8.699775e-001	-4.885257e-001
24833202.000	-8.700208e-001	-4.883223e-001
24839196.000	-8.699896e-001	-4.882703e-001
24845190.000	-8.701577e-001	-4.881153e-001
24851184.000	-8.700880e-001	-4.880370e-001
24857178.000	-8.701905e-001	-4.879237e-001
24863172.000	-8.702730e-001	-4.877993e-001
24869166.000	-8.703719e-001	-4.877619e-001
24875160.000	-8.704232e-001	-4.876085e-001
24881154.000	-8.705317e-001	-4.874532e-001
24887148.000	-8.705806e-001	-4.875481e-001
24893142.000	-8.705754e-001	-4.873298e-001
24899136.000	-8.705788e-001	-4.872792e-001
24905130.000	-8.706451e-001	-4.872036e-001
24911124.000	-8.707464e-001	-4.870483e-001
24917118.000	-8.707388e-001	-4.868885e-001
24923112.000	-8.707787e-001	-4.867896e-001
24929106.000	-8.709262e-001	-4.866935e-001
24935100.000	-8.709102e-001	-4.866659e-001
24941094.000	-8.710235e-001	-4.864507e-001
24947088.000	-8.710166e-001	-4.863980e-001
24953082.000	-8.710704e-001	-4.862700e-001
24959076.000	-8.712129e-001	-4.861262e-001
24965070.000	-8.712289e-001	-4.860539e-001
24971064.000	-8.712446e-001	-4.859163e-001
24977058.000	-8.712985e-001	-4.858413e-001
24983052.000	-8.713850e-001	-4.857868e-001
24989046.000	-8.714283e-001	-4.856083e-001
24995040.000	-8.715306e-001	-4.855071e-001
25001034.000	-8.716502e-001	-4.854296e-001
25007028.000	-8.715947e-001	-4.853594e-001
25013022.000	-8.716232e-001	-4.851905e-001
25019016.000	-8.717655e-001	-4.851853e-001
25025010.000	-8.718227e-001	-4.849499e-001
25031004.000	-8.718969e-001	-4.849667e-001
25036998.000	-8.719444e-001	-4.849037e-001
25042992.000	-8.719333e-001	-4.848126e-001
25048986.000	-8.720756e-001	-4.847544e-001
25054980.000	-8.721019e-001	-4.845294e-001
25060974.000	-8.721249e-001	-4.844827e-001
25066968.000	-8.721461e-001	-4.844341e-001
25072962.000	-8.723197e-001	-4.844498e-001
25078956.000	-8.722677e-001	-4.841836e-001
25084950.000	-8.724742e-001	-4.839370e-001
25090944.000	-8.724374e-001	-4.839696e-001
25096938.000	-8.723909e-001	-4.837751e-001
25102932.000	-8.725757e-001	-4.837834e-001
25108926.000	-8.726425e-001	-4.836029e-001
25114920.000	-8.726373e-001	-4.834798e-001
25120914.000	-8.726067e-001	-4.833936e-001
25126908.000	-8.726696e-001	-4.831363e-001
25132902.000	-8.727212e-001	-4.830804e-001
25138896.000	-8.728352e-001	-4.831328e-001
25144890.000	-8.728976e-001	-4.830528e-001
25150884.000	-8.728867e-001	-4.830030e-001
25156878.000	-8.730064e-001	-4.827491e-001
25162872.000	-8.729611e-001	-4.827089e-001
25168866.000	-8.731515e-001	-4.826328e-001
25174860.000	-8.732003e-001	-4.824142e-001
25180854.000	-8.732910e-001	-4.824674e-001
25186848.000	-8.733204e-001	-4.823676e-001
25192842.000	-8.733603e-001	-4.822015e-001
25198836.000	-8.734468e-001	-4.821030e-001
25204830.000	-8.734918e-001	-4.819859e-001
25210824.000	-8.734683e-001	-4.819860e-001
25216818.000	-8.735115e-001	-4.819788e-001
25222812.000	-8.737333e-001	-4.818001e-001
25228806.000	-8.737485e-001	-4.816151e-001
25234800.000	-8.737962e-001	-4.815497e-001
25240794.000	-8.738400e-001	-4.814015e-001
25246788.000	-8.738185e-001	-4.813534e-001
25252782.000	-8.739550e-001	-4.810656e-001
25258776.000	-8.739323e-001	-4.809489e-001
25264770.000	-8.740092e-001	-4.810811e-001
25270764.000	-8.740466e-001	-4.808591e-001
25276758.000	-8.741458e-001	-4.807846e-001
25282752.000	-8.742059e-001	-4.806991e-001
25288746.000	-8.742223e-001	-4.805612e-001
25294740.000	-8.743660e-001	-4.804595e-001
25300734.000	-8.743110e-001	-4.803736e-001
25306728.000	-8.743631e-001	-4.802540e-001
25312722.000	-8.744987e-001	-4.801777e-001
25318716.000	-8.745300e-001	-4.801386e-001
25324710.000	-8.746206e-001	-4.800021e-001
25330704.000	-8.746898e-001	-4.800567e-001
25336698.000	-8.746162e-001	-4.798106e-001
25342692.000	-8.747844e-001	-4.797458e-001
25348686.000	-8.747430e-001	-4.795692e-001
25354680.000	-8.748580e-001	-4.794849e-001
25360674.000	-8.748109e-001	-4.794312e-001
25366668.000	-8.749564e-001	-4.792724e-001
25372662.000	-8.750223e-001	-4.791439e-001
25378656.000	-8.749817e-001	-4.791352e-001
25384650.000	-8.751167e-001	-4.791735e-001
25390644.000	-8.751480e-001	-4.788740e-001
25396638.000	-8.751435e-001	-4.787915e-001
25402632.000	-8.753007e-001	-4.787296e-001
25408626.000	-8.753465e-001	-4.786786e-001
25414620.000	-8.755231e-001	-4.784646e-001
25420614.000	-8.754596e-001	-4.784140e-001
25426608.000	-8.754790e-001	-4.783317e-001
25432602.000	-8.755756e-001	-4.783889e-001
25438596.000	-8.756561e-001	-4.781928e-001
25444590.000	-8.756906e-001	-4.781039e-001
25450584.000	-8.757317e-001	-4.779408e-001
25456578.000	-8.758036e-001	-4.779683e-001
25462572.000	-8.758803e-001	-4.777563e-001
25468566.000	-8.757924e-001	-4.776486e-001
25474560.000	-8.758839e-001	-4.775418e-001
25480554.000	-8.760299e-001	-4.775607e-001
25486548.000	-8.761111e-001	-4.773401e-001
25492542.000	-8.761215e-001	-4.772239e-001
25498536.000	-8.760676e-001	-4.771083e-001
25504530.000	-8.763163e-001	-4.770525e-001
25510524.000	-8.762620e-001	-4.770410e-001
25516518.000	-8.763300e-001	-4.768227e-001
25522512.000	-8.764358e-001	-4.767424e-001
25528506.000	-8.764258e-001	-4.767026e-001
25534500.000	-8.765492e-001	-4.765679e-001
25540494.000	-8.765548e-001	-4.764454e-001
25546488.000	-8.765529e-001	-4.763913e-001
25552482.000	-8.765946e-001	-4.761497e-001
25558476.000	-8.767473e-001	-4.761186e-001
25564470.000	-8.766608e-001	-4.759217e-001
25570464.000	-8.768147e-001	-4.758771e-001
25576458.000	-8.769430e-001	-4.758585e-001
25582452.000	-8.770520e-001	-4.757386e-001
25588446.000	-8.770245e-001	-4.757529e-001
25594440.000	-8.770273e-001	-4.755408e-001
25600434.000	-8.770545e-001	-4.752890e-001
25606428.000	-8.771479e-001	-4.753184e-001
25612422.000	-8.772395e-001	-4.752281e-001
25618416.000	-8.772012e-001	-4.750927e-001
25624410.000	-8.771811e-001	-4.748307e-001
25630404.000	-8.773593e-001	-4.749177e-001
25636398.000	-8.773832e-001	-4.746980e-001
25642392.000	-8.773717e-001	-4.746969e-001
25648386.000	-8.774507e-001	-4.746109e-001
25654380.000	-8.776135e-001	-4.744665e-001
25660374.000	-8.775363e-001	-4.744924e-001
25666368.000	-8.776239e-001	-4.744154e-001
25672362.000	-8.776018e-001	-4.742136e-001
25678356.000	-8.776662e-001	-4.741724e-001
25684350.000	-8.777399e-001	-4.740314e-001
25690344.000	-8.778452e-001	-4.740545e-001
25696338.000	-8.778890e-001	-4.739587e-001
25702332.000	-8.779818e-001	-4.738383e-001
25708326.000	-8.780891e-001	-4.736830e-001
25714320.000	-8.781686e-001	-4.736926e-001
25720314.000	-8.780878e-001	-4.734953e-001
25726308.000	-8.781718e-001	-4.734121e-001
25732302.000	-8.782751e-001	-4.733180e-001
25738296.000	-8.782971e-001	-4.732262e-001
25744290.000	-8.784367e-001	-4.731941e-001
25750284.000	-8.782986e-001	-4.729291e-001
25756278.000	-8.783991e-001	-4.729651e-001
25762272.000	-8.784092e-001	-4.728735e-001
25768266.000	-8.785967e-001	-4.726392e-001
25774260.000	-8.786359e-001	-4.726699e-001
25780254.000	-8.786915e-001	-4.724054e-001
25786248.000	-8.787440e-001	-4.722794e-001
25792242.000	-8.786668e-001	-4.723124e-001
25798236.000	-8.787755e-001	-4.720653e-001
25804230.000	-8.788183e-001	-4.720635e-001
25810224.000	-8.788439e-001	-4.718773e-001
25816218.000	-8.789597e-001	-4.718851e-001
25822212.000	-8.790517e-001	-4.718993e-001
25828206.000	-8.791208e-001	-4.717090e-001
25834200.000	-8.792228e-001	-4.715893e-001
25840194.000	-8.792163e-001	-4.715138e-001
25846188.000	-8.792517e-001	-4.715083e-001
25852182.000	-8.793457e-001	-4.713988e-001
25858176.000	-8.793264e-001	-4.713340e-001
25864170.000	-8.793136e-001	-4.712580e-001
25870164.000	-8.794526e-001	-4.710586e-001
25876158.000	-8.794564e-001	-4.710224e-001
25882152.000	-8.794935e-001	-4.709561e-001
25888146.000	-8.796162e-001	-4.707689e-001
25894140.000	-8.795632e-001	-4.706231e-001
25900134.000	-8.797012e-001	-4.706146e-001
25906128.000	-8.797545e-001	-4.706127e-001
25912122.000	-8.797762e-001	-4.703624e-001
25918116.000	-8.798152e-001	-4.702514e-001
25924110.000	-8.798518e-001	-4.701089e-001
25930104.000	-8.800333e-001	-4.701861e-001
25936098.000	-8.799373e-001	-4.698934e-001
25942092.000	-8.799267e-001	-4.698409e-001
25948086.000	-8.800941e-001	-4.698440e-001
25954080.000	-8.801790e-001	-4.697320e-001
25960074.000	-8.802290e-001	-4.695686e-001
25966068.000	-8.802838e-001	-4.695452e-001
25972062.000	-8.802381e-001	-4.693471e-001
25978056.000	-8.802250e-001	-4.692736e-001
25984050.000	-8.804096e-001	-4.692307e-001
25990044.000	-8.804055e-001	-4.691651e-001
25996038.000	-8.805312e-001	-4.690051e-001
26002032.000	-8.806269e-001	-4.689290e-001
26008026.000	-8.806046e-001	-4.689319e-001
26014020.000	-8.807143e-001	-4.688369e-001
26020014.000	-8.807811e-001	-4.686432e-001
26026008.000	-8.808412e-001	-4.686690e-001
26032002.000	-8.808402e-001	-4.684598e-001
26037996.000	-8.809190e-001	-4.682295e-001
26043990.000	-8.809354e-001	-4.681866e-001
26049984.000	-8.809586e-001	-4.683292e-001
26055978.000	-8.810662e-001	-4.680373e-001
26061972.000	-8.811066e-001	-4.680408e-001
26067966.000	-8.812113e-001	-4.678655e-001
26073960.000	-8.812527e-001	-4.677421e-001
26079954.000	-8.812767e-001	-4.677533e-001
26085948.000	-8.814009e-001	-4.675765e-001
26091942.000	-8.813206e-001	-4.675611e-001
26097936.000	-8.814671e-001	-4.675462e-001
26103930.000	-8.816079e-001	-4.672823e-001
26109924.000	-8.815055e-001	-4.672613e-001
26115918.000	-8.814824e-001	-4.671832e-001
26121912.000	-8.816070e-001	-4.669614e-001
26127906.000	-8.816607e-001	-4.669557e-001
26133900.000	-8.816404e-001	-4.668200e-001
26139894.000	-8.816938e-001	-4.667256e-001
26145888.000	-8.817310e-001	-4.665612e-001
26151882.000	-8.818596e-001	-4.666646e-001
26157876.000	-8.819583e-001	-4.664203e-001
26163870.000	-8.820220e-001	-4.663877e-001
26169864.000	-8.820281e-001	-4.662475e-001
26175858.000	-8.820415e-001	-4.661372e-001
26181852.000	-8.821210e-001	-4.660149e-001
26187846.000	-8.821544e-001	-4.659825e-001
26193840.000	-8.822455e-001	-4.658190e-001
26199834.000	-8.822402e-001	-4.656125e-001
26205828.000	-8.822546e-001	-4.656890e-001
26211822.000	-8.822824e-001	-4.654822e-001
26217816.000	-8.824099e-001	-4.654944e-001
26223810.000	-8.824373e-001	-4.653772e-001
26229804.000	-8.824279e-001	-4.652166e-001
26235798.000	-8.825692e-001	-4.653077e-001
26241792.000	-8.825940e-001	-4.649914e-001
26247786.000	-8.826788e-001	-4.651006e-001
26253780.000	-8.826989e-001	-4.649015e-001
26259774.000	-8.828027e-001	-4.647433e-001
26265768.000	-8.827140e-001	-4.646370e-001
26271762.000	-8.828816e-001	-4.644339e-001
26277756.000	-8.828050e-001	-4.644795e-001
26283750.000	-8.830046e-001	-4.644417e-001
26289744.000	-8.828957e-001	-4.643421e-001
26295738.000	-8.829474e-001	-4.642669e-001
26301732.000	-8.830656e-001	-4.641033e-001
26307726.000	-8.830807e-001	-4.639374e-001
26313720.000	-8.831385e-001	-4.639180e-001
26319714.000	-8.832199e-001	-4.637354e-001
26325708.000	-8.832395e-001	-4.636594e-001
26331702.000	-8.832109e-001	-4.635862e-001
26337696.000	-8.833322e-001	-4.635137e-001
26343690.000	-8.834357e-001	-4.632899e-001
26349684.000	-8.835138e-001	-4.632954e-001
26355678.000	-8.835027e-001	-4.631730e-001
26361672.000	-8.836235e-001	-4.630775e-001
26367666.000	-8.835982e-001	-4.630632e-001
26373660.000	-8.837394e-001	-4.630075e-001
26379654.000	-8.837791e-001	-4.628984e-001
26385648.000	-8.838648e-001	-4.629712e-001
26391642.000	-8.837919e-001	-4.627722e-001
26397636.000	-8.838929e-001	-4.626764e-001
26403630.000	-8.838581e-001	-4.625375e-001
26409624.000	-8.840076e-001	-4.625006e-001
26415618.000	-8.840659e-001	-4.623507e-001
26421612.000	-8.840601e-001	-4.622927e-001
26427606.000	-8.841042e-001	-4.622096e-001
26433600.000	-8.841790e-001	-4.620645e-001
26439594.000	-8.842468e-001	-4.621070e-001
26445588.000	-8.843298e-001	-4.618945e-001
26451582.000	-8.844059e-001	-4.618351e-001
26457576.000	-8.843781e-001	-4.617577e-001
26463570.000	-8.843383e-001	-4.615382e-001
26469564.000	-8.845198e-001	-4.614458e-001
26475558.000	-8.845051e-001	-4.612972e-001
26481552.000	-8.845193e-001	-4.613332e-001
26487546.000	-8.845343e-001	-4.612552e-001
26493540.000	-8.847052e-001	-4.610774e-001
26499534.000	-8.846770e-001	-4.611107e-001
26505528.000	-8.846554e-001	-4.608596e-001
26511522.000	-8.847649e-001	-4.607717e-001
26517516.000	-8.847692e-001	-4.608838e-001
26523510.000	-8.849773e-001	-4.606690e-001
26529504.000	-8.849451e-001	-4.605155e-001
26535498.000	-8.849861e-001	-4.603724e-001
26541492.000	-8.849677e-001	-4.604040e-001
26547486.000	-8.850277e-001	-4.603254e-001
26553480.000	-8.851717e-001	-4.601528e-001
26559474.000	-8.852289e-001	-4.601773e-001
26565468.000	-8.852517e-001	-4.599118e-001
26571462.000	-8.852925e-001	-4.598718e-001
26577456.000	-8.853624e-001	-4.596830e-001
26583450.000	-8.854309e-001	-4.597890e-001
26589444.000	-8.853964e-001	-4.595779e-001
26595438.000	-8.853944e-001	-4.595473e-001
26601432.000	-8.854143e-001	-4.593867e-001
26607426.000	-8.855637e-001	-4.593569e-001
26613420.000	-8.856095e-001	-4.591938e-001
26619414.000	-8.856097e-001	-4.591050e-001
26625408.000	-8.857604e-001	-4.589459e-001
26631402.000	-8.858536e-001	-4.590189e-001
26637396.000	-8.857237e-001	-4.588564e-001
26643390.000	-8.858770e-001	-4.587868e-001
26649384.000	-8.859140e-001	-4.588049e-001
26655378.000	-8.859556e-001	-4.586933e-001
26661372.000	-8.860541e-001	-4.585318e-001
26667366.000	-8.860177e-001	-4.584863e-001
26673360.000	-8.861260e-001	-4.584127e-001
26679354.000	-8.860378e-001	-4.582773e-001
26685348.000	-8.862401e-001	-4.581363e-001
26691342.000	-8.861944e-001	-4.581043e-001
26697336.000	-8.862733e-001	-4.580534e-001
26703330.000	-8.863197e-001	-4.577987e-001
26709324.000	-8.863662e-001	-4.578396e-001
26715318.000	-8.864742e-001	-4.577908e-001
26721312.000	-8.865569e-001	-4.577450e-001
26727306.000	-8.865201e-001	-4.574902e-001
26733300.000	-8.864286e-001	-4.574019e-001
26739294.000	-8.865400e-001	-4.573591e-001
26745288.000	-8.866935e-001	-4.572217e-001
26751282.000	-8.868029e-001	-4.572697e-001
26757276.000	-8.867159e-001	-4.570832e-001
26763270.000	-8.869457e-001	-4.570826e-001
26769264.000	-8.868053e-001	-4.568959e-001
26775258.000	-8.868475e-001	-4.568687e-001
26781252.000	-8.869305e-001	-4.567317e-001
26787246.000	-8.869713e-001	-4.566900e-001
26793240.000	-8.870686e-001	-4.565129e-001
26799234.000	-8.871117e-001	-4.564596e-001
26805228.000	-8.871577e-001	-4.563420e-001
26811222.000	-8.871649e-001	-4.562665e-001
26817216.000	-8.872895e-001	-4.562026e-001
26823210.000	-8.872790e-001	-4.561189e-001
26829204.000	-8.874685e-001	-4.558316e-001
26835198.000	-8.873780e-001	-4.557409e-001
26841192.000	-8.874610e-001	-4.557920e-001
26847186.000	-8.874617e-001	-4.557437e-001
26853180.000	-8.874596e-001	-4.556095e-001
26859174.000	-8.875106e-001	-4.553842e-001
26865168.000	-8.875751e-001	-4.553988e-001
26871162.000	-8.876922e-001	-4.552848e-001
26877156.000	-8.876561e-001	-4.552327e-001
26883150.000	-8.877139e-001	-4.551190e-001
26889144.000	-8.877390e-001	-4.548323e-001
26895138.000	-8.877754e-001	-4.548702e-001
26901132.000	-8.877788e-001	-4.547405e-001
26907126.000	-8.878898e-001	-4.546679e-001
26913120.000	-8.880214e-001	-4.545323e-001
26919114.000	-8.879840e-001	-4.545756e-001
26925108.000	-8.881086e-001	-4.545185e-001
26931102.000	-8.880239e-001	-4.545246e-001
26937096.000	-8.881495e-001	-4.543824e-001
26943090.000	-8.881241e-001	-4.544163e-001
26949084.000	-8.883801e-001	-4.541523e-001
26955078.000	-8.882802e-001	-4.540504e-001
26961072.000	-8.884211e-001	-4.539416e-001
26967066.000	-8.884413e-001	-4.537844e-001
26973060.000	-8.884818e-001	-4.538358e-001
26979054.000	-8.884525e-001	-4.536792e-001
26985048.000	-8.884847e-001	-4.536350e-001
26991042.000	-8.887227e-001	-4.535353e-001
26997036.000	-8.887006e-001	-4.534448e-001
27003030.000	-8.887871e-001	-4.533298e-001
27009024.000	-8.887077e-001	-4.532892e-001
27015018.000	-8.887957e-001	-4.531805e-001
27021012.000	-8.887652e-001	-4.532499e-001
27027006.000	-8.888013e-001	-4.530323e-001
27033000.000	-8.890002e-001	-4.530155e-001
27038994.000	-8.890359e-001	-4.528145e-001
27044988.000	-8.889696e-001	-4.526827e-001
27050982.000	-8.890195e-001	-4.526424e-001
27056976.000	-8.890084e-001	-4.526477e-001
27062970.000	-8.890594e-001	-4.524505e-001
27068964.000	-8.891761e-001	-4.523016e-001
27074958.000	-8.891655e-001	-4.522966e-001
27080952.000	-8.891940e-001	-4.520993e-001
27086946.000	-8.893240e-001	-4.519625e-001
27092940.000	-8.893389e-001	-4.520410e-001
27098934.000	-8.893868e-001	-4.519652e-001
27104928.000	-8.895444e-001	-4.518431e-001
27110922.000	-8.895063e-001	-4.517278e-001
27116916.000	-8.894095e-001	-4.516156e-001
27122910.000	-8.896349e-001	-4.514565e-001
27128904.000	-8.897332e-001	-4.513993e-001
27134898.000	-8.896949e-001	-4.513479e-001
27140892.000	-8.897540e-001	-4.511903e-001
27146886.000	-8.898228e-001	-4.512436e-001
27152880.000	-8.898295e-001	-4.511645e-001
27158874.000	-8.898518e-001	-4.509702e-001
27164868.000	-8.898040e-001	-4.509434e-001
27170862.000	-8.899757e-001	-4.509883e-001
27176856.000	-8.899977e-001	-4.506663e-001
27182850.000	-8.899780e-001	-4.505372e-001
27188844.000	-8.899750e-001	-4.504003e-001
27194838.000	-8.901448e-001	-4.503917e-001
27200832.000	-8.901358e-001	-4.504046e-001
27206826.000	-8.902662e-001	-4.503272e-001
27212820.000	-8.902825e-001	-4.502789e-001
27218814.000	-8.903980e-001	-4.500506e-001
27224808.000	-8.904385e-001	-4.501339e-001
27230802.000	-8.903910e-001	-4.500507e-001
27236796.000	-8.904113e-001	-4.498724e-001
27242790.000	-8.905008e-001	-4.496767e-001
27248784.000	-8.904165e-001	-4.496195e-001
27254778.000	-8.905979e-001	-4.495368e-001
27260772.000	-8.905613e-001	-4.494277e-001
27266766.000	-8.906993e-001	-4.496107e-001
27272760.000	-8.906654e-001	-4.493374e-001
27278754.000	-8.907200e-001	-4.492559e-001
27284748.000	-8.908064e-001	-4.490780e-001
27290742.000	-8.907911e-001	-4.489525e-001
27296736.000	-8.909058e-001	-4.488769e-001
27302730.000	-8.909099e-001	-4.487487e-001
27308724.000	-8.909078e-001	-4.486416e-001
27314718.000	-8.910906e-001	-4.485798e-001
27320712.000	-8.911894e-001	-4.485639e-001
27326706.000	-8.911495e-001	-4.485109e-001
27332700.000	-8.910894e-001	-4.483882e-001
27338694.000	-8.910924e-001	-4.482819e-001
27344688.000	-8.911565e-001	-4.481050e-001
27350682.000	-8.911756e-001	-4.480659e-001
27356676.000	-8.913173e-001	-4.480559e-001
27362670.000	-8.913898e-001	-4.479527e-001
27368664.000	-8.914919e-001	-4.479000e-001
27374658.000	-8.915602e-001	-4.479324e-001
27380652.000	-8.915708e-001	-4.475994e-001
27386646.000	-8.914797e-001	-4.475662e-001
27392640.000	-8.917140e-001	-4.474557e-001
27398634.000	-8.916724e-001	-4.473851e-001
27404628.000	-8.917388e-001	-4.473713e-001
27410622.000	-8.918076e-001	-4.472823e-001
27416616.000	-8.918106e-001	-4.471169e-001
27422610.000	-8.917702e-001	-4.470574e-001
27428604.000	-8.918021e-001	-4.468653e-001
27434598.000	-8.918625e-001	-4.468524e-001
27440592.000	-8.918656e-001	-4.466101e-001
27446586.000	-8.919993e-001	-4.466956e-001
27452580.000	-8.919231e-001	-4.466094e-001
27458574.000	-8.920686e-001	-4.464583e-001
27464568.000	-8.920974e-001	-4.465685e-001
27470562.000	-8.921906e-001	-4.463965e-001
27476556.000	-8.922537e-001	-4.462775e-001
27482550.000	-8.922093e-001	-4.462353e-001
27488544.000	-8.922706e-001	-4.461674e-001
27494538.000	-8.923572e-001	-4.461226e-001
27500532.000	-8.923546e-001	-4.459959e-001
27506526.000	-8.924775e-001	-4.458084e-001
27512520.000	-8.925052e-001	-4.457990e-001
27518514.000	-8.924428e-001	-4.456519e-001
27524508.000	-8.924982e-001	-4.456238e-001
27530502.000	-8.926056e-001	-4.455085e-001
27536496.000	-8.925179e-001	-4.453840e-001
27542490.000	-8.927256e-001	-4.452490e-001
27548484.000	-8.927163e-001	-4.451098e-001
27554478.000	-8.928232e-001	-4.451970e-001
27560472.000	-8.927747e-001	-4.451181e-001
27566466.000	-8.928323e-001	-4.450634e-001
27572460.000	-8.928534e-001	-4.447566e-001
27578454.000	-8.929007e-001	-4.447706e-001
27584448.000	-8.929309e-001	-4.446643e-001
27590442.000	-8.930300e-001	-4.445842e-001
27596436.000	-8.930779e-001	-4.445448e-001
27602430.000	-8.930856e-001	-4.444294e-001
27608424.000	-8.931048e-001	-4.442345e-001
27614418.000	-8.932620e-001	-4.442487e-001
27620412.000	-8.932456e-001	-4.441796e-001
27626406.000	-8.933334e-001	-4.440570e-001
27632400.000	-8.932955e-001	-4.439958e-001
27638394.000	-8.933710e-001	-4.438065e-001
27644388.000	-8.933715e-001	-4.437041e-001
27650382.000	-8.934460e-001	-4.435026e-001
27656376.000	-8.934953e-001	-4.435408e-001
27662370.000	-8.936078e-001	-4.435734e-001
27668364.000	-8.935995e-001	-4.435165e-001
27674358.000	-8.937349e-001	-4.435316e-001
27680352.000	-8.937015e-001	-4.431788e-001
27686346.000	-8.937971e-001	-4.432091e-001
27692340.000	-8.938611e-001	-4.430872e-001
27698334.000	-8.937459e-001	-4.430675e-001
27704328.000	-8.938614e-001	-4.428673e-001
27710322.000	-8.938539e-001	-4.429583e-001
27716316.000	-8.939337e-001	-4.426942e-001
27722310.000	-8.940830e-001	-4.427116e-001
27728304.000	-8.939631e-001	-4.426624e-001
27734298.000	-8.940892e-001	-4.424227e-001
27740292.000	-8.940704e-001	-4.423351e-001
27746286.000	-8.940951e-001	-4.423312e-001
27752280.000	-8.941372e-001	-4.423000e-001
27758274.000	-8.943082e-001	-4.421893e-001
27764268.000	-8.942578e-001	-4.420076e-001
27770262.000	-8.942974e-001	-4.419920e-001
27776256.000	-8.944467e-001	-4.419411e-001
27782250.000	-8.944510e-001	-4.418029e-001
27788244.000	-8.944457e-001	-4.418219e-001
27794238.000	-8.944578e-001	-4.415361e-001
27800232.000	-8.945648e-001	-4.415083e-001
27806226.000	-8.946461e-001	-4.413538e-001
27812220.000	-8.946360e-001	-4.413327e-001
27818214.000	-8.946522e-001	-4.412069e-001
27824208.000	-8.947936e-001	-4.411601e-001
27830202.000	-8.947310e-001	-4.411434e-001
27836196.000	-8.948154e-001	-4.410250e-001
27842190.000	-8.948114e-001	-4.408734e-001
27848184.000	-8.947634e-001	-4.409007e-001
27854178.000	-8.949727e-001	-4.407339e-001
27860172.000	-8.949832e-001	-4.406766e-001
27866166.000	-8.950722e-001	-4.404966e-001
27872160.000	-8.950645e-001	-4.405796e-001
27878154.000	-8.950762e-001	-4.404436e-001
27884148.000	-8.951325e-001	-4.403693e-001
27890142.000	-8.951493e-001	-4.402834e-001
27896136.000	-8.952098e-001	-4.401313e-001
27902130.000	-8.952589e-001	-4.401758e-001
27908124.000	-8.954067e-001	-4.399820e-001
27914118.000	-8.954621e-001	-4.398058e-001
27920112.000	-8.953622e-001	-4.397695e-001
27926106.000	-8.955243e-001	-4.398499e-001
27932100.000	-8.955099e-001	-4.396735e-001
27938094.000	-8.955584e-001	-4.395662e-001
27944088.000	-8.954553e-001	-4.394529e-001
27950082.000	-8.956147e-001	-4.394846e-001
27956076.000	-8.956505e-001	-4.393534e-001
27962070.000	-8.956884e-001	-4.391980e-001
27968064.000	-8.956194e-001	-4.390474e-001
27974058.000	-8.957941e-001	-4.390713e-001
27980052.000	-8.957850e-001	-4.390442e-001
27986046.000	-8.958781e-001	-4.389366e-001
27992040.000	-8.959046e-001	-4.388347e-001
27998034.000	-8.958245e-001	-4.387028e-001
28004028.000	-8.960156e-001	-4.386040e-001
28010022.000	-8.959142e-001	-4.385439e-001
28016016.000	-8.960308e-001	-4.384946e-001
28022010.000	-8.960230e-001	-4.383487e-001
28028004.000	-8.960772e-001	-4.384288e-001
28033998.000	-8.962063e-001	-4.382816e-001
28039992.000	-8.962888e-001	-4.381376e-001
28045986.000	-8.962621e-001	-4.380214e-001
28051980.000	-8.962895e-001	-4.380199e-001
28057974.000	-8.963525e-001	-4.378543e-001
28063968.000	-8.963803e-001	-4.376899e-001
28069962.000	-8.964214e-001	-4.376459e-001
28075956.000	-8.965134e-001	-4.376414e-001
28081950.000	-8.965251e-001	-4.375975e-001
28087944.000	-8.965206e-001	-4.374418e-001
28093938.000	-8.965715e-001	-4.373443e-001
28099932.000	-8.965598e-001	-4.372381e-001
28105926.000	-8.967522e-001	-4.371319e-001
28111920.000	-8.966882e-001	-4.372246e-001
28117914.000	-8.967972e-001	-4.369598e-001
28123908.000	-8.967303e-001	-4.369709e-001
28129902.000	-8.969034e-001	-4.369948e-001
28135896.000	-8.968577e-001	-4.368334e-001
28141890.000	-8.969776e-001	-4.366303e-001
28147884.000	-8.970299e-001	-4.366367e-001
28153878.000	-8.970645e-001	-4.364401e-001
28159872.000	-8.970298e-001	-4.363175e-001
28165866.000	-8.970005e-001	-4.362442e-001
28171860.000	-8.971102e-001	-4.362115e-001
28177854.000	-8.971927e-001	-4.362223e-001
28183848.000	-8.972231e-001	-4.361054e-001
28189842.000	-8.971590e-001	-4.359426e-001
28195836.000	-8.971332e-001	-4.358511e-001
28201830.000	-8.973598e-001	-4.357441e-001
28207824.000	-8.973779e-001	-4.356938e-001
28213818.000	-8.972668e-001	-4.356220e-001
28219812.000	-8.974046e-001	-4.356369e-001
28225806.000	-8.974431e-001	-4.355094e-001
28231800.000	-8.975242e-001	-4.354309e-001
28237794.000	-8.974922e-001	-4.353422e-001
28243788.000	-8.976880e-001	-4.352383e-001
28249782.000	-8.976535e-001	-4.351657e-001
28255776.000	-8.977128e-001	-4.350672e-001
28261770.000	-8.976364e-001	-4.349728e-001
28267764.000	-8.978495e-001	-4.348930e-001
28273758.000	-8.977660e-001	-4.349119e-001
28279752.000	-8.977935e-001	-4.348076e-001
28285746.000	-8.979108e-001	-4.347357e-001
28291740.000	-8.979130e-001	-4.346724e-001
28297734.000	-8.979606e-001	-4.345107e-001
28303728.000	-8.980395e-001	-4.344630e-001
28309722.000	-8.980438e-001	-4.342707e-001
28315716.000	-8.980806e-001	-4.341909e-001
28321710.000	-8.981518e-001	-4.342476e-001
28327704.000	-8.982073e-001	-4.340308e-001
28333698.000	-8.981526e-001	-4.339502e-001
28339692.000	-8.981684e-001	-4.338984e-001
28345686.000	-8.982801e-001	-4.337762e-001
28351680.000	-8.983754e-001	-4.337489e-001
28357674.000	-8.984096e-001	-4.337185e-001
28363668.000	-8.984456e-001	-4.336215e-001
28369662.000	-8.984180e-001	-4.334983e-001
28375656.000	-8.984322e-001	-4.334038e-001
28381650.000	-8.986091e-001	-4.333038e-001
28387644.000	-8.986289e-001	-4.333353e-001
28393638.000	-8.986500e-001	-4.332800e-001
28399632.000	-8.986598e-001	-4.330626e-001
28405626.000	-8.986149e-001	-4.329984e-001
28411620.000	-8.987645e-001	-4.329730e-001
28417614.000	-8.987206e-001	-4.328733e-001
28423608.000	-8.987591e-001	-4.328169e-001
28429602.000	-8.988391e-001	-4.326422e-001
28435596.000	-8.988907e-001	-4.326869e-001
28441590.000	-8.989036e-001	-4.325743e-001
28447584.000	-8.988544e-001	-4.324343e-001
28453578.000	-8.990026e-001	-4.324102e-001
28459572.000	-8.990216e-001	-4.323209e-001
28465566.000	-8.991897e-001	-4.321542e-001
28471560.000	-8.990704e-001	-4.322349e-001
28477554.000	-8.992319e-001	-4.320018e-001
28483548.000	-8.991817e-001	-4.318354e-001
28489542.000	-8.992406e-001	-4.318489e-001
28495536.000	-8.992622e-001	-4.319066e-001
28501530.000	-8.993798e-001	-4.316762e-001
28507524.000	-8.993093e-001	-4.316744e-001
28513518.000	-8.993513e-001	-4.315047e-001
28519512.000	-8.994283e-001	-4.314946e-001
28525506.000	-8.995783e-001	-4.314352e-001
28531500.000	-8.995572e-001	-4.313964e-001
28537494.000	-8.995345e-001	-4.311361e-001
28543488.000	-8.994779e-001	-4.310921e-001
28549482.000	-8.995500e-001	-4.310191e-001
28555476.000	-8.996263e-001	-4.310529e-001
28561470.000	-8.997096e-001	-4.308999e-001
28567464.000	-8.997859e-001	-4.308075e-001
28573458.000	-8.997842e-001	-4.307046e-001
28579452.000	-8.999186e-001	-4.305998e-001
28585446.000	-8.998525e-001	-4.306192e-001
28591440.000	-8.998880e-001	-4.304563e-001
28597434.000	-8.999671e-001	-4.303846e-001
28603428.000	-8.999855e-001	-4.302252e-001
28609422.000	-9.000241e-001	-4.302077e-001
28615416.000	-8.999432e-001	-4.300489e-001
28621410.000	-9.001212e-001	-4.301094e-001
28627404.000	-9.001497e-001	-4.299832e-001
28633398.000	-9.002227e-001	-4.299452e-001
28639392.000	-9.003102e-001	-4.298222e-001
28645386.000	-9.001992e-001	-4.297183e-001
28651380.000	-9.003588e-001	-4.297495e-001
28657374.000	-9.002598e-001	-4.296379e-001
28663368.000	-9.004394e-001	-4.294035e-001
28669362.000	-9.003942e-001	-4.293718e-001
28675356.000	-9.003858e-001	-4.295081e-001
28681350.000	-9.005062e-001	-4.293407e-001
28687344.000	-9.004988e-001	-4.292959e-001
28693338.000	-9.004993e-001	-4.289809e-001
28699332.000	-9.005950e-001	-4.289295e-001
28705326.000	-9.005096e-001	-4.289406e-001
28711320.000	-9.006350e-001	-4.287505e-001
28717314.000	-9.007794e-001	-4.288611e-001
28723308.000	-9.008143e-001	-4.286284e-001
28729302.000	-9.009201e-001	-4.286143e-001
28735296.000	-9.009299e-001	-4.285919e-001
28741290.000	-9.009109e-001	-4.285110e-001
28747284.000	-9.009356e-001	-4.282684e-001
28753278.000	-9.009082e-001	-4.283014e-001
28759272.000	-9.010170e-001	-4.281870e-001
28765266.000	-9.010697e-001	-4.281624e-001
28771260.000	-9.011520e-001	-4.279847e-001
28777254.000	-9.011210e-001	-4.278696e-001
28783248.000	-9.011557e-001	-4.280136e-001
28789242.000	-9.012574e-001	-4.277628e-001
28795236.000	-9.012837e-001	-4.277121e-001
28801230.000	-9.012864e-001	-4.275261e-001
28807224.000	-9.012810e-001	-4.275005e-001
28813218.000	-9.013646e-001	-4.274083e-001
28819212.000	-9.013232e-001	-4.273983e-001
28825206.000	-9.013913e-001	-4.273520e-001
28831200.000	-9.014536e-001	-4.271694e-001
28837194.000	-9.015298e-001	-4.271483e-001
28843188.000	-9.015630e-001	-4.269944e-001
28849182.000	-9.015508e-001	-4.269664e-001
28855176.000	-9.016298e-001	-4.269601e-001
28861170.000	-9.016510e-001	-4.267747e-001
28867164.000	-9.017342e-001	-4.268122e-001
28873158.000	-9.017172e-001	-4.266262e-001
28879152.000	-9.017687e-001	-4.265622e-001
28885146.000	-9.017772e-001	-4.264310e-001
28891140.000	-9.018787e-001	-4.263090e-001
28897134.000	-9.017596e-001	-4.263111e-001
28903128.000	-9.018798e-001	-4.262030e-001
28909122.000	-9.019061e-001	-4.260351e-001
28915116.000	-9.018942e-001	-4.260894e-001
28921110.000	-9.020220e-001	-4.259186e-001
28927104.000	-9.019798e-001	-4.258164e-001
28933098.000	-9.020993e-001	-4.257553e-001
28939092.000	-9.021861e-001	-4.256002e-001
28945086.000	-9.022241e-001	-4.256444e-001
28951080.000	-9.022082e-001	-4.255145e-001
28957074.000	-9.021980e-001	-4.253872e-001
28963068.000	-9.021677e-001	-4.254181e-001
28969062.000	-9.023931e-001	-4.254227e-001
28975056.000	-9.023283e-001	-4.252647e-001
28981050.000	-9.023972e-001	-4.250337e-001
28987044.000	-9.023985e-001	-4.250314e-001
28993038.000	-9.024476e-001	-4.250255e-001
28999032.000	-9.024946e-001	-4.249104e-001
29005026.000	-9.026013e-001	-4.247646e-001
29011020.000	-9.025033e-001	-4.246561e-001
29017014.000	-9.026474e-001	-4.245566e-001
29023008.000	-9.027265e-001	-4.245827e-001
29029002.000	-9.027451e-001	-4.245590e-001
29034996.000	-9.028665e-001	-4.244404e-001
29040990.000	-9.027606e-001	-4.243330e-001
29046984.000	-9.027598e-001	-4.242100e-001
29052978.000	-9.028480e-001	-4.241081e-001
29058972.000	-9.029299e-001	-4.240966e-001
29064966.000	-9.028908e-001	-4.241078e-001
29070960.000	-9.029257e-001	-4.240278e-001
29076954.000	-9.030837e-001	-4.239184e-001
29082948.000	-9.030872e-001	-4.238258e-001
29088942.000	-9.030586e-001	-4.238305e-001
29094936.000	-9.032259e-001	-4.236574e-001
29100930.000	-9.032220e-001	-4.236369e-001
29106924.000	-9.031530e-001	-4.235385e-001
29112918.000	-9.032241e-001	-4.234326e-001
29118912.000	-9.033272e-001	-4.234463e-001
29124906.000	-9.033133e-001	-4.232534e-001
29130900.000	-9.032724e-001	-4.231004e-001
29136894.000	-9.033737e-001	-4.231265e-001
29142888.000	-9.035347e-001	-4.229981e-001
29148882.000	-9.034257e-001	-4.229979e-001
29154876.000	-9.035348e-001	-4.230227e-001
29160870.000	-9.034753e-001	-4.227959e-001
29166864.000	-9.035899e-001	-4.227576e-001
29172858.000	-9.035912e-001	-4.225928e-001
29178852.000	-9.036382e-001	-4.225191e-001
29184846.000	-9.037084e-001	-4.225781e-001
29190840.000	-9.036771e-001	-4.224229e-001
29196834.000	-9.037687e-001	-4.223284e-001
29202828.000	-9.038040e-001	-4.222552e-001
29208822.000	-9.038570e-001	-4.221746e-001
29214816.000	-9.039034e-001	-4.220855e-001
29220810.000	-9.039366e-001	-4.220043e-001
29226804.000	-9.038950e-001	-4.219214e-001
29232798.000	-9.039088e-001	-4.218094e-001
29238792.000	-9.040443e-001	-4.218672e-001
29244786.000	-9.041101e-001	-4.216777e-001
29250780.000	-9.040811e-001	-4.215255e-001
29256774.000	-9.040319e-001	-4.215779e-001
29262768.000	-9.042407e-001	-4.214888e-001
29268762.000	-9.042085e-001	-4.214121e-001
29274756.000	-9.042646e-001	-4.213131e-001
29280750.000	-9.044088e-001	-4.211672e-001
29286744.000	-9.041858e-001	-4.210838e-001
29292738.000	-9.044179e-001	-4.209289e-001
29298732.000	-9.043289e-001	-4.208570e-001
29304726.000	-9.043857e-001	-4.209058e-001
29310720.000	-9.044568e-001	-4.207488e-001
29316714.000	-9.045029e-001	-4.207798e-001
29322708.000	-9.045597e-001	-4.205228e-001
29328702.000	-9.045830e-001	-4.206071e-001
29334696.000	-9.046397e-001	-4.204116e-001
29340690.000	-9.045154e-001	-4.202640e-001
29346684.000	-9.047192e-001	-4.202638e-001
29352678.000	-9.046970e-001	-4.201728e-001
29358672.000	-9.047708e-001	-4.201501e-001
29364666.000	-9.048333e-001	-4.199217e-001
29370660.000	-9.047735e-001	-4.199868e-001
29376654.000	-9.048409e-001	-4.199448e-001
29382648.000	-9.049612e-001	-4.199032e-001
29388642.000	-9.049372e-001	-4.197735e-001
29394636.000	-9.050224e-001	-4.197361e-001
29400630.000	-9.049563e-001	-4.195961e-001
29406624.000	-9.050894e-001	-4.195120e-001
29412618.000	-9.050900e-001	-4.194466e-001
29418612.000	-9.051396e-001	-4.194556e-001
29424606.000	-9.052100e-001	-4.193855e-001
29430600.000	-9.052335e-001	-4.191515e-001
29436594.000	-9.053332e-001	-4.192253e-001
29442588.000	-9.052711e-001	-4.189994e-001
29448582.000	-9.052997e-001	-4.189453e-001
29454576.000	-9.052647e-001	-4.189711e-001
29460570.000	-9.053542e-001	-4.187367e-001
29466564.000	-9.054852e-001	-4.187624e-001
29472558.000	-9.054980e-001	-4.186227e-001
29478552.000	-9.054879e-001	-4.186089e-001
29484546.000	-9.054889e-001	-4.184404e-001
29490540.000	-9.055350e-001	-4.183846e-001
29496534.000	-9.055352e-001	-4.183989e-001
29502528.000	-9.055735e-001	-4.182286e-001
29508522.000	-9.056283e-001	-4.181511e-001
29514516.000	-9.056588e-001	-4.181049e-001
29520510.000	-9.056337e-001	-4.181558e-001
29526504.000	-9.057748e-001	-4.179959e-001
29532498.000	-9.057759e-001	-4.178599e-001
29538492.000	-9.057107e-001	-4.177409e-001
29544486.000	-9.058033e-001	-4.176690e-001
29550480.000	-9.059526e-001	-4.175876e-001
29556474.000	-9.059423e-001	-4.175510e-001
29562468.000	-9.060012e-001	-4.174078e-001
29568462.000	-9.059293e-001	-4.173771e-001
29574456.000	-9.060722e-001	-4.172845e-001
29580450.000	-9.060436e-001	-4.172178e-001
29586444.000	-9.061354e-001	-4.170837e-001
29592438.000	-9.061930e-001	-4.171261e-001
29598432.000	-9.062469e-001	-4.170485e-001
29604426.000	-9.062374e-001	-4.169623e-001
29610420.000	-9.061509e-001	-4.167980e-001
29616414.000	-9.063563e-001	-4.167207e-001
29622408.000	-9.063961e-001	-4.166965e-001
29628402.000	-9.062963e-001	-4.165768e-001
29634396.000	-9.064073e-001	-4.165324e-001
29640390.000	-9.063655e-001	-4.163853e-001
29646384.000	-9.064397e-001	-4.163184e-001
29652378.000	-9.065519e-001	-4.162656e-001
29658372.000	-9.066211e-001	-4.163310e-001
29664366.000	-9.065317e-001	-4.161187e-001
29670360.000	-9.066334e-001	-4.161829e-001
29676354.000	-9.065474e-001	-4.159884e-001
29682348.000	-9.067034e-001	-4.159970e-001
29688342.000	-9.067033e-001	-4.158861e-001
29694336.000	-9.068533e-001	-4.158582e-001
29700330.000	-9.068157e-001	-4.156740e-001
29706324.000	-9.067022e-001	-4.155823e-001
29712318.000	-9.068525e-001	-4.155532e-001
29718312.000	-9.069074e-001	-4.154136e-001
29724306.000	-9.069197e-001	-4.153791e-001
29730300.000	-9.069862e-001	-4.152539e-001
29736294.000	-9.070237e-001	-4.151704e-001
29742288.000	-9.070506e-001	-4.152384e-001
29748282.000	-9.070909e-001	-4.150364e-001
29754276.000	-9.071823e-001	-4.149404e-001
29760270.000	-9.071976e-001	-4.149796e-001
29766264.000	-9.072638e-001	-4.149655e-001
29772258.000	-9.071320e-001	-4.147541e-001
29778252.000	-9.072184e-001	-4.146753e-001
29784246.000	-9.073013e-001	-4.145720e-001
29790240.000	-9.073154e-001	-4.146036e-001
29796234.000	-9.074293e-001	-4.144788e-001
29802228.000	-9.072970e-001	-4.143945e-001
29808222.000	-9.073045e-001	-4.143336e-001
29814216.000	-9.074462e-001	-4.141634e-001
29820210.000	-9.075138e-001	-4.142457e-001
29826204.000	-9.074503e-001	-4.141619e-001
29832198.000	-9.075173e-001	-4.138571e-001
29838192.000	-9.075866e-001	-4.139572e-001
29844186.000	-9.076738e-001	-4.139722e-001
29850180.000	-9.077069e-001	-4.137595e-001
29856174.000	-9.076776e-001	-4.137911e-001
29862168.000	-9.077475e-001	-4.135893e-001
29868162.000	-9.078041e-001	-4.135636e-001
29874156.000	-9.078342e-001	-4.135652e-001
29880150.000	-9.078925e-001	-4.135198e-001
29886144.000	-9.078735e-001	-4.133614e-001
29892138.000	-9.079227e-001	-4.132080e-001
29898132.000	-9.079950e-001	-4.132164e-001
29904126.000	-9.079668e-001	-4.131049e-001
29910120.000	-9.078845e-001	-4.129279e-001
29916114.000	-9.080775e-001	-4.130091e-001
29922108.000	-9.080384e-001	-4.127905e-001
29928102.000	-9.081497e-001	-4.128189e-001
29934096.000	-9.082927e-001	-4.127475e-001
29940090.000	-9.082855e-001	-4.127445e-001
29946084.000	-9.082809e-001	-4.126696e-001
29952078.000	-9.083104e-001	-4.125391e-001
29958072.000	-9.082990e-001	-4.125276e-001
29964066.000	-9.083555e-001	-4.124267e-001
29970060.000	-9.084620e-001	-4.123003e-001
29976054.000	-9.083822e-001	-4.122056e-001
29982048.000	-9.084269e-001	-4.122826e-001
29988042.000	-9.084731e-001	-4.120982e-001
29994036.000	-9.084724e-001	-4.119503e-001
30000030.000	-9.085669e-001	-4.118822e-001
30006024.000	-9.086627e-001	-4.117769e-001
30012018.000	-9.085005e-001	-4.118357e-001
30018012.000	-9.087030e-001	-4.118319e-001
30024006.000	-9.087333e-001	-4.116543e-001
30030000.000	-9.086733e-001	-4.115916e-001
30035994.000	-9.088212e-001	-4.115735e-001
30041988.000	-9.087672e-001	-4.115162e-001
30047982.000	-9.089122e-001	-4.114687e-001
30053976.000	-9.088370e-001	-4.112056e-001
30059970.000	-9.089427e-001	-4.111386e-001
30065964.000	-9.089171e-001	-4.111072e-001
30071958.000	-9.089292e-001	-4.110793e-001
30077952.000	-9.089877e-001	-4.109149e-001
30083946.000	-9.091108e-001	-4.107948e-001
30089940.000	-9.091075e-001	-4.107937e-001
30095934.000	-9.091252e-001	-4.107040e-001
30101928.000	-9.091530e-001	-4.106563e-001
30107922.000	-9.091620e-001	-4.106680e-001
30113916.000	-9.092434e-001	-4.105759e-001
30119910.000	-9.092670e-001	-4.104256e-001
30125904.000	-9.092950e-001	-4.102725e-001
30131898.000	-9.092607e-001	-4.101400e-001
30137892.000	-9.093985e-001	-4.102036e-001
30143886.000	-9.092939e-001	-4.100115e-001
30149880.000	-9.093490e-001	-4.101099e-001
30155874.000	-9.094427e-001	-4.098671e-001
30161868.000	-9.093655e-001	-4.098585e-001
30167862.000	-9.095036e-001	-4.096835e-001
30173856.000	-9.095192e-001	-4.096772e-001
30179850.000	-9.095652e-001	-4.097192e-001
30185844.000	-9.096481e-001	-4.096054e-001
30191838.000	-9.096527e-001	-4.095882e-001
30197832.000	-9.096296e-001	-4.094788e-001
30203826.000	-9.097387e-001	-4.094126e-001
30209820.000	-9.097631e-001	-4.093271e-001
30215814.000	-9.097588e-001	-4.091901e-001
30221808.000	-9.099139e-001	-4.090519e-001
30227802.000	-9.098720e-001	-4.090374e-001
30233796.000	-9.097859e-001	-4.090298e-001
30239790.000	-9.098755e-001	-4.089252e-001
30245784.000	-9.099311e-001	-4.088175e-001
30251778.000	-9.100560e-001	-4.087275e-001
30257772.000	-9.100205e-001	-4.087450e-001
30263766.000	-9.099810e-001	-4.086753e-001
30269760.000	-9.101127e-001	-4.085270e-001
30275754.000	-9.100926e-001	-4.084744e-001
30281748.000	-9.100766e-001	-4.084042e-001
30287742.000	-9.101539e-001	-4.082284e-001
30293736.000	-9.100456e-001	-4.080867e-001
30299730.000	-9.101953e-001	-4.080813e-001
30305724.000	-9.102768e-001	-4.080249e-001
30311718.000	-9.102794e-001	-4.079888e-001
30317712.000	-9.103123e-001	-4.078643e-001
30323706.000	-9.103812e-001	-4.079183e-001
30329700.000	-9.103366e-001	-4.077455e-001
30335694.000	-9.104581e-001	-4.076953e-001
30341688.000	-9.104178e-001	-4.075432e-001
30347682.000	-9.104828e-001	-4.075674e-001
30353676.000	-9.105204e-001	-4.074379e-001
30359670.000	-9.106346e-001	-4.073864e-001
30365664.000	-9.105556e-001	-4.072230e-001
30371658.000	-9.107220e-001	-4.071329e-001
30377652.000	-9.106907e-001	-4.071027e-001
30383646.000	-9.106380e-001	-4.071238e-001
30389640.000	-9.108095e-001	-4.070410e-001
30395634.000	-9.107383e-001	-4.070117e-001
30401628.000	-9.108401e-001	-4.069396e-001
30407622.000	-9.109275e-001	-4.068563e-001
30413616.000	-9.108111e-001	-4.066929e-001
30419610.000	-9.108936e-001	-4.067266e-001
30425604.000	-9.109412e-001	-4.065070e-001
30431598.000	-9.109689e-001	-4.066370e-001
30437592.000	-9.110493e-001	-4.065220e-001
30443586.000	-9.111131e-001	-4.064514e-001
30449580.000	-9.110129e-001	-4.063159e-001
30455574.000	-9.111048e-001	-4.062965e-001
30461568.000	-9.110579e-001	-4.062835e-001
30467562.000	-9.110686e-001	-4.061730e-001
30473556.000	-9.111913e-001	-4.061219e-001
30479550.000	-9.112236e-001	-4.061058e-001
30485544.000	-9.112971e-001	-4.060744e-001
30491538.000	-9.112608e-001	-4.058031e-001
30497532.000	-9.113821e-001	-4.058721e-001
30503526.000	-9.114007e-001	-4.057513e-001
30509520.000	-9.113511e-001	-4.055657e-001
30515514.000	-9.113994e-001	-4.054120e-001
30521508.000	-9.113707e-001	-4.053650e-001
30527502.000	-9.113807e-001	-4.053910e-001
30533496.000	-9.115706e-001	-4.053379e-001
30539490.000	-9.115207e-001	-4.052084e-001
30545484.000	-9.116285e-001	-4.051127e-001
30551478.000	-9.117159e-001	-4.050127e-001
30557472.000	-9.116039e-001	-4.049726e-001
30563466.000	-9.116500e-001	-4.048117e-001
30569460.000	-9.116393e-001	-4.048318e-001
30575454.000	-9.116993e-001	-4.046322e-001
30581448.000	-9.117623e-001	-4.047679e-001
30587442.000	-9.117786e-001	-4.046063e-001
30593436.000	-9.118069e-001	-4.045192e-001
30599430.000	-9.118568e-001	-4.043801e-001
30605424.000	-9.118819e-001	-4.044529e-001
30611418.000	-9.119976e-001	-4.042976e-001
30617412.000	-9.119704e-001	-4.044106e-001
30623406.000	-9.119706e-001	-4.041538e-001
30629400.000	-9.120954e-001	-4.041208e-001
30635394.000	-9.120366e-001	-4.039854e-001
30641388.000	-9.120871e-001	-4.040183e-001
30647382.000	-9.120983e-001	-4.039314e-001
30653376.000	-9.121950e-001	-4.039122e-001
30659370.000	-9.122682e-001	-4.036911e-001
30665364.000	-9.121876e-001	-4.038234e-001
30671358.000	-9.122398e-001	-4.037246e-001
30677352.000	-9.122887e-001	-4.035522e-001
30683346.000	-9.123067e-001	-4.034792e-001
30689340.000	-9.124281e-001	-4.034378e-001
30695334.000	-9.123200e-001	-4.032036e-001
30701328.000	-9.124023e-001	-4.030748e-001
30707322.000	-9.123694e-001	-4.029948e-001
30713316.000	-9.124043e-001	-4.031171e-001
30719310.000	-9.126300e-001	-4.029619e-001
30725304.000	-9.126898e-001	-4.029656e-001
30731298.000	-9.125715e-001	-4.028476e-001
30737292.000	-9.126268e-001	-4.028767e-001
30743286.000	-9.127382e-001	-4.027233e-001
30749280.000	-9.126058e-001	-4.026535e-001
30755274.000	-9.126187e-001	-4.025512e-001
30761268.000	-9.127216e-001	-4.025239e-001
30767262.000	-9.128155e-001	-4.024558e-001
30773256.000	-9.127567e-001	-4.023325e-001
30779250.000	-9.129260e-001	-4.023549e-001
30785244.000	-9.127604e-001	-4.020771e-001
30791238.000	-9.128652e-001	-4.021359e-001
30797232.000	-9.129212e-001	-4.021141e-001
30803226.000	-9.130043e-001	-4.020208e-001
30809220.000	-9.129697e-001	-4.018936e-001
30815214.000	-9.130564e-001	-4.017876e-001
30821208.000	-9.129497e-001	-4.018281e-001
30827202.000	-9.129780e-001	-4.016899e-001
30833196.000	-9.131520e-001	-4.015970e-001
30839190.000	-9.131866e-001	-4.016239e-001
30845184.000	-9.131775e-001	-4.015554e-001
30851178.000	-9.132795e-001	-4.014526e-001
30857172.000	-9.132598e-001	-4.014086e-001
30863166.000	-9.133736e-001	-4.012616e-001
30869160.000	-9.132980e-001	-4.011766e-001
30875154.000	-9.133772e-001	-4.011783e-001
30881148.000	-9.134000e-001	-4.010370e-001
30887142.000	-9.134486e-001	-4.010246e-001
30893136.000	-9.134666e-001	-4.009550e-001
30899130.000	-9.135554e-001	-4.008410e-001
30905124.000	-9.134479e-001	-4.007390e-001
30911118.000	-9.136293e-001	-4.008517e-001
30917112.000	-9.135952e-001	-4.006745e-001
30923106.000	-9.136073e-001	-4.005551e-001
30929100.000	-9.136539e-001	-4.004428e-001
30935094.000	-9.137211e-001	-4.003608e-001
30941088.000	-9.137016e-001	-4.004081e-001
30947082.000	-9.137107e-001	-4.003378e-001
30953076.000	-9.137498e-001	-4.002192e-001
30959070.000	-9.138936e-001	-4.001354e-001
30965064.000	-9.138696e-001	-4.001645e-001
30971058.000	-9.138521e-001	-3.999798e-001
30977052.000	-9.138961e-001	-3.999415e-001
30983046.000	-9.138983e-001	-3.998527e-001
30989040.000	-9.138121e-001	-3.997281e-001
30995034.000	-9.140139e-001	-3.996321e-001
31001028.000	-9.140453e-001	-3.996857e-001
31007022.000	-9.141050e-001	-3.994544e-001
31013016.000	-9.141062e-001	-3.994750e-001
31019010.000	-9.141644e-001	-3.993503e-001
31025004.000	-9.141378e-001	-3.992771e-001
31030998.000	-9.141387e-001	-3.992708e-001
31036992.000	-9.141869e-001	-3.991292e-001
31042986.000	-9.142683e-001	-3.990302e-001
31048980.000	-9.141678e-001	-3.989286e-001
31054974.000	-9.143160e-001	-3.989853e-001
31060968.000	-9.144238e-001	-3.989092e-001
31066962.000	-9.144125e-001	-3.988255e-001
31072956.000	-9.144288e-001	-3.987388e-001
31078950.000	-9.143751e-001	-3.985799e-001
31084944.000	-9.145223e-001	-3.986771e-001
31090938.000	-9.144691e-001	-3.986304e-001
31096932.000	-9.145334e-001	-3.984286e-001
31102926.000	-9.145181e-001	-3.982706e-001
31108920.000	-9.145217e-001	-3.982998e-001
31114914.000	-9.145785e-001	-3.982296e-001
31120908.000	-9.145788e-001	-3.980859e-001
31126902.000	-9.146676e-001	-3.979238e-001
31132896.000	-9.146660e-001	-3.979011e-001
31138890.000	-9.147842e-001	-3.979784e-001
31144884.000	-9.148269e-001	-3.978568e-001
31150878.000	-9.148603e-001	-3.978840e-001
31156872.000	-9.148042e-001	-3.976456e-001
31162866.000	-9.149786e-001	-3.977410e-001
31168860.000	-9.148847e-001	-3.976112e-001
31174854.000	-9.149833e-001	-3.974241e-001
31180848.000	-9.149766e-001	-3.974314e-001
31186842.000	-9.149100e-001	-3.973868e-001
31192836.000	-9.150645e-001	-3.973465e-001
31198830.000	-9.150663e-001	-3.972742e-001
31204824.000	-9.150547e-001	-3.971055e-001
31210818.000	-9.151332e-001	-3.970781e-001
31216812.000	-9.150510e-001	-3.970108e-001
31222806.000	-9.152491e-001	-3.971734e-001
31228800.000	-9.152282e-001	-3.969450e-001
31234794.000	-9.152465e-001	-3.968439e-001
31240788.000	-9.152337e-001	-3.968521e-001
31246782.000	-9.153071e-001	-3.969395e-001
31252776.000	-9.153123e-001	-3.965887e-001
31258770.000	-9.154505e-001	-3.964648e-001
31264764.000	-9.154591e-001	-3.965750e-001
31270758.000	-9.154643e-001	-3.964867e-001
31276752.000	-9.154293e-001	-3.963093e-001
31282746.000	-9.154047e-001	-3.962649e-001
31288740.000	-9.155059e-001	-3.962370e-001
31294734.000	-9.155423e-001	-3.960790e-001
31300728.000	-9.156182e-001	-3.960709e-001
31306722.000	-9.157074e-001	-3.959777e-001
31312716.000	-9.156745e-001	-3.959301e-001
31318710.000	-9.157052e-001	-3.957095e-001
31324704.000	-9.156201e-001	-3.957559e-001
31330698.000	-9.157027e-001	-3.956936e-001
31336692.000	-9.157775e-001	-3.956383e-001
31342686.000	-9.157110e-001	-3.955660e-001
31348680.000	-9.159080e-001	-3.954068e-001
31354674.000	-9.157576e-001	-3.954000e-001
31360668.000	-9.159389e-001	-3.952608e-001
31366662.000	-9.159355e-001	-3.952346e-001
31372656.000	-9.159288e-001	-3.950911e-001
31378650.000	-9.159181e-001	-3.950401e-001
31384644.000	-9.159023e-001	-3.950227e-001
31390638.000	-9.160718e-001	-3.950345e-001
31396632.000	-9.160860e-001	-3.948040e-001
31402626.000	-9.160499e-001	-3.946736e-001
31408620.000	-9.160799e-001	-3.946684e-001
31414614.000	-9.161576e-001	-3.947521e-001
31420608.000	-9.162417e-001	-3.946973e-001
31426602.000	-9.162230e-001	-3.945806e-001
31432596.000	-9.162504e-001	-3.945179e-001
31438590.000	-9.162363e-001	-3.945141e-001
31444584.000	-9.163553e-001	-3.944569e-001
31450578.000	-9.163333e-001	-3.942884e-001
31456572.000	-9.163614e-001	-3.943281e-001
31462566.000	-9.164010e-001	-3.942826e-001
31468560.000	-9.164433e-001	-3.941537e-001
31474554.000	-9.163810e-001	-3.939632e-001
31480548.000	-9.164909e-001	-3.940379e-001
31486542.000	-9.165605e-001	-3.940243e-001
31492536.000	-9.164930e-001	-3.937865e-001
31498530.000	-9.166029e-001	-3.936925e-001
31504524.000	-9.166009e-001	-3.936377e-001
31510518.000	-9.165811e-001	-3.936210e-001
31516512.000	-9.166027e-001	-3.937265e-001
31522506.000	-9.167369e-001	-3.934773e-001
31528500.000	-9.166650e-001	-3.934455e-001
31534494.000	-9.167459e-001	-3.932658e-001
31540488.000	-9.167185e-001	-3.932372e-001
31546482.000	-9.167685e-001	-3.932172e-001
31552476.000	-9.168962e-001	-3.931390e-001
31558470.000	-9.169260e-001	-3.932110e-001
31564464.000	-9.168980e-001	-3.928942e-001
31570458.000	-9.170457e-001	-3.929627e-001
31576452.000	-9.169862e-001	-3.928963e-001
31582446.000	-9.169730e-001	-3.928044e-001
31588440.000	-9.170090e-001	-3.928146e-001
31594434.000	-9.170488e-001	-3.927392e-001
31600428.000	-9.171001e-001	-3.926308e-001
31606422.000	-9.171803e-001	-3.925314e-001
31612416.000	-9.171708e-001	-3.924346e-001
31618410.000	-9.171146e-001	-3.923916e-001
31624404.000	-9.171490e-001	-3.923571e-001
31630398.000	-9.172616e-001	-3.923509e-001
31636392.000	-9.171810e-001	-3.921128e-001
31642386.000	-9.172044e-001	-3.920400e-001
31648380.000	-9.172716e-001	-3.920544e-001
31654374.000	-9.173331e-001	-3.918410e-001
31660368.000	-9.173260e-001	-3.919088e-001
31666362.000	-9.174172e-001	-3.918802e-001
31672356.000	-9.174565e-001	-3.917636e-001
31678350.000	-9.175611e-001	-3.917425e-001
31684344.000	-9.175293e-001	-3.917260e-001
31690338.000	-9.175463e-001	-3.916344e-001
31696332.000	-9.174787e-001	-3.915214e-001
31702326.000	-9.174891e-001	-3.915602e-001
31708320.000	-9.175395e-001	-3.913001e-001
31714314.000	-9.176152e-001	-3.913032e-001
31720308.000	-9.176356e-001	-3.913113e-001
31726302.000	-9.177345e-001	-3.912706e-001
31732296.000	-9.177661e-001	-3.910975e-001
31738290.000	-9.176992e-001	-3.910048e-001
31744284.000	-9.177883e-001	-3.910129e-001
31750278.000	-9.177836e-001	-3.908038e-001
31756272.000	-9.178088e-001	-3.908882e-001
31762266.000	-9.178397e-001	-3.908554e-001
31768260.000	-9.179460e-001	-3.907578e-001
31774254.000	-9.180000e-001	-3.906334e-001
31780248.000	-9.179002e-001	-3.906446e-001
31786242.000	-9.179838e-001	-3.904174e-001
31792236.000	-9.180647e-001	-3.903746e-001
31798230.000	-9.180419e-001	-3.903144e-001
31804224.000	-9.180276e-001	-3.902130e-001
31810218.000	-9.180405e-001	-3.902705e-001
31816212.000	-9.180585e-001	-3.901281e-001
31822206.000	-9.181332e-001	-3.900024e-001
31828200.000	-9.182298e-001	-3.899947e-001
31834194.000	-9.181796e-001	-3.899838e-001
31840188.000	-9.182770e-001	-3.897211e-001
31846182.000	-9.182258e-001	-3.897104e-001
31852176.000	-9.182924e-001	-3.895848e-001
31858170.000	-9.183925e-001	-3.897405e-001
31864164.000	-9.183746e-001	-3.895506e-001
31870158.000	-9.185049e-001	-3.895556e-001
31876152.000	-9.185604e-001	-3.893741e-001
31882146.000	-9.185252e-001	-3.892404e-001
31888140.000	-9.185039e-001	-3.893561e-001
31894134.000	-9.185178e-001	-3.892972e-001
31900128.000	-9.186091e-001	-3.892530e-001
31906122.000	-9.186141e-001	-3.890016e-001
31912116.000	-9.186730e-001	-3.890031e-001
31918110.000	-9.186809e-001	-3.889315e-001
31924104.000	-9.187610e-001	-3.889488e-001
31930098.000	-9.186812e-001	-3.889069e-001
31936092.000	-9.187254e-001	-3.887831e-001
31942086.000	-9.187626e-001	-3.887865e-001
31948080.000	-9.188597e-001	-3.886688e-001
31954074.000	-9.187833e-001	-3.884802e-001
31960068.000	-9.189236e-001	-3.885394e-001
31966062.000	-9.188184e-001	-3.883930e-001
31972056.000	-9.188451e-001	-3.882914e-001
31978050.000	-9.188634e-001	-3.882246e-001
31984044.000	-9.189619e-001	-3.882414e-001
31990038.000	-9.189677e-001	-3.881818e-001
31996032.000	-9.190146e-001	-3.880928e-001
32002026.000	-9.190178e-001	-3.879540e-001
32008020.000	-9.190107e-001	-3.879062e-001
32014014.000	-9.190820e-001	-3.879552e-001
32020008.000	-9.191815e-001	-3.878307e-001
32026002.000	-9.192059e-001	-3.876797e-001
32031996.000	-9.192724e-001	-3.877897e-001
32037990.000	-9.192574e-001	-3.876910e-001
32043984.000	-9.192683e-001	-3.875433e-001
32049978.000	-9.192636e-001	-3.874187e-001
32055972.000	-9.192238e-001	-3.874118e-001
32061966.000	-9.193192e-001	-3.873315e-001
32067960.000	-9.192918e-001	-3.871713e-001
32073954.000	-9.193781e-001	-3.872066e-001
32079948.000	-9.194315e-001	-3.871707e-001
32085942.000	-9.194677e-001	-3.870140e-001
32091936.000	-9.195259e-001	-3.869409e-001
32097930.000	-9.195235e-001	-3.868428e-001
32103924.000	-9.195127e-001	-3.869090e-001
32109918.000	-9.194635e-001	-3.867212e-001
32115912.000	-9.195944e-001	-3.867264e-001
32121906.000	-9.196122e-001	-3.865692e-001
32127900.000	-9.196450e-001	-3.866658e-001
32133894.000	-9.196880e-001	-3.865625e-001
32139888.000	-9.196649e-001	-3.865196e-001
32145882.000	-9.197592e-001	-3.864045e-001
32151876.000	-9.197117e-001	-3.863006e-001
32157870.000	-9.197102e-001	-3.862162e-001
32163864.000	-9.196088e-001	-3.861397e-001
32169858.000	-9.198432e-001	-3.861869e-001
32175852.000	-9.199175e-001	-3.858995e-001
32181846.000	-9.198585e-001	-3.859798e-001
32187840.000	-9.198753e-001	-3.859368e-001
32193834.000	-9.200060e-001	-3.858710e-001
32199828.000	-9.199193e-001	-3.858015e-001
32205822.000	-9.199739e-001	-3.856901e-001
32211816.000	-9.199928e-001	-3.855913e-001
32217810.000	-9.200391e-001	-3.856102e-001
32223804.000	-9.200174e-001	-3.855222e-001
32229798.000	-9.201356e-001	-3.854964e-001
32235792.000	-9.201306e-001	-3.854620e-001
32241786.000	-9.201690e-001	-3.852877e-001
32247780.000	-9.202265e-001	-3.852447e-001
32253774.000	-9.203198e-001	-3.852893e-001
32259768.000	-9.202061e-001	-3.850901e-001
32265762.000	-9.202481e-001	-3.851403e-001
32271756.000	-9.202755e-001	-3.850557e-001
32277750.000	-9.202626e-001	-3.848754e-001
32283744.000	-9.203897e-001	-3.849445e-001
32289738.000	-9.205034e-001	-3.849360e-001
32295732.000	-9.204600e-001	-3.847532e-001
32301726.000	-9.203858e-001	-3.845720e-001
32307720.000	-9.205011e-001	-3.845594e-001
32313714.000	-9.205256e-001	-3.845530e-001
32319708.000	-9.204646e-001	-3.846192e-001
32325702.000	-9.204415e-001	-3.844327e-001
32331696.000	-9.205497e-001	-3.843712e-001
32337690.000	-9.205512e-001	-3.842752e-001
32343684.000	-9.206677e-001	-3.842361e-001
32349678.000	-9.206122e-001	-3.841811e-001
32355672.000	-9.205593e-001	-3.841276e-001
32361666.000	-9.207309e-001	-3.839346e-001
32367660.000	-9.207299e-001	-3.839081e-001
32373654.000	-9.206995e-001	-3.838845e-001
32379648.000	-9.207136e-001	-3.836900e-001
32385642.000	-9.207748e-001	-3.836887e-001
32391636.000	-9.207966e-001	-3.836366e-001
32397630.000	-9.208252e-001	-3.836259e-001
32403624.000	-9.208885e-001	-3.835023e-001
32409618.000	-9.209514e-001	-3.835334e-001
32415612.000	-9.209792e-001	-3.832668e-001
32421606.000	-9.209890e-001	-3.834255e-001
32427600.000	-9.211687e-001	-3.833905e-001
32433594.000	-9.211341e-001	-3.832293e-001
32439588.000	-9.210782e-001	-3.831273e-001
32445582.000	-9.210377e-001	-3.830293e-001
32451576.000	-9.212269e-001	-3.831105e-001
32457570.000	-9.211462e-001	-3.828892e-001
32463564.000	-9.211979e-001	-3.828369e-001
32469558.000	-9.211960e-001	-3.828443e-001
32475552.000	-9.213412e-001	-3.828504e-001
32481546.000	-9.213043e-001	-3.826289e-001
32487540.000	-9.214505e-001	-3.826718e-001
32493534.000	-9.212688e-001	-3.825941e-001
32499528.000	-9.212407e-001	-3.824604e-001
32505522.000	-9.213646e-001	-3.824034e-001
32511516.000	-9.214481e-001	-3.823012e-001
32517510.000	-9.214687e-001	-3.822530e-001
32523504.000	-9.214096e-001	-3.822445e-001
32529498.000	-9.215397e-001	-3.822822e-001
32535492.000	-9.215081e-001	-3.821235e-001
32541486.000	-9.215243e-001	-3.819871e-001
32547480.000	-9.215871e-001	-3.818513e-001
32553474.000	-9.216580e-001	-3.818199e-001
32559468.000	-9.216243e-001	-3.818121e-001
32565462.000	-9.217162e-001	-3.817955e-001
32571456.000	-9.217083e-001	-3.816192e-001
32577450.000	-9.217353e-001	-3.816219e-001
32583444.000	-9.216626e-001	-3.814807e-001
32589438.000	-9.216977e-001	-3.814770e-001
32595432.000	-9.217722e-001	-3.814547e-001
32601426.000	-9.219116e-001	-3.813139e-001
32607420.000	-9.218441e-001	-3.812980e-001
32613414.000	-9.218380e-001	-3.812234e-001
32619408.000	-9.219826e-001	-3.812429e-001
32625402.000	-9.218481e-001	-3.810512e-001
32631396.000	-9.218901e-001	-3.810923e-001
32637390.000	-9.219506e-001	-3.810014e-001
32643384.000	-9.220351e-001	-3.809192e-001
32649378.000	-9.220128e-001	-3.809913e-001
32655372.000	-9.220019e-001	-3.808756e-001
32661366.000	-9.219463e-001	-3.807359e-001
32667360.000	-9.220647e-001	-3.805859e-001
32673354.000	-9.220817e-001	-3.805648e-001
32679348.000	-9.221396e-001	-3.804477e-001
32685342.000	-9.221034e-001	-3.802804e-001
32691336.000	-9.221900e-001	-3.804917e-001
32697330.000	-9.222296e-001	-3.802686e-001
32703324.000	-9.223025e-001	-3.802046e-001
32709318.000	-9.222660e-001	-3.801273e-001
32715312.000	-9.223129e-001	-3.800493e-001
32721306.000	-9.223027e-001	-3.800413e-001
32727300.000	-9.223888e-001	-3.799665e-001
32733294.000	-9.224711e-001	-3.798870e-001
32739288.000	-9.223379e-001	-3.799125e-001
32745282.000	-9.224420e-001	-3.797593e-001
32751276.000	-9.225365e-001	-3.798053e-001
32757270.000	-9.225851e-001	-3.796954e-001
32763264.000	-9.225797e-001	-3.797368e-001
32769258.000	-9.225782e-001	-3.796128e-001
32775252.000	-9.226155e-001	-3.794845e-001
32781246.000	-9.226947e-001	-3.793645e-001
32787240.000	-9.226645e-001	-3.793392e-001
32793234.000	-9.226776e-001	-3.793004e-001
32799228.000	-9.227423e-001	-3.791613e-001
32805222.000	-9.227224e-001	-3.791520e-001
32811216.000	-9.227453e-001	-3.789942e-001
32817210.000	-9.227889e-001	-3.790082e-001
32823204.000	-9.228624e-001	-3.790153e-001
32829198.000	-9.229125e-001	-3.789032e-001
32835192.000	-9.229442e-001	-3.789121e-001
32841186.000	-9.230276e-001	-3.787155e-001
32847180.000	-9.229304e-001	-3.786938e-001
32853174.000	-9.229337e-001	-3.787090e-001
32859168.000	-9.230598e-001	-3.785322e-001
32865162.000	-9.230042e-001	-3.784652e-001
32871156.000	-9.230162e-001	-3.784511e-001
32877150.000	-9.230991e-001	-3.783152e-001
32883144.000	-9.231110e-001	-3.783570e-001
32889138.000	-9.230315e-001	-3.781950e-001
32895132.000	-9.232183e-001	-3.781614e-001
32901126.000	-9.232019e-001	-3.781463e-001
32907120.000	-9.231767e-001	-3.779316e-001
32913114.000	-9.232160e-001	-3.779873e-001
32919108.000	-9.231716e-001	-3.778327e-001
32925102.000	-9.233339e-001	-3.778338e-001
32931096.000	-9.232856e-001	-3.777773e-001
32937090.000	-9.234092e-001	-3.778087e-001
32943084.000	-9.233251e-001	-3.776465e-001
32949078.000	-9.234328e-001	-3.775155e-001
32955072.000	-9.234115e-001	-3.775304e-001
32961066.000	-9.234101e-001	-3.773427e-001
32967060.000	-9.233913e-001	-3.773089e-001
32973054.000	-9.234655e-001	-3.772057e-001
32979048.000	-9.234538e-001	-3.772213e-001
32985042.000	-9.234680e-001	-3.772160e-001
32991036.000	-9.235654e-001	-3.771955e-001
32997030.000	-9.235722e-001	-3.770368e-001
33003024.000	-9.235878e-001	-3.770088e-001
33009018.000	-9.236082e-001	-3.768538e-001
33015012.000	-9.235707e-001	-3.768186e-001
33021006.000	-9.235971e-001	-3.766400e-001
33027000.000	-9.237651e-001	-3.766397e-001
33032994.000	-9.236953e-001	-3.766642e-001
33038988.000	-9.237269e-001	-3.765197e-001
33044982.000	-9.237967e-001	-3.765286e-001
33050976.000	-9.238583e-001	-3.763994e-001
33056970.000	-9.237924e-001	-3.762224e-001
33062964.000	-9.239222e-001	-3.762649e-001
33068958.000	-9.239258e-001	-3.763320e-001
33074952.000	-9.239801e-001	-3.761600e-001
33080946.000	-9.240064e-001	-3.760845e-001
33086940.000	-9.239490e-001	-3.760785e-001
33092934.000	-9.240056e-001	-3.759032e-001
33098928.000	-9.240072e-001	-3.758837e-001
33104922.000	-9.239912e-001	-3.757675e-001
33110916.000	-9.241068e-001	-3.757791e-001
33116910.000	-9.241147e-001	-3.757101e-001
33122904.000	-9.241442e-001	-3.756805e-001
33128898.000	-9.240586e-001	-3.756382e-001
33134892.000	-9.241906e-001	-3.756376e-001
33140886.000	-9.242572e-001	-3.753689e-001
33146880.000	-9.242835e-001	-3.753669e-001
33152874.000	-9.243102e-001	-3.752893e-001
33158868.000	-9.242168e-001	-3.753107e-001
33164862.000	-9.242613e-001	-3.751983e-001
33170856.000	-9.243399e-001	-3.751201e-001
33176850.000	-9.242784e-001	-3.751368e-001
33182844.000	-9.244148e-001	-3.749972e-001
33188838.000	-9.244818e-001	-3.749406e-001
33194832.000	-9.243467e-001	-3.748991e-001
33200826.000	-9.244817e-001	-3.747874e-001
33206820.000	-9.245385e-001	-3.747213e-001
33212814.000	-9.244766e-001	-3.746933e-001
33218808.000	-9.245817e-001	-3.745152e-001
33224802.000	-9.245797e-001	-3.746024e-001
33230796.000	-9.245546e-001	-3.744782e-001
33236790.000	-9.245957e-001	-3.745229e-001
33242784.000	-9.246234e-001	-3.742870e-001
33248778.000	-9.245634e-001	-3.743042e-001
33254772.000	-9.247593e-001	-3.743822e-001
33260766.000	-9.248339e-001	-3.742917e-001
33266760.000	-9.247713e-001	-3.740573e-001
33272754.000	-9.247018e-001	-3.740397e-001
33278748.000	-9.247550e-001	-3.739105e-001
33284742.000	-9.248290e-001	-3.738892e-001
33290736.000	-9.248233e-001	-3.738504e-001
33296730.000	-9.248891e-001	-3.738789e-001
33302724.000	-9.248609e-001	-3.737666e-001
33308718.000	-9.249642e-001	-3.735746e-001
33314712.000	-9.249276e-001	-3.736985e-001
33320706.000	-9.250620e-001	-3.735072e-001
33326700.000	-9.250267e-001	-3.734728e-001
33332694.000	-9.250800e-001	-3.734455e-001
33338688.000	-9.250320e-001	-3.733933e-001
33344682.000	-9.250417e-001	-3.733542e-001
33350676.000	-9.251778e-001	-3.732227e-001
33356670.000	-9.250068e-001	-3.732035e-001
33362664.000	-9.251881e-001	-3.730899e-001
33368658.000	-9.251341e-001	-3.729527e-001
33374652.000	-9.252091e-001	-3.730644e-001
33380646.000	-9.251864e-001	-3.729375e-001
33386640.000	-9.251984e-001	-3.729129e-001
33392634.000	-9.253239e-001	-3.727854e-001
33398628.000	-9.253721e-001	-3.726955e-001
33404622.000	-9.253168e-001	-3.725977e-001
33410616.000	-9.254348e-001	-3.727712e-001
33416610.000	-9.254885e-001	-3.726407e-001
33422604.000	-9.253876e-001	-3.725245e-001
33428598.000	-9.254385e-001	-3.724363e-001
33434592.000	-9.254266e-001	-3.723075e-001
33440586.000	-9.254154e-001	-3.723049e-001
33446580.000	-9.255481e-001	-3.721905e-001
33452574.000	-9.255921e-001	-3.721476e-001
33458568.000	-9.254286e-001	-3.721910e-001
33464562.000	-9.256062e-001	-3.720274e-001
33470556.000	-9.256114e-001	-3.719828e-001
33476550.000	-9.256564e-001	-3.720261e-001
33482544.000	-9.257203e-001	-3.719052e-001
33488538.000	-9.256507e-001	-3.719290e-001
33494532.000	-9.257782e-001	-3.718045e-001
33500526.000	-9.257952e-001	-3.716709e-001
33506520.000	-9.256402e-001	-3.717393e-001
33512514.000	-9.258313e-001	-3.716290e-001
33518508.000	-9.258636e-001	-3.714108e-001
33524502.000	-9.258738e-001	-3.714715e-001
33530496.000	-9.258309e-001	-3.713823e-001
33536490.000	-9.258555e-001	-3.712875e-001
33542484.000	-9.259176e-001	-3.712518e-001
33548478.000	-9.259376e-001	-3.712134e-001
33554472.000	-9.259686e-001	-3.711900e-001
33560466.000	-9.259856e-001	-3.710088e-001
33566460.000	-9.260097e-001	-3.710085e-001
33572454.000	-9.259984e-001	-3.709143e-001
33578448.000	-9.260263e-001	-3.708733e-001
33584442.000	-9.260561e-001	-3.708485e-001
33590436.000	-9.260044e-001	-3.707005e-001
33596430.000	-9.260419e-001	-3.706661e-001
33602424.000	-9.262988e-001	-3.706720e-001
33608418.000	-9.261881e-001	-3.705812e-001
33614412.000	-9.261671e-001	-3.705233e-001
33620406.000	-9.262159e-001	-3.704157e-001
33626400.000	-9.263280e-001	-3.704641e-001
33632394.000	-9.262783e-001	-3.703444e-001
33638388.000	-9.263090e-001	-3.702924e-001
33644382.000	-9.263292e-001	-3.702892e-001
33650376.000	-9.263538e-001	-3.701344e-001
33656370.000	-9.263917e-001	-3.700796e-001
33662364.000	-9.263953e-001	-3.701041e-001
33668358.000	-9.263691e-001	-3.699799e-001
33674352.000	-9.265638e-001	-3.698797e-001
33680346.000	-9.264934e-001	-3.699183e-001
33686340.000	-9.265594e-001	-3.697814e-001
33692334.000	-9.266151e-001	-3.697651e-001
33698328.000	-9.265693e-001	-3.696900e-001
33704322.000	-9.265578e-001	-3.694972e-001
33710316.000	-9.266123e-001	-3.694469e-001
33716310.000	-9.266194e-001	-3.694359e-001
33722304.000	-9.265920e-001	-3.694011e-001
33728298.000	-9.266727e-001	-3.693323e-001
33734292.000	-9.267336e-001	-3.692928e-001
33740286.000	-9.267265e-001	-3.692610e-001
33746280.000	-9.267534e-001	-3.691557e-001
33752274.000	-9.267478e-001	-3.690465e-001
33758268.000	-9.268196e-001	-3.690674e-001
33764262.000	-9.268533e-001	-3.688778e-001
33770256.000	-9.268041e-001	-3.689000e-001
33776250.000	-9.268211e-001	-3.688668e-001
33782244.000	-9.268588e-001	-3.686839e-001
33788238.000	-9.269545e-001	-3.688309e-001
33794232.000	-9.270074e-001	-3.686899e-001
33800226.000	-9.269505e-001	-3.685436e-001
33806220.000	-9.270273e-001	-3.686552e-001
33812214.000	-9.271193e-001	-3.685315e-001
33818208.000	-9.270744e-001	-3.684806e-001
33824202.000	-9.271975e-001	-3.683659e-001
33830196.000	-9.271001e-001	-3.684265e-001
33836190.000	-9.271220e-001	-3.682385e-001
33842184.000	-9.271827e-001	-3.682036e-001
33848178.000	-9.271659e-001	-3.679963e-001
33854172.000	-9.271356e-001	-3.679783e-001
33860166.000	-9.271653e-001	-3.679308e-001
33866160.000	-9.272736e-001	-3.678827e-001
33872154.000	-9.272312e-001	-3.678687e-001
33878148.000	-9.273280e-001	-3.678683e-001
33884142.000	-9.273233e-001	-3.676534e-001
33890136.000	-9.273651e-001	-3.676710e-001
33896130.000	-9.274968e-001	-3.677116e-001
33902124.000	-9.273772e-001	-3.675895e-001
33908118.000	-9.275079e-001	-3.675035e-001
33914112.000	-9.274145e-001	-3.675262e-001
33920106.000	-9.273711e-001	-3.673161e-001
33926100.000	-9.275229e-001	-3.673326e-001
33932094.000	-9.275080e-001	-3.672687e-001
33938088.000	-9.275167e-001	-3.671210e-001
33944082.000	-9.275765e-001	-3.672146e-001
33950076.000	-9.275626e-001	-3.670993e-001
33956070.000	-9.275479e-001	-3.669902e-001
33962064.000	-9.276586e-001	-3.670949e-001
33968058.000	-9.277258e-001	-3.669293e-001
33974052.000	-9.277451e-001	-3.667471e-001
33980046.000	-9.276711e-001	-3.668031e-001
33986040.000	-9.276863e-001	-3.666414e-001
33992034.000	-9.277173e-001	-3.666790e-001
33998028.000	-9.278493e-001	-3.666133e-001
34004022.000	-9.278867e-001	-3.665067e-001
34010016.000	-9.277019e-001	-3.663764e-001
34016010.000	-9.278415e-001	-3.662917e-001
34022004.000	-9.279796e-001	-3.665140e-001
34027998.000	-9.278248e-001	-3.662392e-001
34033992.000	-9.278804e-001	-3.662073e-001
34039986.000	-9.279752e-001	-3.660764e-001
34045980.000	-9.279013e-001	-3.660492e-001
34051974.000	-9.279714e-001	-3.659892e-001
34057968.000	-9.279920e-001	-3.659382e-001
34063962.000	-9.279710e-001	-3.658386e-001
34069956.000	-9.281311e-001	-3.658159e-001
34075950.000	-9.281447e-001	-3.658033e-001
34081944.000	-9.280557e-001	-3.657468e-001
34087938.000	-9.282154e-001	-3.656885e-001
34093932.000	-9.282079e-001	-3.656269e-001
34099926.000	-9.282231e-001	-3.657361e-001
34105920.000	-9.282121e-001	-3.655636e-001
34111914.000	-9.282229e-001	-3.654528e-001
34117908.000	-9.282003e-001	-3.653737e-001
34123902.000	-9.283252e-001	-3.652998e-001
34129896.000	-9.282369e-001	-3.651656e-001
34135890.000	-9.283651e-001	-3.651777e-001
34141884.000	-9.283236e-001	-3.652355e-001
34147878.000	-9.284713e-001	-3.650929e-001
34153872.000	-9.283216e-001	-3.649509e-001
34159866.000	-9.284665e-001	-3.649741e-001
34165860.000	-9.284990e-001	-3.648206e-001
34171854.000	-9.284496e-001	-3.647790e-001
34177848.000	-9.284021e-001	-3.646952e-001
34183842.000	-9.284549e-001	-3.646930e-001
34189836.000	-9.285624e-001	-3.646507e-001
34195830.000	-9.285978e-001	-3.645374e-001
34201824.000	-9.284853e-001	-3.644702e-001
34207818.000	-9.286399e-001	-3.643248e-001
34213812.000	-9.285499e-001	-3.642899e-001
34219806.000	-9.286092e-001	-3.642578e-001
34225800.000	-9.286847e-001	-3.641991e-001
34231794.000	-9.287773e-001	-3.641929e-001
34237788.000	-9.287388e-001	-3.640284e-001
34243782.000	-9.286751e-001	-3.639783e-001
34249776.000	-9.287001e-001	-3.638733e-001
34255770.000	-9.287890e-001	-3.638256e-001
34261764.000	-9.288512e-001	-3.637738e-001
34267758.000	-9.288726e-001	-3.637342e-001
34273752.000	-9.289331e-001	-3.635651e-001
34279746.000	-9.289715e-001	-3.637195e-001
34285740.000	-9.289764e-001	-3.635770e-001
34291734.000	-9.289595e-001	-3.635059e-001
34297728.000	-9.289462e-001	-3.634463e-001
34303722.000	-9.289555e-001	-3.633016e-001
34309716.000	-9.289544e-001	-3.633845e-001
34315710.000	-9.289669e-001	-3.632728e-001
34321704.000	-9.289932e-001	-3.632561e-001
34327698.000	-9.290157e-001	-3.631381e-001
34333692.000	-9.290336e-001	-3.630490e-001
34339686.000	-9.290616e-001	-3.629859e-001
34345680.000	-9.289911e-001	-3.629487e-001
34351674.000	-9.291158e-001	-3.627948e-001
34357668.000	-9.292146e-001	-3.628535e-001
34363662.000	-9.291250e-001	-3.628445e-001
34369656.000	-9.292589e-001	-3.627288e-001
34375650.000	-9.291736e-001	-3.627461e-001
34381644.000	-9.292138e-001	-3.626880e-001
34387638.000	-9.293310e-001	-3.626331e-001
34393632.000	-9.293199e-001	-3.625179e-001
34399626.000	-9.292828e-001	-3.623978e-001
34405620.000	-9.294305e-001	-3.623181e-001
34411614.000	-9.294289e-001	-3.622862e-001
34417608.000	-9.294260e-001	-3.622980e-001
34423602.000	-9.293248e-001	-3.622357e-001
34429596.000	-9.295051e-001	-3.621693e-001
34435590.000	-9.295434e-001	-3.621663e-001
34441584.000	-9.294392e-001	-3.620917e-001
34447578.000	-9.295056e-001	-3.619585e-001
34453572.000	-9.294888e-001	-3.619313e-001
34459566.000	-9.296353e-001	-3.617852e-001
34465560.000	-9.295763e-001	-3.618131e-001
34471554.000	-9.297677e-001	-3.616722e-001
34477548.000	-9.296162e-001	-3.615347e-001
34483542.000	-9.296465e-001	-3.616030e-001
34489536.000	-9.297399e-001	-3.615619e-001
34495530.000	-9.296989e-001	-3.614937e-001
34501524.000	-9.297743e-001	-3.614149e-001
34507518.000	-9.297309e-001	-3.614023e-001
34513512.000	-9.298323e-001	-3.612970e-001
34519506.000	-9.298152e-001	-3.613201e-001
34525500.000	-9.298676e-001	-3.611525e-001
34531494.000	-9.298880e-001	-3.612500e-001
34537488.000	-9.298709e-001	-3.610797e-001
34543482.000	-9.299685e-001	-3.610225e-001
34549476.000	-9.300035e-001	-3.609998e-001
34555470.000	-9.300453e-001	-3.608868e-001
34561464.000	-9.300401e-001	-3.608445e-001
34567458.000	-9.299936e-001	-3.608578e-001
34573452.000	-9.299718e-001	-3.607160e-001
34579446.000	-9.300133e-001	-3.607305e-001
34585440.000	-9.300704e-001	-3.606883e-001
34591434.000	-9.301044e-001	-3.607313e-001
34597428.000	-9.301350e-001	-3.606855e-001
34603422.000	-9.300982e-001	-3.605505e-001
34609416.000	-9.301139e-001	-3.603712e-001
34615410.000	-9.302834e-001	-3.603604e-001
34621404.000	-9.301966e-001	-3.602745e-001
34627398.000	-9.302163e-001	-3.601600e-001
34633392.000	-9.302065e-001	-3.601969e-001
34639386.000	-9.302016e-001	-3.601296e-001
34645380.000	-9.303108e-001	-3.600200e-001
34651374.000	-9.303971e-001	-3.599620e-001
34657368.000	-9.303590e-001	-3.599433e-001
34663362.000	-9.303301e-001	-3.598643e-001
34669356.000	-9.304339e-001	-3.598298e-001
34675350.000	-9.304383e-001	-3.597488e-001
34681344.000	-9.305119e-001	-3.597272e-001
34687338.000	-9.304979e-001	-3.596576e-001
34693332.000	-9.304663e-001	-3.596303e-001
34699326.000	-9.305436e-001	-3.594830e-001
34705320.000	-9.305364e-001	-3.595984e-001
34711314.000	-9.305706e-001	-3.594860e-001
34717308.000	-9.306060e-001	-3.592760e-001
34723302.000	-9.306534e-001	-3.593597e-001
34729296.000	-9.306559e-001	-3.593537e-001
34735290.000	-9.305746e-001	-3.591538e-001
34741284.000	-9.306620e-001	-3.590360e-001
34747278.000	-9.306484e-001	-3.590092e-001
34753272.000	-9.306283e-001	-3.590062e-001
34759266.000	-9.307114e-001	-3.589100e-001
34765260.000	-9.306289e-001	-3.589522e-001
34771254.000	-9.308020e-001	-3.587294e-001
34777248.000	-9.309276e-001	-3.587415e-001
34783242.000	-9.308116e-001	-3.587415e-001
34789236.000	-9.307916e-001	-3.586799e-001
34795230.000	-9.308958e-001	-3.585466e-001
34801224.000	-9.308587e-001	-3.585950e-001
34807218.000	-9.308594e-001	-3.583956e-001
34813212.000	-9.309367e-001	-3.584764e-001
34819206.000	-9.309605e-001	-3.584960e-001
34825200.000	-9.310201e-001	-3.582340e-001
34831194.000	-9.310430e-001	-3.582781e-001
34837188.000	-9.309793e-001	-3.580764e-001
34843182.000	-9.310544e-001	-3.581586e-001
34849176.000	-9.310763e-001	-3.581617e-001
34855170.000	-9.310741e-001	-3.579837e-001
34861164.000	-9.311033e-001	-3.579352e-001
34867158.000	-9.310664e-001	-3.578681e-001
34873152.000	-9.311519e-001	-3.578320e-001
34879146.000	-9.312211e-001	-3.578195e-001
34885140.000	-9.310893e-001	-3.578175e-001
34891134.000	-9.312268e-001	-3.576918e-001
34897128.000	-9.312337e-001	-3.577092e-001
34903122.000	-9.312253e-001	-3.576183e-001
34909116.000	-9.312958e-001	-3.575646e-001
34915110.000	-9.313850e-001	-3.574327e-001
34921104.000	-9.314335e-001	-3.574250e-001
34927098.000	-9.314109e-001	-3.572952e-001
34933092.000	-9.315249e-001	-3.573288e-001
34939086.000	-9.314925e-001	-3.572667e-001
34945080.000	-9.315222e-001	-3.571571e-001
34951074.000	-9.314777e-001	-3.570719e-001
34957068.000	-9.314982e-001	-3.571089e-001
34963062.000	-9.315165e-001	-3.569405e-001
34969056.000	-9.314919e-001	-3.568787e-001
34975050.000	-9.315786e-001	-3.567895e-001
34981044.000	-9.315586e-001	-3.568362e-001
34987038.000	-9.316077e-001	-3.567733e-001
34993032.000	-9.316074e-001	-3.567579e-001
34999026.000	-9.316197e-001	-3.566674e-001
35005020.000	-9.316187e-001	-3.565289e-001
35011014.000	-9.317207e-001	-3.565662e-001
35017008.000	-9.317850e-001	-3.565108e-001
35023002.000	-9.316891e-001	-3.563771e-001
35028996.000	-9.318386e-001	-3.563593e-001
35034990.000	-9.317939e-001	-3.563372e-001
35040984.000	-9.318248e-001	-3.560973e-001
35046978.000	-9.318249e-001	-3.561654e-001
35052972.000	-9.317866e-001	-3.561014e-001
35058966.000	-9.318423e-001	-3.559563e-001
35064960.000	-9.318136e-001	-3.559506e-001
35070954.000	-9.317650e-001	-3.558714e-001
35076948.000	-9.319393e-001	-3.557979e-001
35082942.000	-9.318960e-001	-3.558066e-001
35088936.000	-9.319196e-001	-3.557023e-001
35094930.000	-9.319937e-001	-3.556702e-001
35100924.000	-9.319753e-001	-3.557148e-001
35106918.000	-9.320185e-001	-3.556432e-001
35112912.000	-9.320775e-001	-3.555222e-001
35118906.000	-9.320593e-001	-3.553640e-001
35124900.000	-9.321626e-001	-3.553460e-001
35130894.000	-9.320832e-001	-3.553895e-001
35136888.000	-9.320914e-001	-3.551900e-001
35142882.000	-9.321159e-001	-3.551749e-001
35148876.000	-9.321434e-001	-3.550543e-001
35154870.000	-9.321721e-001	-3.550653e-001
35160864.000	-9.322540e-001	-3.549633e-001
35166858.000	-9.322445e-001	-3.549269e-001
35172852.000	-9.322286e-001	-3.550381e-001
35178846.000	-9.321864e-001	-3.548711e-001
35184840.000	-9.322964e-001	-3.547104e-001
35190834.000	-9.322643e-001	-3.548179e-001
35196828.000	-9.323606e-001	-3.546414e-001
35202822.000	-9.323376e-001	-3.546308e-001
35208816.000	-9.324266e-001	-3.545861e-001
35214810.000	-9.323677e-001	-3.545799e-001
35220804.000	-9.325250e-001	-3.544315e-001
35226798.000	-9.324387e-001	-3.544040e-001
35232792.000	-9.324683e-001	-3.542816e-001
35238786.000	-9.325919e-001	-3.542171e-001
35244780.000	-9.326197e-001	-3.542217e-001
35250774.000	-9.325154e-001	-3.541746e-001
35256768.000	-9.325661e-001	-3.541082e-001
35262762.000	-9.326552e-001	-3.541210e-001
35268756.000	-9.326723e-001	-3.541148e-001
35274750.000	-9.326857e-001	-3.539431e-001
35280744.000	-9.327045e-001	-3.539807e-001
35286738.000	-9.326287e-001	-3.539542e-001
35292732.000	-9.328291e-001	-3.539522e-001
35298726.000	-9.328893e-001	-3.538546e-001
35304720.000	-9.328139e-001	-3.539132e-001
35310714.000	-9.328614e-001	-3.537558e-001
35316708.000	-9.328070e-001	-3.536298e-001
35322702.000	-9.328445e-001	-3.535034e-001
35328696.000	-9.327951e-001	-3.534345e-001
35334690.000	-9.328371e-001	-3.534693e-001
35340684.000	-9.329175e-001	-3.533601e-001
35346678.000	-9.328294e-001	-3.532565e-001
35352672.000	-9.329403e-001	-3.532601e-001
35358666.000	-9.329563e-001	-3.531801e-001
35364660.000	-9.329860e-001	-3.531553e-001
35370654.000	-9.330294e-001	-3.530657e-001
35376648.000	-9.330082e-001	-3.530224e-001
35382642.000	-9.330336e-001	-3.530160e-001
35388636.000	-9.332023e-001	-3.529695e-001
35394630.000	-9.331160e-001	-3.529104e-001
35400624.000	-9.331281e-001	-3.528891e-001
35406618.000	-9.331184e-001	-3.527110e-001
35412612.000	-9.331694e-001	-3.527204e-001
35418606.000	-9.331668e-001	-3.527423e-001
35424600.000	-9.331284e-001	-3.526709e-001
35430594.000	-9.332072e-001	-3.524993e-001
35436588.000	-9.332043e-001	-3.524390e-001
35442582.000	-9.332081e-001	-3.523631e-001
35448576.000	-9.331999e-001	-3.523424e-001
35454570.000	-9.333212e-001	-3.522962e-001
35460564.000	-9.333389e-001	-3.520846e-001
35466558.000	-9.333575e-001	-3.521717e-001
35472552.000	-9.334436e-001	-3.520813e-001
35478546.000	-9.333224e-001	-3.520485e-001
35484540.000	-9.334477e-001	-3.521040e-001
35490534.000	-9.333453e-001	-3.519608e-001
35496528.000	-9.333489e-001	-3.518041e-001
35502522.000	-9.334520e-001	-3.517565e-001
35508516.000	-9.334949e-001	-3.518309e-001
35514510.000	-9.334242e-001	-3.516577e-001
35520504.000	-9.335134e-001	-3.518448e-001
35526498.000	-9.334380e-001	-3.516196e-001
35532492.000	-9.335904e-001	-3.516225e-001
35538486.000	-9.335721e-001	-3.514898e-001
35544480.000	-9.335324e-001	-3.513685e-001
35550474.000	-9.336597e-001	-3.513352e-001
35556468.000	-9.335828e-001	-3.512058e-001
35562462.000	-9.336000e-001	-3.512141e-001
35568456.000	-9.336676e-001	-3.511312e-001
35574450.000	-9.337241e-001	-3.511516e-001
35580444.000	-9.336257e-001	-3.510739e-001
35586438.000	-9.337884e-001	-3.510192e-001
35592432.000	-9.337709e-001	-3.510575e-001
35598426.000	-9.338184e-001	-3.508985e-001
35604420.000	-9.337781e-001	-3.508032e-001
35610414.000	-9.338621e-001	-3.508494e-001
35616408.000	-9.339900e-001	-3.507841e-001
35622402.000	-9.338803e-001	-3.508078e-001
35628396.000	-9.339042e-001	-3.507008e-001
35634390.000	-9.338844e-001	-3.505854e-001
35640384.000	-9.339535e-001	-3.504634e-001
35646378.000	-9.340744e-001	-3.504867e-001
35652372.000	-9.339493e-001	-3.503806e-001
35658366.000	-9.338906e-001	-3.503029e-001
35664360.000	-9.341315e-001	-3.504374e-001
35670354.000	-9.340879e-001	-3.501458e-001
35676348.000	-9.340415e-001	-3.501827e-001
35682342.000	-9.341172e-001	-3.502358e-001
35688336.000	-9.341003e-001	-3.501779e-001
35694330.000	-9.341802e-001	-3.500165e-001
35700324.000	-9.342349e-001	-3.500212e-001
35706318.000	-9.343072e-001	-3.499289e-001
35712312.000	-9.341972e-001	-3.498754e-001
35718306.000	-9.342498e-001	-3.498448e-001
35724300.000	-9.342902e-001	-3.496825e-001
35730294.000	-9.343092e-001	-3.496726e-001
35736288.000	-9.343575e-001	-3.497064e-001
35742282.000	-9.343320e-001	-3.495057e-001
35748276.000	-9.343601e-001	-3.495364e-001
35754270.000	-9.343919e-001	-3.495290e-001
35760264.000	-9.344511e-001	-3.494295e-001
35766258.000	-9.344454e-001	-3.493947e-001
35772252.000	-9.344033e-001	-3.493604e-001
35778246.000	-9.344219e-001	-3.492865e-001
35784240.000	-9.344628e-001	-3.492270e-001
35790234.000	-9.345934e-001	-3.491205e-001
35796228.000	-9.345453e-001	-3.491995e-001
35802222.000	-9.345785e-001	-3.490537e-001
35808216.000	-9.345903e-001	-3.489796e-001
35814210.000	-9.345765e-001	-3.489081e-001
35820204.000	-9.347016e-001	-3.489118e-001
35826198.000	-9.346898e-001	-3.489508e-001
35832192.000	-9.346149e-001	-3.488253e-001
35838186.000	-9.347348e-001	-3.486935e-001
35844180.000	-9.347239e-001	-3.487234e-001
35850174.000	-9.346939e-001	-3.485303e-001
35856168.000	-9.347401e-001	-3.485583e-001
35862162.000	-9.346961e-001	-3.484867e-001
35868156.000	-9.346816e-001	-3.485327e-001
35874150.000	-9.348287e-001	-3.484660e-001
35880144.000	-9.348351e-001	-3.483666e-001
35886138.000	-9.348698e-001	-3.483300e-001
35892132.000	-9.348846e-001	-3.482837e-001
35898126.000	-9.347962e-001	-3.481737e-001
35904120.000	-9.348416e-001	-3.479890e-001
35910114.000	-9.349711e-001	-3.480950e-001
35916108.000	-9.347935e-001	-3.480892e-001
35922102.000	-9.350257e-001	-3.479949e-001
35928096.000	-9.349986e-001	-3.478301e-001
35934090.000	-9.350072e-001	-3.480070e-001
35940084.000	-9.351071e-001	-3.477920e-001
35946078.000	-9.350786e-001	-3.477733e-001
35952072.000	-9.349977e-001	-3.476885e-001
35958066.000	-9.351079e-001	-3.476386e-001
35964060.000	-9.350457e-001	-3.476749e-001
35970054.000	-9.350590e-001	-3.475252e-001
35976048.000	-9.351575e-001	-3.474652e-001
35982042.000	-9.352429e-001	-3.474828e-001
35988036.000	-9.352774e-001	-3.475108e-001
35994030.000	-9.351528e-001	-3.473916e-001
36000024.000	-9.353104e-001	-3.472712e-001
36006018.000	-9.352371e-001	-3.471480e-001
36012012.000	-9.352584e-001	-3.471048e-001
36018006.000	-9.352994e-001	-3.469754e-001
36024000.000	-9.352566e-001	-3.469059e-001
36029994.000	-9.353351e-001	-3.469672e-001
36035988.000	-9.353314e-001	-3.467702e-001
36041982.000	-9.353055e-001	-3.468226e-001
36047976.000	-9.354186e-001	-3.468087e-001
36053970.000	-9.354450e-001	-3.467175e-001
36059964.000	-9.353650e-001	-3.465916e-001
36065958.000	-9.355290e-001	-3.465783e-001
36071952.000	-9.355339e-001	-3.466502e-001
36077946.000	-9.354433e-001	-3.465009e-001
36083940.000	-9.355715e-001	-3.463726e-001
36089934.000	-9.356050e-001	-3.464352e-001
36095928.000	-9.355622e-001	-3.463801e-001
36101922.000	-9.355630e-001	-3.462568e-001
36107916.000	-9.357298e-001	-3.463720e-001
36113910.000	-9.355485e-001	-3.462291e-001
36119904.000	-9.356149e-001	-3.460655e-001
36125898.000	-9.355634e-001	-3.460520e-001
36131892.000	-9.355984e-001	-3.458415e-001
36137886.000	-9.356406e-001	-3.458447e-001
36143880.000	-9.357048e-001	-3.459382e-001
36149874.000	-9.357765e-001	-3.458273e-001
36155868.000	-9.357809e-001	-3.457215e-001
36161862.000	-9.358230e-001	-3.457953e-001
36167856.000	-9.357925e-001	-3.456549e-001
36173850.000	-9.358405e-001	-3.455622e-001
36179844.000	-9.357991e-001	-3.455285e-001
36185838.000	-9.358979e-001	-3.455219e-001
36191832.000	-9.359210e-001	-3.454667e-001
36197826.000	-9.359571e-001	-3.453311e-001
36203820.000	-9.359108e-001	-3.454247e-001
36209814.000	-9.359620e-001	-3.453102e-001
36215808.000	-9.360913e-001	-3.452568e-001
36221802.000	-9.360144e-001	-3.451413e-001
36227796.000	-9.360259e-001	-3.452092e-001
36233790.000	-9.359947e-001	-3.450887e-001
36239784.000	-9.359227e-001	-3.450405e-001
36245778.000	-9.360206e-001	-3.450136e-001
36251772.000	-9.360665e-001	-3.449215e-001
36257766.000	-9.362147e-001	-3.448110e-001
36263760.000	-9.361623e-001	-3.447673e-001
36269754.000	-9.361356e-001	-3.447934e-001
36275748.000	-9.361668e-001	-3.446870e-001
36281742.000	-9.362540e-001	-3.446898e-001
36287736.000	-9.363628e-001	-3.446291e-001
36293730.000	-9.363619e-001	-3.445338e-001
36299724.000	-9.362935e-001	-3.444893e-001
36305718.000	-9.362604e-001	-3.443443e-001
36311712.000	-9.363223e-001	-3.443066e-001
36317706.000	-9.363846e-001	-3.442669e-001
36323700.000	-9.364076e-001	-3.442616e-001
36329694.000	-9.364440e-001	-3.441333e-001
36335688.000	-9.362710e-001	-3.441273e-001
36341682.000	-9.363699e-001	-3.440409e-001
36347676.000	-9.363981e-001	-3.440153e-001
36353670.000	-9.364418e-001	-3.440970e-001
36359664.000	-9.364874e-001	-3.440302e-001
36365658.000	-9.364327e-001	-3.439541e-001
36371652.000	-9.364274e-001	-3.439250e-001
36377646.000	-9.364156e-001	-3.436407e-001
36383640.000	-9.365406e-001	-3.436218e-001
36389634.000	-9.365621e-001	-3.437459e-001
36395628.000	-9.366117e-001	-3.436458e-001
36401622.000	-9.366200e-001	-3.436023e-001
36407616.000	-9.366340e-001	-3.436207e-001
36413610.000	-9.367016e-001	-3.434127e-001
36419604.000	-9.366745e-001	-3.433355e-001
36425598.000	-9.366448e-001	-3.433333e-001
36431592.000	-9.366830e-001	-3.433800e-001
36437586.000	-9.366918e-001	-3.432444e-001
36443580.000	-9.366378e-001	-3.431663e-001
36449574.000	-9.366918e-001	-3.431462e-001
36455568.000	-9.367902e-001	-3.431391e-001
36461562.000	-9.367051e-001	-3.430432e-001
36467556.000	-9.368164e-001	-3.429839e-001
36473550.000	-9.368099e-001	-3.428648e-001
36479544.000	-9.368236e-001	-3.427695e-001
36485538.000	-9.368252e-001	-3.428661e-001
36491532.000	-9.367648e-001	-3.427469e-001
36497526.000	-9.368962e-001	-3.427478e-001
36503520.000	-9.368675e-001	-3.427197e-001
36509514.000	-9.368972e-001	-3.426142e-001
36515508.000	-9.369872e-001	-3.426281e-001
36521502.000	-9.371004e-001	-3.426369e-001
36527496.000	-9.370598e-001	-3.425718e-001
36533490.000	-9.371057e-001	-3.424876e-001
36539484.000	-9.370344e-001	-3.424776e-001
36545478.000	-9.370731e-001	-3.424000e-001
36551472.000	-9.370102e-001	-3.421786e-001
36557466.000	-9.370602e-001	-3.421966e-001
36563460.000	-9.371409e-001	-3.420243e-001
36569454.000	-9.370961e-001	-3.420061e-001
36575448.000	-9.371730e-001	-3.419686e-001
36581442.000	-9.372357e-001	-3.419165e-001
36587436.000	-9.371850e-001	-3.418254e-001
36593430.000	-9.371273e-001	-3.418812e-001
36599424.000	-9.372132e-001	-3.418349e-001
36605418.000	-9.371788e-001	-3.418054e-001
36611412.000	-9.372278e-001	-3.416601e-001
36617406.000	-9.372571e-001	-3.415990e-001
36623400.000	-9.372287e-001	-3.414627e-001
36629394.000	-9.373256e-001	-3.415088e-001
36635388.000	-9.372246e-001	-3.414170e-001
36641382.000	-9.373431e-001	-3.414939e-001
36647376.000	-9.373924e-001	-3.413479e-001
36653370.000	-9.374149e-001	-3.412415e-001
36659364.000	-9.375199e-001	-3.413140e-001
36665358.000	-9.374572e-001	-3.411409e-001
36671352.000	-9.374098e-001	-3.411599e-001
36677346.000	-9.375074e-001	-3.411355e-001
36683340.000	-9.374425e-001	-3.410881e-001
36689334.000	-9.375367e-001	-3.410178e-001
36695328.000	-9.375066e-001	-3.407586e-001
36701322.000	-9.375575e-001	-3.409382e-001
36707316.000	-9.375477e-001	-3.408220e-001
36713310.000	-9.376871e-001	-3.406753e-001
36719304.000	-9.377101e-001	-3.405736e-001
36725298.000	-9.377302e-001	-3.406958e-001
36731292.000	-9.376810e-001	-3.405537e-001
36737286.000	-9.376501e-001	-3.406261e-001
36743280.000	-9.376555e-001	-3.404999e-001
36749274.000	-9.378162e-001	-3.404664e-001
36755268.000	-9.377525e-001	-3.404630e-001
36761262.000	-9.377859e-001	-3.402038e-001
36767256.000	-9.377023e-001	-3.402458e-001
36773250.000	-9.377180e-001	-3.402167e-001
36779244.000	-9.377942e-001	-3.400849e-001
36785238.000	-9.378239e-001	-3.401585e-001
36791232.000	-9.378063e-001	-3.401249e-001
36797226.000	-9.378560e-001	-3.399952e-001
36803220.000	-9.378309e-001	-3.400124e-001
36809214.000	-9.379284e-001	-3.399239e-001
36815208.000	-9.379866e-001	-3.397488e-001
36821202.000	-9.380278e-001	-3.397979e-001
36827196.000	-9.378770e-001	-3.397516e-001
36833190.000	-9.380333e-001	-3.396557e-001
36839184.000	-9.379329e-001	-3.396327e-001
36845178.000	-9.380182e-001	-3.396575e-001
36851172.000	-9.380447e-001	-3.395861e-001
36857166.000	-9.381526e-001	-3.396231e-001
36863160.000	-9.380629e-001	-3.393822e-001
36869154.000	-9.381632e-001	-3.394350e-001
36875148.000	-9.380048e-001	-3.393841e-001
36881142.000	-9.382345e-001	-3.393861e-001
36887136.000	-9.380550e-001	-3.391682e-001
36893130.000	-9.382380e-001	-3.392460e-001
36899124.000	-9.382549e-001	-3.390991e-001
36905118.000	-9.381605e-001	-3.390759e-001
36911112.000	-9.382588e-001	-3.390047e-001
36917106.000	-9.382478e-001	-3.389670e-001
36923100.000	-9.382501e-001	-3.388246e-001
36929094.000	-9.382675e-001	-3.388222e-001
36935088.000	-9.382771e-001	-3.387794e-001
36941082.000	-9.383501e-001	-3.387070e-001
36947076.000	-9.382791e-001	-3.386288e-001
36953070.000	-9.383118e-001	-3.386138e-001
36959064.000	-9.383411e-001	-3.385861e-001
36965058.000	-9.384424e-001	-3.385383e-001
36971052.000	-9.384256e-001	-3.385359e-001
36977046.000	-9.384558e-001	-3.384748e-001
36983040.000	-9.384642e-001	-3.384415e-001
36989034.000	-9.385448e-001	-3.383498e-001
36995028.000	-9.385667e-001	-3.382224e-001
37001022.000	-9.384503e-001	-3.381687e-001
37007016.000	-9.384351e-001	-3.381580e-001
37013010.000	-9.385430e-001	-3.381522e-001
37019004.000	-9.383994e-001	-3.380323e-001
37024998.000	-9.385699e-001	-3.380059e-001
37030992.000	-9.386455e-001	-3.379313e-001
37036986.000	-9.387685e-001	-3.378709e-001
37042980.000	-9.386383e-001	-3.379309e-001
37048974.000	-9.387065e-001	-3.378392e-001
37054968.000	-9.387106e-001	-3.378447e-001
37060962.000	-9.387393e-001	-3.377816e-001
37066956.000	-9.387959e-001	-3.376448e-001
37072950.000	-9.388457e-001	-3.376936e-001
37078944.000	-9.387436e-001	-3.375818e-001
37084938.000	-9.386917e-001	-3.374892e-001
37090932.000	-9.387825e-001	-3.374125e-001
37096926.000	-9.388132e-001	-3.373153e-001
37102920.000	-9.388775e-001	-3.372736e-001
37108914.000	-9.388015e-001	-3.372982e-001
37114908.000	-9.388625e-001	-3.372264e-001
37120902.000	-9.388315e-001	-3.371521e-001
37126896.000	-9.389677e-001	-3.371151e-001
37132890.000	-9.389002e-001	-3.370326e-001
37138884.000	-9.390227e-001	-3.369494e-001
37144878.000	-9.389835e-001	-3.368003e-001
37150872.000	-9.390788e-001	-3.368550e-001
37156866.000	-9.390229e-001	-3.368538e-001
37162860.000	-9.390675e-001	-3.367284e-001
37168854.000	-9.389600e-001	-3.367741e-001
37174848.000	-9.390320e-001	-3.367004e-001
37180842.000	-9.390854e-001	-3.365903e-001
37186836.000	-9.391034e-001	-3.365534e-001
37192830.000	-9.390307e-001	-3.365639e-001
37198824.000	-9.391369e-001	-3.364301e-001
37204818.000	-9.391533e-001	-3.364123e-001
37210812.000	-9.390754e-001	-3.362130e-001
37216806.000	-9.392697e-001	-3.362856e-001
37222800.000	-9.391979e-001	-3.362153e-001
37228794.000	-9.391747e-001	-3.362828e-001
37234788.000	-9.391874e-001	-3.359689e-001
37240782.000	-9.391642e-001	-3.360437e-001
37246776.000	-9.392462e-001	-3.359589e-001
37252770.000	-9.392355e-001	-3.358906e-001
37258764.000	-9.392744e-001	-3.358403e-001
37264758.000	-9.392764e-001	-3.358253e-001
37270752.000	-9.393487e-001	-3.357233e-001
37276746.000	-9.393251e-001	-3.358015e-001
37282740.000	-9.393732e-001	-3.358158e-001
37288734.000	-9.394155e-001	-3.356722e-001
37294728.000	-9.394197e-001	-3.356013e-001
37300722.000	-9.393841e-001	-3.354472e-001
37306716.000	-9.393688e-001	-3.354419e-001
37312710.000	-9.394196e-001	-3.354487e-001
37318704.000	-9.394896e-001	-3.354136e-001
37324698.000	-9.395468e-001	-3.352652e-001
37330692.000	-9.394505e-001	-3.351863e-001
37336686.000	-9.394192e-001	-3.351508e-001
37342680.000	-9.394531e-001	-3.351481e-001
37348674.000	-9.395815e-001	-3.350646e-001
37354668.000	-9.395752e-001	-3.349975e-001
37360662.000	-9.395181e-001	-3.350868e-001
37366656.000	-9.396649e-001	-3.349292e-001
37372650.000	-9.396801e-001	-3.348793e-001
37378644.000	-9.395987e-001	-3.347948e-001
37384638.000	-9.397711e-001	-3.347829e-001
37390632.000	-9.397374e-001	-3.348317e-001
37396626.000	-9.398580e-001	-3.348050e-001
37402620.000	-9.398503e-001	-3.346470e-001
37408614.000	-9.397598e-001	-3.345795e-001
37414608.000	-9.399195e-001	-3.346078e-001
37420602.000	-9.397585e-001	-3.345261e-001
37426596.000	-9.397602e-001	-3.343753e-001
37432590.000	-9.399275e-001	-3.343778e-001
37438584.000	-9.400053e-001	-3.343963e-001
37444578.000	-9.398381e-001	-3.342378e-001
37450572.000	-9.398141e-001	-3.340541e-001
37456566.000	-9.398987e-001	-3.342105e-001
37462560.000	-9.400183e-001	-3.340803e-001
37468554.000	-9.399609e-001	-3.340037e-001
37474548.000	-9.400166e-001	-3.340147e-001
37480542.000	-9.400483e-001	-3.340606e-001
37486536.000	-9.399771e-001	-3.340083e-001
37492530.000	-9.398724e-001	-3.338246e-001
37498524.000	-9.400293e-001	-3.339731e-001
37504518.000	-9.401162e-001	-3.338423e-001
37510512.000	-9.400754e-001	-3.337307e-001
37516506.000	-9.400271e-001	-3.337249e-001
37522500.000	-9.400858e-001	-3.336478e-001
37528494.000	-9.401462e-001	-3.335917e-001
37534488.000	-9.400532e-001	-3.335216e-001
37540482.000	-9.401691e-001	-3.335345e-001
37546476.000	-9.401391e-001	-3.334302e-001
37552470.000	-9.402008e-001	-3.334242e-001
37558464.000	-9.401485e-001	-3.333519e-001
37564458.000	-9.402482e-001	-3.332553e-001
37570452.000	-9.403219e-001	-3.332653e-001
37576446.000	-9.403118e-001	-3.332439e-001
37582440.000	-9.401925e-001	-3.330659e-001
37588434.000	-9.403587e-001	-3.331779e-001
37594428.000	-9.403466e-001	-3.330062e-001
37600422.000	-9.402434e-001	-3.329664e-001
37606416.000	-9.404470e-001	-3.329971e-001
37612410.000	-9.403781e-001	-3.328434e-001
37618404.000	-9.404188e-001	-3.328275e-001
37624398.000	-9.404381e-001	-3.326868e-001
37630392.000	-9.405232e-001	-3.326811e-001
37636386.000	-9.404345e-001	-3.326456e-001
37642380.000	-9.404702e-001	-3.327637e-001
37648374.000	-9.404963e-001	-3.325265e-001
37654368.000	-9.404032e-001	-3.325480e-001
37660362.000	-9.403919e-001	-3.324152e-001
37666356.000	-9.405176e-001	-3.323845e-001
37672350.000	-9.405539e-001	-3.323631e-001
37678344.000	-9.405344e-001	-3.322321e-001
37684338.000	-9.405866e-001	-3.321841e-001
37690332.000	-9.406113e-001	-3.320876e-001
37696326.000	-9.405919e-001	-3.321988e-001
37702320.000	-9.405783e-001	-3.320916e-001
37708314.000	-9.406261e-001	-3.320589e-001
37714308.000	-9.406865e-001	-3.320286e-001
37720302.000	-9.407982e-001	-3.320803e-001
37726296.000	-9.406955e-001	-3.319347e-001
37732290.000	-9.407417e-001	-3.318220e-001
37738284.000	-9.406598e-001	-3.317305e-001
37744278.000	-9.406790e-001	-3.317488e-001
37750272.000	-9.407409e-001	-3.317947e-001
37756266.000	-9.407683e-001	-3.316253e-001
37762260.000	-9.406829e-001	-3.315140e-001
37768254.000	-9.408917e-001	-3.316327e-001
37774248.000	-9.409007e-001	-3.314801e-001
37780242.000	-9.409572e-001	-3.315138e-001
37786236.000	-9.410003e-001	-3.313488e-001
37792230.000	-9.408837e-001	-3.313337e-001
37798224.000	-9.408682e-001	-3.312588e-001
37804218.000	-9.409180e-001	-3.311991e-001
37810212.000	-9.410388e-001	-3.312119e-001
37816206.000	-9.410698e-001	-3.311626e-001
37822200.000	-9.409071e-001	-3.310903e-001
37828194.000	-9.409699e-001	-3.309840e-001
37834188.000	-9.409722e-001	-3.309769e-001
37840182.000	-9.411576e-001	-3.309224e-001
37846176.000	-9.409423e-001	-3.308705e-001
37852170.000	-9.410425e-001	-3.308544e-001
37858164.000	-9.411247e-001	-3.306534e-001
37864158.000	-9.410646e-001	-3.306200e-001
37870152.000	-9.411586e-001	-3.306526e-001
37876146.000	-9.412186e-001	-3.306229e-001
37882140.000	-9.411898e-001	-3.304456e-001
37888134.000	-9.411815e-001	-3.304782e-001
37894128.000	-9.412095e-001	-3.306076e-001
37900122.000	-9.412678e-001	-3.304042e-001
37906116.000	-9.411819e-001	-3.304505e-001
37912110.000	-9.411566e-001	-3.301770e-001
37918104.000	-9.412098e-001	-3.302679e-001
37924098.000	-9.413678e-001	-3.303211e-001
37930092.000	-9.412784e-001	-3.302029e-001
37936086.000	-9.413597e-001	-3.301121e-001
37942080.000	-9.412920e-001	-3.300296e-001
37948074.000	-9.413769e-001	-3.299991e-001
37954068.000	-9.415162e-001	-3.300696e-001
37960062.000	-9.415003e-001	-3.299503e-001
37966056.000	-9.413867e-001	-3.298950e-001
37972050.000	-9.414876e-001	-3.299203e-001
37978044.000	-9.415088e-001	-3.298671e-001
37984038.000	-9.415347e-001	-3.297604e-001
37990032.000	-9.415660e-001	-3.296723e-001
37996026.000	-9.414956e-001	-3.296608e-001
38002020.000	-9.415501e-001	-3.294852e-001
38008014.000	-9.415514e-001	-3.295823e-001
38014008.000	-9.415595e-001	-3.295099e-001
38020002.000	-9.416334e-001	-3.295281e-001
38025996.000	-9.415692e-001	-3.293803e-001
38031990.000	-9.415809e-001	-3.293086e-001
38037984.000	-9.416349e-001	-3.293811e-001
38043978.000	-9.416969e-001	-3.292741e-001
38049972.000	-9.417720e-001	-3.291581e-001
38055966.000	-9.417363e-001	-3.291470e-001
38061960.000	-9.417397e-001	-3.291212e-001
38067954.000	-9.417938e-001	-3.290613e-001
38073948.000	-9.417921e-001	-3.289845e-001
38079942.000	-9.417191e-001	-3.289799e-001
38085936.000	-9.418025e-001	-3.288930e-001
38091930.000	-9.418224e-001	-3.289042e-001
38097924.000	-9.418694e-001	-3.288065e-001
38103918.000	-9.418056e-001	-3.286477e-001
38109912.000	-9.418701e-001	-3.287525e-001
38115906.000	-9.419167e-001	-3.286864e-001
38121900.000	-9.418662e-001	-3.285774e-001
38127894.000	-9.419275e-001	-3.285593e-001
38133888.000	-9.419906e-001	-3.284821e-001
38139882.000	-9.419183e-001	-3.284940e-001
38145876.000	-9.419729e-001	-3.284513e-001
38151870.000	-9.420134e-001	-3.283389e-001
38157864.000	-9.420065e-001	-3.283511e-001
38163858.000	-9.420672e-001	-3.282509e-001
38169852.000	-9.419747e-001	-3.282862e-001
38175846.000	-9.420926e-001	-3.282879e-001
38181840.000	-9.420781e-001	-3.281554e-001
38187834.000	-9.421697e-001	-3.280409e-001
38193828.000	-9.420606e-001	-3.280073e-001
38199822.000	-9.421455e-001	-3.279852e-001
38205816.000	-9.421506e-001	-3.279435e-001
38211810.000	-9.422673e-001	-3.278800e-001
38217804.000	-9.421581e-001	-3.279392e-001
38223798.000	-9.423294e-001	-3.276689e-001
38229792.000	-9.421620e-001	-3.277362e-001
38235786.000	-9.421902e-001	-3.276365e-001
38241780.000	-9.422150e-001	-3.276276e-001
38247774.000	-9.422744e-001	-3.275071e-001
38253768.000	-9.422589e-001	-3.275186e-001
38259762.000	-9.422563e-001	-3.275602e-001
38265756.000	-9.423562e-001	-3.275065e-001
38271750.000	-9.423732e-001	-3.274417e-001
38277744.000	-9.423854e-001	-3.273707e-001
38283738.000	-9.424020e-001	-3.273469e-001
38289732.000	-9.423483e-001	-3.272934e-001
38295726.000	-9.424974e-001	-3.272082e-001
38301720.000	-9.424624e-001	-3.272163e-001
38307714.000	-9.425053e-001	-3.271540e-001
38313708.000	-9.424553e-001	-3.271445e-001
38319702.000	-9.424733e-001	-3.270811e-001
38325696.000	-9.425410e-001	-3.270608e-001
38331690.000	-9.425779e-001	-3.269629e-001
38337684.000	-9.425091e-001	-3.268880e-001
38343678.000	-9.424596e-001	-3.267330e-001
38349672.000	-9.425507e-001	-3.267089e-001
38355666.000	-9.425160e-001	-3.266451e-001
38361660.000	-9.425893e-001	-3.266816e-001
38367654.000	-9.426136e-001	-3.265331e-001
38373648.000	-9.425557e-001	-3.265980e-001
38379642.000	-9.426354e-001	-3.264628e-001
38385636.000	-9.425569e-001	-3.262665e-001
38391630.000	-9.426544e-001	-3.263510e-001
38397624.000	-9.427654e-001	-3.262221e-001
38403618.000	-9.426114e-001	-3.262769e-001
38409612.000	-9.427185e-001	-3.261623e-001
38415606.000	-9.426499e-001	-3.261512e-001
38421600.000	-9.427443e-001	-3.260305e-001
38427594.000	-9.428246e-001	-3.261189e-001
38433588.000	-9.427985e-001	-3.259319e-001
38439582.000	-9.427787e-001	-3.258981e-001
38445576.000	-9.426831e-001	-3.259618e-001
38451570.000	-9.427842e-001	-3.258274e-001
38457564.000	-9.428388e-001	-3.258277e-001
38463558.000	-9.428361e-001	-3.258001e-001
38469552.000	-9.428503e-001	-3.256401e-001
38475546.000	-9.429377e-001	-3.256569e-001
38481540.000	-9.428683e-001	-3.256049e-001
38487534.000	-9.428296e-001	-3.256969e-001
38493528.000	-9.429534e-001	-3.254809e-001
38499522.000	-9.430621e-001	-3.254849e-001
38505516.000	-9.429890e-001	-3.255051e-001
38511510.000	-9.429129e-001	-3.254436e-001
38517504.000	-9.431427e-001	-3.254058e-001
38523498.000	-9.430624e-001	-3.253468e-001
38529492.000	-9.430882e-001	-3.253418e-001
38535486.000	-9.431351e-001	-3.251853e-001
38541480.000	-9.431222e-001	-3.250926e-001
38547474.000	-9.431395e-001	-3.251604e-001
38553468.000	-9.432247e-001	-3.250738e-001
38559462.000	-9.431957e-001	-3.251638e-001
38565456.000	-9.431685e-001	-3.250368e-001
38571450.000	-9.431750e-001	-3.249481e-001
38577444.000	-9.432264e-001	-3.249648e-001
38583438.000	-9.432572e-001	-3.249173e-001
38589432.000	-9.431121e-001	-3.248428e-001
38595426.000	-9.432341e-001	-3.247180e-001
38601420.000	-9.432495e-001	-3.247389e-001
38607414.000	-9.431932e-001	-3.246636e-001
38613408.000	-9.431938e-001	-3.245416e-001
38619402.000	-9.433040e-001	-3.246612e-001
38625396.000	-9.432930e-001	-3.246069e-001
38631390.000	-9.434017e-001	-3.245611e-001
38637384.000	-9.433919e-001	-3.244891e-001
38643378.000	-9.434023e-001	-3.244504e-001
38649372.000	-9.434262e-001	-3.243767e-001
38655366.000	-9.434510e-001	-3.242891e-001
38661360.000	-9.434332e-001	-3.242311e-001
38667354.000	-9.433488e-001	-3.242546e-001
38673348.000	-9.433966e-001	-3.241716e-001
38679342.000	-9.434311e-001	-3.241273e-001
38685336.000	-9.435411e-001	-3.240799e-001
38691330.000	-9.435085e-001	-3.240293e-001
38697324.000	-9.435817e-001	-3.238763e-001
38703318.000	-9.434776e-001	-3.237725e-001
38709312.000	-9.435376e-001	-3.238223e-001
38715306.000	-9.435454e-001	-3.237748e-001
38721300.000	-9.436032e-001	-3.236640e-001
38727294.000	-9.435939e-001	-3.237892e-001
38733288.000	-9.435444e-001	-3.235770e-001
38739282.000	-9.436531e-001	-3.234580e-001
38745276.000	-9.435954e-001	-3.235436e-001
38751270.000	-9.436858e-001	-3.234476e-001
38757264.000	-9.435663e-001	-3.233056e-001
38763258.000	-9.436516e-001	-3.233189e-001
38769252.000	-9.437538e-001	-3.232758e-001
38775246.000	-9.437518e-001	-3.231268e-001
38781240.000	-9.437778e-001	-3.232374e-001
38787234.000	-9.438614e-001	-3.232310e-001
38793228.000	-9.438632e-001	-3.231871e-001
38799222.000	-9.437653e-001	-3.231254e-001
38805216.000	-9.438343e-001	-3.231190e-001
38811210.000	-9.438573e-001	-3.230644e-001
38817204.000	-9.437651e-001	-3.229535e-001
38823198.000	-9.437799e-001	-3.228855e-001
38829192.000	-9.438882e-001	-3.228642e-001
38835186.000	-9.438582e-001	-3.227441e-001
38841180.000	-9.439009e-001	-3.227103e-001
38847174.000	-9.439452e-001	-3.226568e-001
38853168.000	-9.440103e-001	-3.225862e-001
38859162.000	-9.439138e-001	-3.225700e-001
38865156.000	-9.440471e-001	-3.225645e-001
38871150.000	-9.439454e-001	-3.224891e-001
38877144.000	-9.441246e-001	-3.224199e-001
38883138.000	-9.441021e-001	-3.223550e-001
38889132.000	-9.440450e-001	-3.224571e-001
38895126.000	-9.440817e-001	-3.223016e-001
38901120.000	-9.440185e-001	-3.223119e-001
38907114.000	-9.441435e-001	-3.221409e-001
38913108.000	-9.441863e-001	-3.222411e-001
38919102.000	-9.442120e-001	-3.221358e-001
38925096.000	-9.442066e-001	-3.220800e-001
38931090.000	-9.441488e-001	-3.220629e-001
38937084.000	-9.442558e-001	-3.220051e-001
38943078.000	-9.441336e-001	-3.219235e-001
38949072.000	-9.441570e-001	-3.218141e-001
38955066.000	-9.442222e-001	-3.217536e-001
38961060.000	-9.442989e-001	-3.217685e-001
38967054.000	-9.441443e-001	-3.216811e-001
38973048.000	-9.442546e-001	-3.216479e-001
38979042.000	-9.442132e-001	-3.215794e-001
38985036.000	-9.442021e-001	-3.215135e-001
38991030.000	-9.443206e-001	-3.216057e-001
38997024.000	-9.444096e-001	-3.215844e-001
39003018.000	-9.442727e-001	-3.214687e-001
39009012.000	-9.443657e-001	-3.214391e-001
39015006.000	-9.444705e-001	-3.214195e-001
39021000.000	-9.444635e-001	-3.214015e-001
39026994.000	-9.443969e-001	-3.214456e-001
39032988.000	-9.445802e-001	-3.212122e-001
39038982.000	-9.444965e-001	-3.211357e-001
39044976.000	-9.445013e-001	-3.212450e-001
39050970.000	-9.445789e-001	-3.210573e-001
39056964.000	-9.446500e-001	-3.210771e-001
39062958.000	-9.445650e-001	-3.210086e-001
39068952.000	-9.445345e-001	-3.208819e-001
39074946.000	-9.445902e-001	-3.208270e-001
39080940.000	-9.445868e-001	-3.208037e-001
39086934.000	-9.446767e-001	-3.207266e-001
39092928.000	-9.446031e-001	-3.207274e-001
39098922.000	-9.445922e-001	-3.208201e-001
39104916.000	-9.446397e-001	-3.206657e-001
39110910.000	-9.447282e-001	-3.205393e-001
39116904.000	-9.446022e-001	-3.205820e-001
39122898.000	-9.447472e-001	-3.204894e-001
39128892.000	-9.446720e-001	-3.205609e-001
39134886.000	-9.448344e-001	-3.204407e-001
39140880.000	-9.447712e-001	-3.204299e-001
39146874.000	-9.446969e-001	-3.204034e-001
39152868.000	-9.448284e-001	-3.203210e-001
39158862.000	-9.448185e-001	-3.202531e-001
39164856.000	-9.447829e-001	-3.202745e-001
39170850.000	-9.449129e-001	-3.201570e-001
39176844.000	-9.448373e-001	-3.200467e-001
39182838.000	-9.447932e-001	-3.200350e-001
39188832.000	-9.449249e-001	-3.200168e-001
39194826.000	-9.448690e-001	-3.199768e-001
39200820.000	-9.449364e-001	-3.199963e-001
39206814.000	-9.449313e-001	-3.199771e-001
39212808.000	-9.449349e-001	-3.198714e-001
39218802.000	-9.448947e-001	-3.198874e-001
39224796.000	-9.450401e-001	-3.197665e-001
39230790.000	-9.450239e-001	-3.196941e-001
39236784.000	-9.450631e-001	-3.196998e-001
39242778.000	-9.451011e-001	-3.196121e-001
39248772.000	-9.450109e-001	-3.195417e-001
39254766.000	-9.450517e-001	-3.194989e-001
39260760.000	-9.451533e-001	-3.195576e-001
39266754.000	-9.451307e-001	-3.194619e-001
39272748.000	-9.451372e-001	-3.193473e-001
39278742.000	-9.451694e-001	-3.194272e-001
39284736.000	-9.452553e-001	-3.192871e-001
39290730.000	-9.451498e-001	-3.192857e-001
39296724.000	-9.451693e-001	-3.192235e-001
39302718.000	-9.451858e-001	-3.191254e-001
39308712.000	-9.452529e-001	-3.191169e-001
39314706.000	-9.451803e-001	-3.189961e-001
39320700.000	-9.451956e-001	-3.190265e-001
39326694.000	-9.452568e-001	-3.190295e-001
39332688.000	-9.452950e-001	-3.189847e-001
39338682.000	-9.452659e-001	-3.187857e-001
39344676.000	-9.452628e-001	-3.187486e-001
39350670.000	-9.453030e-001	-3.187081e-001
39356664.000	-9.453287e-001	-3.187162e-001
39362658.000	-9.453865e-001	-3.186893e-001
39368652.000	-9.453301e-001	-3.186563e-001
39374646.000	-9.454313e-001	-3.185487e-001
39380640.000	-9.453501e-001	-3.184985e-001
39386634.000	-9.453180e-001	-3.185703e-001
39392628.000	-9.454757e-001	-3.184809e-001
39398622.000	-9.454227e-001	-3.183998e-001
39404616.000	-9.455570e-001	-3.185605e-001
39410610.000	-9.454694e-001	-3.183386e-001
39416604.000	-9.456300e-001	-3.183413e-001
39422598.000	-9.456551e-001	-3.182984e-001
39428592.000	-9.456976e-001	-3.181899e-001
39434586.000	-9.455971e-001	-3.181265e-001
39440580.000	-9.455092e-001	-3.180420e-001
39446574.000	-9.455737e-001	-3.179392e-001
39452568.000	-9.456055e-001	-3.178943e-001
39458562.000	-9.456731e-001	-3.179442e-001
39464556.000	-9.455796e-001	-3.179345e-001
39470550.000	-9.456439e-001	-3.178848e-001
39476544.000	-9.455759e-001	-3.176830e-001
39482538.000	-9.457112e-001	-3.177784e-001
39488532.000	-9.457605e-001	-3.176673e-001
39494526.000	-9.456730e-001	-3.176558e-001
39500520.000	-9.457146e-001	-3.175797e-001
39506514.000	-9.457520e-001	-3.175785e-001
39512508.000	-9.456544e-001	-3.175038e-001
39518502.000	-9.457800e-001	-3.173797e-001
39524496.000	-9.457722e-001	-3.173848e-001
39530490.000	-9.457024e-001	-3.172688e-001
39536484.000	-9.457676e-001	-3.173521e-001
39542478.000	-9.458010e-001	-3.171065e-001
39548472.000	-9.457971e-001	-3.171442e-001
39554466.000	-9.457792e-001	-3.170123e-001
39560460.000	-9.459599e-001	-3.170341e-001
39566454.000	-9.458866e-001	-3.170503e-001
39572448.000	-9.459042e-001	-3.170093e-001
39578442.000	-9.459920e-001	-3.169388e-001
39584436.000	-9.459663e-001	-3.167864e-001
39590430.000	-9.458797e-001	-3.168589e-001
39596424.000	-9.459669e-001	-3.168251e-001
39602418.000	-9.459203e-001	-3.167685e-001
39608412.000	-9.459250e-001	-3.166929e-001
39614406.000	-9.460175e-001	-3.167215e-001
39620400.000	-9.459672e-001	-3.166367e-001
39626394.000	-9.459601e-001	-3.166120e-001
39632388.000	-9.460289e-001	-3.165369e-001
39638382.000	-9.461295e-001	-3.164941e-001
39644376.000	-9.459802e-001	-3.163950e-001
39650370.000	-9.460851e-001	-3.164102e-001
39656364.000	-9.461155e-001	-3.163107e-001
39662358.000	-9.461267e-001	-3.161660e-001
39668352.000	-9.461897e-001	-3.161640e-001
39674346.000	-9.462562e-001	-3.161438e-001
39680340.000	-9.461384e-001	-3.161627e-001
39686334.000	-9.461775e-001	-3.160716e-001
39692328.000	-9.463700e-001	-3.160539e-001
39698322.000	-9.461744e-001	-3.161289e-001
39704316.000	-9.462775e-001	-3.159332e-001
39710310.000	-9.462883e-001	-3.159768e-001
39716304.000	-9.463527e-001	-3.159548e-001
39722298.000	-9.464099e-001	-3.158341e-001
39728292.000	-9.462865e-001	-3.158054e-001
39734286.000	-9.463617e-001	-3.157022e-001
39740280.000	-9.463389e-001	-3.157304e-001
39746274.000	-9.463096e-001	-3.156742e-001
39752268.000	-9.464393e-001	-3.156771e-001
39758262.000	-9.463541e-001	-3.154750e-001
39764256.000	-9.464661e-001	-3.155475e-001
39770250.000	-9.463310e-001	-3.154418e-001
39776244.000	-9.463611e-001	-3.153640e-001
39782238.000	-9.465074e-001	-3.153436e-001
39788232.000	-9.465121e-001	-3.153997e-001
39794226.000	-9.464535e-001	-3.153001e-001
39800220.000	-9.464452e-001	-3.152169e-001
39806214.000	-9.464773e-001	-3.153443e-001
39812208.000	-9.464975e-001	-3.151751e-001
39818202.000	-9.463984e-001	-3.151147e-001
39824196.000	-9.465338e-001	-3.151137e-001
39830190.000	-9.465706e-001	-3.151206e-001
39836184.000	-9.464899e-001	-3.150426e-001
39842178.000	-9.466486e-001	-3.150708e-001
39848172.000	-9.466297e-001	-3.148211e-001
39854166.000	-9.466220e-001	-3.148242e-001
39860160.000	-9.466795e-001	-3.148203e-001
39866154.000	-9.466842e-001	-3.147465e-001
39872148.000	-9.466617e-001	-3.147359e-001
39878142.000	-9.467670e-001	-3.146997e-001
39884136.000	-9.467011e-001	-3.147264e-001
39890130.000	-9.467794e-001	-3.146438e-001
39896124.000	-9.468624e-001	-3.146019e-001
39902118.000	-9.468767e-001	-3.145439e-001
39908112.000	-9.468896e-001	-3.145420e-001
39914106.000	-9.468336e-001	-3.144586e-001
39920100.000	-9.468641e-001	-3.142995e-001
39926094.000	-9.468082e-001	-3.141943e-001
39932088.000	-9.468989e-001	-3.142782e-001
39938082.000	-9.467910e-001	-3.142021e-001
39944076.000	-9.468526e-001	-3.142789e-001
39950070.000	-9.469117e-001	-3.142299e-001
39956064.000	-9.468450e-001	-3.141200e-001
39962058.000	-9.469791e-001	-3.140154e-001
39968052.000	-9.469464e-001	-3.140184e-001
39974046.000	-9.469180e-001	-3.140634e-001
39980040.000	-9.470255e-001	-3.138960e-001
39986034.000	-9.470542e-001	-3.139445e-001
39992028.000	-9.470895e-001	-3.139542e-001
39998022.000	-9.470080e-001	-3.137704e-001
40004016.000	-9.470475e-001	-3.137351e-001
40010010.000	-9.470331e-001	-3.136093e-001
40016004.000	-9.469657e-001	-3.135630e-001
40021998.000	-9.470755e-001	-3.135855e-001
40027992.000	-9.470426e-001	-3.135378e-001
40033986.000	-9.470801e-001	-3.134748e-001
40039980.000	-9.471253e-001	-3.134587e-001
40045974.000	-9.470684e-001	-3.133221e-001
40051968.000	-9.471143e-001	-3.133897e-001
40057962.000	-9.471438e-001	-3.132816e-001
40063956.000	-9.470654e-001	-3.132815e-001
40069950.000	-9.472084e-001	-3.131201e-001
40075944.000	-9.472216e-001	-3.131053e-001
40081938.000	-9.473665e-001	-3.130990e-001
40087932.000	-9.472498e-001	-3.131018e-001
40093926.000	-9.472398e-001	-3.129990e-001
40099920.000	-9.473192e-001	-3.130216e-001
40105914.000	-9.473316e-001	-3.129067e-001
40111908.000	-9.472980e-001	-3.129398e-001
40117902.000	-9.473173e-001	-3.128906e-001
40123896.000	-9.473288e-001	-3.128147e-001
40129890.000	-9.472532e-001	-3.127376e-001
40135884.000	-9.473691e-001	-3.127922e-001
40141878.000	-9.473244e-001	-3.128058e-001
40147872.000	-9.474652e-001	-3.126312e-001
40153866.000	-9.474536e-001	-3.124815e-001
40159860.000	-9.473859e-001	-3.125048e-001
40165854.000	-9.474246e-001	-3.124037e-001
40171848.000	-9.474014e-001	-3.123311e-001
40177842.000	-9.474087e-001	-3.122813e-001
40183836.000	-9.475171e-001	-3.123095e-001
40189830.000	-9.474647e-001	-3.122627e-001
40195824.000	-9.475142e-001	-3.121397e-001
40201818.000	-9.474891e-001	-3.121038e-001
40207812.000	-9.475183e-001	-3.122069e-001
40213806.000	-9.476266e-001	-3.122156e-001
40219800.000	-9.475484e-001	-3.121363e-001
40225794.000	-9.476073e-001	-3.120721e-001
40231788.000	-9.475711e-001	-3.119513e-001
40237782.000	-9.475676e-001	-3.119387e-001
40243776.000	-9.476454e-001	-3.119005e-001
40249770.000	-9.476798e-001	-3.119726e-001
40255764.000	-9.476713e-001	-3.118416e-001
40261758.000	-9.477479e-001	-3.116881e-001
40267752.000	-9.476722e-001	-3.117427e-001
40273746.000	-9.476701e-001	-3.116286e-001
40279740.000	-9.477423e-001	-3.115322e-001
40285734.000	-9.478008e-001	-3.116306e-001
40291728.000	-9.477225e-001	-3.115419e-001
40297722.000	-9.477900e-001	-3.115881e-001
40303716.000	-9.478522e-001	-3.114264e-001
40309710.000	-9.479273e-001	-3.114134e-001
40315704.000	-9.477909e-001	-3.112913e-001
40321698.000	-9.477649e-001	-3.111102e-001
40327692.000	-9.477846e-001	-3.112405e-001
40333686.000	-9.478708e-001	-3.114179e-001
40339680.000	-9.478463e-001	-3.111727e-001
40345674.000	-9.479089e-001	-3.111287e-001
40351668.000	-9.478802e-001	-3.112058e-001
40357662.000	-9.479197e-001	-3.110872e-001
40363656.000	-9.479088e-001	-3.110396e-001
40369650.000	-9.478597e-001	-3.109982e-001
40375644.000	-9.479378e-001	-3.108627e-001
40381638.000	-9.480358e-001	-3.110154e-001
40387632.000	-9.480416e-001	-3.109152e-001
40393626.000	-9.480610e-001	-3.108214e-001
40399620.000	-9.481406e-001	-3.108099e-001
40405614.000	-9.481055e-001	-3.107853e-001
40411608.000	-9.480429e-001	-3.107020e-001
40417602.000	-9.481039e-001	-3.106563e-001
40423596.000	-9.481482e-001	-3.105885e-001
40429590.000	-9.481084e-001	-3.105501e-001
40435584.000	-9.482425e-001	-3.105125e-001
40441578.000	-9.482573e-001	-3.104496e-001
40447572.000	-9.481953e-001	-3.104727e-001
40453566.000	-9.482186e-001	-3.103427e-001
40459560.000	-9.481522e-001	-3.102801e-001
40465554.000	-9.482201e-001	-3.102413e-001
40471548.000	-9.482472e-001	-3.101789e-001
40477542.000	-9.481435e-001	-3.101996e-001
40483536.000	-9.483020e-001	-3.100761e-001
40489530.000	-9.483439e-001	-3.101052e-001
40495524.000	-9.482900e-001	-3.100686e-001
40501518.000	-9.483268e-001	-3.100310e-001
40507512.000	-9.484752e-001	-3.100713e-001
40513506.000	-9.482066e-001	-3.099187e-001
40519500.000	-9.483491e-001	-3.099190e-001
40525494.000	-9.483538e-001	-3.099323e-001
40531488.000	-9.482855e-001	-3.097365e-001
40537482.000	-9.483373e-001	-3.096542e-001
40543476.000	-9.483286e-001	-3.094767e-001
40549470.000	-9.483908e-001	-3.095907e-001
40555464.000	-9.484467e-001	-3.095943e-001
40561458.000	-9.483662e-001	-3.094585e-001
40567452.000	-9.483918e-001	-3.095240e-001
40573446.000	-9.485166e-001	-3.094030e-001
40579440.000	-9.484887e-001	-3.093690e-001
40585434.000	-9.484610e-001	-3.093669e-001
40591428.000	-9.486237e-001	-3.093678e-001
40597422.000	-9.485962e-001	-3.092913e-001
40603416.000	-9.485037e-001	-3.092286e-001
40609410.000	-9.485456e-001	-3.092479e-001
40615404.000	-9.485462e-001	-3.092197e-001
40621398.000	-9.485730e-001	-3.091772e-001
40627392.000	-9.485970e-001	-3.090488e-001
40633386.000	-9.485935e-001	-3.090189e-001
40639380.000	-9.485452e-001	-3.090332e-001
40645374.000	-9.485522e-001	-3.089550e-001
40651368.000	-9.486357e-001	-3.088583e-001
40657362.000	-9.486090e-001	-3.088772e-001
40663356.000	-9.486802e-001	-3.088144e-001
40669350.000	-9.486346e-001	-3.086971e-001
40675344.000	-9.486708e-001	-3.087262e-001
40681338.000	-9.487678e-001	-3.087410e-001
40687332.000	-9.486387e-001	-3.085932e-001
40693326.000	-9.486993e-001	-3.085889e-001
40699320.000	-9.486128e-001	-3.085088e-001
40705314.000	-9.487252e-001	-3.085155e-001
40711308.000	-9.488064e-001	-3.084944e-001
40717302.000	-9.487920e-001	-3.084254e-001
40723296.000	-9.488144e-001	-3.083567e-001
40729290.000	-9.488808e-001	-3.082406e-001
40735284.000	-9.488770e-001	-3.082216e-001
40741278.000	-9.488698e-001	-3.081801e-001
40747272.000	-9.488310e-001	-3.079756e-001
40753266.000	-9.487879e-001	-3.081324e-001
40759260.000	-9.489114e-001	-3.079904e-001
40765254.000	-9.488357e-001	-3.079651e-001
40771248.000	-9.488772e-001	-3.081130e-001
40777242.000	-9.489622e-001	-3.079876e-001
40783236.000	-9.490304e-001	-3.079269e-001
40789230.000	-9.489199e-001	-3.077257e-001
40795224.000	-9.489576e-001	-3.077573e-001
40801218.000	-9.489500e-001	-3.077160e-001
40807212.000	-9.490803e-001	-3.077029e-001
40813206.000	-9.490281e-001	-3.075873e-001
40819200.000	-9.490532e-001	-3.075683e-001
40825194.000	-9.489500e-001	-3.075274e-001
40831188.000	-9.490130e-001	-3.075642e-001
40837182.000	-9.490356e-001	-3.074074e-001
40843176.000	-9.491810e-001	-3.072908e-001
40849170.000	-9.490836e-001	-3.073051e-001
40855164.000	-9.490948e-001	-3.073103e-001
40861158.000	-9.490978e-001	-3.072958e-001
40867152.000	-9.491353e-001	-3.072685e-001
40873146.000	-9.491562e-001	-3.071824e-001
40879140.000	-9.491562e-001	-3.070065e-001
40885134.000	-9.491097e-001	-3.071076e-001
40891128.000	-9.492537e-001	-3.071226e-001
40897122.000	-9.491947e-001	-3.070075e-001
40903116.000	-9.491109e-001	-3.068519e-001
40909110.000	-9.492384e-001	-3.069269e-001
40915104.000	-9.491946e-001	-3.068796e-001
40921098.000	-9.492239e-001	-3.068889e-001
40927092.000	-9.493170e-001	-3.067697e-001
40933086.000	-9.492384e-001	-3.067953e-001
40939080.000	-9.493222e-001	-3.066272e-001
40945074.000	-9.493132e-001	-3.066672e-001
40951068.000	-9.494104e-001	-3.067614e-001
40957062.000	-9.493724e-001	-3.066159e-001
40963056.000	-9.492981e-001	-3.066487e-001
40969050.000	-9.493414e-001	-3.067024e-001
40975044.000	-9.494247e-001	-3.064406e-001
40981038.000	-9.493742e-001	-3.063580e-001
40987032.000	-9.495148e-001	-3.064923e-001
40993026.000	-9.494129e-001	-3.064241e-001
40999020.000	-9.495292e-001	-3.063353e-001
41005014.000	-9.495637e-001	-3.062355e-001
41011008.000	-9.495338e-001	-3.061526e-001
41017002.000	-9.494650e-001	-3.062150e-001
41022996.000	-9.495669e-001	-3.062367e-001
41028990.000	-9.496223e-001	-3.062783e-001
41034984.000	-9.495455e-001	-3.060454e-001
41040978.000	-9.496272e-001	-3.061682e-001
41046972.000	-9.495355e-001	-3.059683e-001
41052966.000	-9.497386e-001	-3.060900e-001
41058960.000	-9.497023e-001	-3.060061e-001
41064954.000	-9.495259e-001	-3.058384e-001
41070948.000	-9.497607e-001	-3.058129e-001
41076942.000	-9.496113e-001	-3.057430e-001
41082936.000	-9.496560e-001	-3.057944e-001
41088930.000	-9.496256e-001	-3.057724e-001
41094924.000	-9.497728e-001	-3.057344e-001
41100918.000	-9.497384e-001	-3.056859e-001
41106912.000	-9.496696e-001	-3.056499e-001
41112906.000	-9.497068e-001	-3.056279e-001
41118900.000	-9.497375e-001	-3.054205e-001
41124894.000	-9.497090e-001	-3.054546e-001
41130888.000	-9.497860e-001	-3.053875e-001
41136882.000	-9.498277e-001	-3.054508e-001
41142876.000	-9.498077e-001	-3.052853e-001
41148870.000	-9.498021e-001	-3.053256e-001
41154864.000	-9.498786e-001	-3.053345e-001
41160858.000	-9.498949e-001	-3.052509e-001
41166852.000	-9.499182e-001	-3.050871e-001
41172846.000	-9.499133e-001	-3.051394e-001
41178840.000	-9.498904e-001	-3.051078e-001
41184834.000	-9.498653e-001	-3.049609e-001
41190828.000	-9.499073e-001	-3.050923e-001
41196822.000	-9.499647e-001	-3.049752e-001
41202816.000	-9.499838e-001	-3.048639e-001
41208810.000	-9.498675e-001	-3.048785e-001
41214804.000	-9.499550e-001	-3.048526e-001
41220798.000	-9.500838e-001	-3.048211e-001
41226792.000	-9.499926e-001	-3.047662e-001
41232786.000	-9.500548e-001	-3.047189e-001
41238780.000	-9.500306e-001	-3.046861e-001
41244774.000	-9.500445e-001	-3.045732e-001
41250768.000	-9.500760e-001	-3.044506e-001
41256762.000	-9.501129e-001	-3.045225e-001
41262756.000	-9.500307e-001	-3.044392e-001
41268750.000	-9.501548e-001	-3.043893e-001
41274744.000	-9.501107e-001	-3.042937e-001
41280738.000	-9.501642e-001	-3.043313e-001
41286732.000	-9.500107e-001	-3.042623e-001
41292726.000	-9.501632e-001	-3.043277e-001
41298720.000	-9.501196e-001	-3.041744e-001
41304714.000	-9.501761e-001	-3.041142e-001
41310708.000	-9.502078e-001	-3.040451e-001
41316702.000	-9.501157e-001	-3.041326e-001
41322696.000	-9.502543e-001	-3.039471e-001
41328690.000	-9.502975e-001	-3.039317e-001
41334684.000	-9.503469e-001	-3.039578e-001
41340678.000	-9.502388e-001	-3.038779e-001
41346672.000	-9.503122e-001	-3.037577e-001
41352666.000	-9.502828e-001	-3.038036e-001
41358660.000	-9.503787e-001	-3.037765e-001
41364654.000	-9.503649e-001	-3.036966e-001
41370648.000	-9.503813e-001	-3.038046e-001
41376642.000	-9.503438e-001	-3.037189e-001
41382636.000	-9.504190e-001	-3.037326e-001
41388630.000	-9.504700e-001	-3.035601e-001
41394624.000	-9.504863e-001	-3.035283e-001
41400618.000	-9.504377e-001	-3.035541e-001
41406612.000	-9.504683e-001	-3.035613e-001
41412606.000	-9.505324e-001	-3.034601e-001
41418600.000	-9.505611e-001	-3.034835e-001
41424594.000	-9.505053e-001	-3.033473e-001
41430588.000	-9.505287e-001	-3.032662e-001
41436582.000	-9.505267e-001	-3.031527e-001
41442576.000	-9.504551e-001	-3.030682e-001
41448570.000	-9.505920e-001	-3.031212e-001
41454564.000	-9.505977e-001	-3.030192e-001
41460558.000	-9.506535e-001	-3.029855e-001
41466552.000	-9.505416e-001	-3.029333e-001
41472546.000	-9.505829e-001	-3.029395e-001
41478540.000	-9.505454e-001	-3.028856e-001
41484534.000	-9.507075e-001	-3.029816e-001
41490528.000	-9.505871e-001	-3.028343e-001
41496522.000	-9.505879e-001	-3.027761e-001
41502516.000	-9.506649e-001	-3.028964e-001
41508510.000	-9.507007e-001	-3.027090e-001
41514504.000	-9.506780e-001	-3.027552e-001
41520498.000	-9.507355e-001	-3.026704e-001
41526492.000	-9.507916e-001	-3.026720e-001
41532486.000	-9.506791e-001	-3.025917e-001
41538480.000	-9.506825e-001	-3.024523e-001
41544474.000	-9.508461e-001	-3.024318e-001
41550468.000	-9.508151e-001	-3.024867e-001
41556462.000	-9.507060e-001	-3.024639e-001
41562456.000	-9.507914e-001	-3.024724e-001
41568450.000	-9.507653e-001	-3.023046e-001
41574444.000	-9.507604e-001	-3.022421e-001
41580438.000	-9.508439e-001	-3.022584e-001
41586432.000	-9.508845e-001	-3.022588e-001
41592426.000	-9.508271e-001	-3.020454e-001
41598420.000	-9.508582e-001	-3.021340e-001
41604414.000	-9.508040e-001	-3.020292e-001
41610408.000	-9.508840e-001	-3.020494e-001
41616402.000	-9.508702e-001	-3.019834e-001
41622396.000	-9.510508e-001	-3.019233e-001
41628390.000	-9.509363e-001	-3.019170e-001
41634384.000	-9.509556e-001	-3.019335e-001
41640378.000	-9.510572e-001	-3.018754e-001
41646372.000	-9.510257e-001	-3.017403e-001
41652366.000	-9.509234e-001	-3.017440e-001
41658360.000	-9.509488e-001	-3.017857e-001
41664354.000	-9.509615e-001	-3.016947e-001
41670348.000	-9.510017e-001	-3.015349e-001
41676342.000	-9.510496e-001	-3.015736e-001
41682336.000	-9.510479e-001	-3.014971e-001
41688330.000	-9.510094e-001	-3.014842e-001
41694324.000	-9.510590e-001	-3.015274e-001
41700318.000	-9.511397e-001	-3.014530e-001
41706312.000	-9.511878e-001	-3.012967e-001
41712306.000	-9.511536e-001	-3.013560e-001
41718300.000	-9.511709e-001	-3.013025e-001
41724294.000	-9.512060e-001	-3.012590e-001
41730288.000	-9.511373e-001	-3.012461e-001
41736282.000	-9.511050e-001	-3.012514e-001
41742276.000	-9.512561e-001	-3.010587e-001
41748270.000	-9.512847e-001	-3.011129e-001
41754264.000	-9.513198e-001	-3.008971e-001
41760258.000	-9.513218e-001	-3.009385e-001
41766252.000	-9.512662e-001	-3.008460e-001
41772246.000	-9.513565e-001	-3.008664e-001
41778240.000	-9.514129e-001	-3.008589e-001
41784234.000	-9.512920e-001	-3.006779e-001
41790228.000	-9.512420e-001	-3.007977e-001
41796222.000	-9.513487e-001	-3.006894e-001
41802216.000	-9.514043e-001	-3.006890e-001
41808210.000	-9.512302e-001	-3.006364e-001
41814204.000	-9.512806e-001	-3.006071e-001
41820198.000	-9.513093e-001	-3.004134e-001
41826192.000	-9.514309e-001	-3.004145e-001
41832186.000	-9.514587e-001	-3.004952e-001
41838180.000	-9.513727e-001	-3.003579e-001
41844174.000	-9.513849e-001	-3.004278e-001
41850168.000	-9.514372e-001	-3.004085e-001
41856162.000	-9.514762e-001	-3.002783e-001
41862156.000	-9.514887e-001	-3.002500e-001
41868150.000	-9.514195e-001	-3.002859e-001
41874144.000	-9.515960e-001	-3.002498e-001
41880138.000	-9.514803e-001	-3.002097e-001
41886132.000	-9.515437e-001	-3.002202e-001
41892126.000	-9.516181e-001	-3.000033e-001
41898120.000	-9.515244e-001	-3.000073e-001
41904114.000	-9.516378e-001	-3.000016e-001
41910108.000	-9.516390e-001	-3.000507e-001
41916102.000	-9.516978e-001	-2.999444e-001
41922096.000	-9.516862e-001	-3.000251e-001
41928090.000	-9.516981e-001	-2.998914e-001
41934084.000	-9.517015e-001	-2.997193e-001
41940078.000	-9.516645e-001	-2.997353e-001
41946072.000	-9.516485e-001	-2.997362e-001
41952066.000	-9.517000e-001	-2.995789e-001
41958060.000	-9.517101e-001	-2.996791e-001
41964054.000	-9.518014e-001	-2.994944e-001
41970048.000	-9.516875e-001	-2.994423e-001
41976042.000	-9.517290e-001	-2.994388e-001
41982036.000	-9.518068e-001	-2.994394e-001
41988030.000	-9.517759e-001	-2.993947e-001
41994024.000	-9.518037e-001	-2.993096e-001
42000018.000	-9.518154e-001	-2.991777e-001
42006012.000	-9.518228e-001	-2.992945e-001
42012006.000	-9.518328e-001	-2.992691e-001
42018000.000	-9.518816e-001	-2.992293e-001
42023994.000	-9.518742e-001	-2.991476e-001
42029988.000	-9.519149e-001	-2.990548e-001
42035982.000	-9.519075e-001	-2.989320e-001
42041976.000	-9.518609e-001	-2.989803e-001
42047970.000	-9.519014e-001	-2.989369e-001
42053964.000	-9.519638e-001	-2.989344e-001
42059958.000	-9.519505e-001	-2.989380e-001
42065952.000	-9.519701e-001	-2.988632e-001
42071946.000	-9.519261e-001	-2.988810e-001
42077940.000	-9.518414e-001	-2.987103e-001
42083934.000	-9.519638e-001	-2.987630e-001
42089928.000	-9.519482e-001	-2.987449e-001
42095922.000	-9.518537e-001	-2.986461e-001
42101916.000	-9.519840e-001	-2.985468e-001
42107910.000	-9.520040e-001	-2.985526e-001
42113904.000	-9.519981e-001	-2.984789e-001
42119898.000	-9.520565e-001	-2.983885e-001
42125892.000	-9.520524e-001	-2.984143e-001
42131886.000	-9.521173e-001	-2.983472e-001
42137880.000	-9.520751e-001	-2.984079e-001
42143874.000	-9.521615e-001	-2.983389e-001
42149868.000	-9.521723e-001	-2.982915e-001
42155862.000	-9.521159e-001	-2.982009e-001
42161856.000	-9.521842e-001	-2.981229e-001
42167850.000	-9.522311e-001	-2.982108e-001
42173844.000	-9.521655e-001	-2.981038e-001
42179838.000	-9.521749e-001	-2.982149e-001
42185832.000	-9.522864e-001	-2.980690e-001
42191826.000	-9.521791e-001	-2.979753e-001
42197820.000	-9.521875e-001	-2.978590e-001
42203814.000	-9.521727e-001	-2.978792e-001
42209808.000	-9.523178e-001	-2.979353e-001
42215802.000	-9.521369e-001	-2.978194e-001
42221796.000	-9.522465e-001	-2.978088e-001
42227790.000	-9.522769e-001	-2.976313e-001
42233784.000	-9.522043e-001	-2.977556e-001
42239778.000	-9.522647e-001	-2.977539e-001
42245772.000	-9.522522e-001	-2.975260e-001
42251766.000	-9.523289e-001	-2.974625e-001
42257760.000	-9.523806e-001	-2.976554e-001
42263754.000	-9.524143e-001	-2.974264e-001
42269748.000	-9.524491e-001	-2.974063e-001
42275742.000	-9.524068e-001	-2.974239e-001
42281736.000	-9.523630e-001	-2.972170e-001
42287730.000	-9.524622e-001	-2.972263e-001
42293724.000	-9.523942e-001	-2.971802e-001
42299718.000	-9.524064e-001	-2.971826e-001
42305712.000	-9.523666e-001	-2.970839e-001
42311706.000	-9.524390e-001	-2.970826e-001
42317700.000	-9.524718e-001	-2.971027e-001
42323694.000	-9.524712e-001	-2.971164e-001
42329688.000	-9.524057e-001	-2.970091e-001
42335682.000	-9.524863e-001	-2.969545e-001
42341676.000	-9.524814e-001	-2.969095e-001
42347670.000	-9.525611e-001	-2.968791e-001
42353664.000	-9.524637e-001	-2.968221e-001
42359658.000	-9.525641e-001	-2.968303e-001
42365652.000	-9.525697e-001	-2.967460e-001
42371646.000	-9.525589e-001	-2.966372e-001
42377640.000	-9.525247e-001	-2.964968e-001
42383634.000	-9.525996e-001	-2.965463e-001
42389628.000	-9.526849e-001	-2.966372e-001
42395622.000	-9.525371e-001	-2.965350e-001
42401616.000	-9.524933e-001	-2.964182e-001
42407610.000	-9.525638e-001	-2.963915e-001
42413604.000	-9.526339e-001	-2.964072e-001
42419598.000	-9.526008e-001	-2.962449e-001
42425592.000	-9.527136e-001	-2.962648e-001
42431586.000	-9.526562e-001	-2.961667e-001
42437580.000	-9.528185e-001	-2.961628e-001
42443574.000	-9.527097e-001	-2.961474e-001
42449568.000	-9.527841e-001	-2.961745e-001
42455562.000	-9.527251e-001	-2.960725e-001
42461556.000	-9.527322e-001	-2.960363e-001
42467550.000	-9.528266e-001	-2.960661e-001
42473544.000	-9.527721e-001	-2.959097e-001
42479538.000	-9.527574e-001	-2.959238e-001
42485532.000	-9.529107e-001	-2.958273e-001
42491526.000	-9.528254e-001	-2.960256e-001
42497520.000	-9.530134e-001	-2.959162e-001
42503514.000	-9.527966e-001	-2.957404e-001
42509508.000	-9.530028e-001	-2.957194e-001
42515502.000	-9.528030e-001	-2.957385e-001
42521496.000	-9.529176e-001	-2.955353e-001
42527490.000	-9.529229e-001	-2.955765e-001
42533484.000	-9.529545e-001	-2.955205e-001
42539478.000	-9.529599e-001	-2.954520e-001
42545472.000	-9.529712e-001	-2.954505e-001
42551466.000	-9.529847e-001	-2.954971e-001
42557460.000	-9.529885e-001	-2.954168e-001
42563454.000	-9.531420e-001	-2.954136e-001
42569448.000	-9.528834e-001	-2.953693e-001
42575442.000	-9.530359e-001	-2.952545e-001
42581436.000	-9.530395e-001	-2.952643e-001
42587430.000	-9.530389e-001	-2.951829e-001
42593424.000	-9.530565e-001	-2.951730e-001
42599418.000	-9.530495e-001	-2.951063e-001
42605412.000	-9.531139e-001	-2.950964e-001
42611406.000	-9.530770e-001	-2.950343e-001
42617400.000	-9.531365e-001	-2.949371e-001
42623394.000	-9.530911e-001	-2.949308e-001
42629388.000	-9.531275e-001	-2.948965e-001
42635382.000	-9.531836e-001	-2.948472e-001
42641376.000	-9.531926e-001	-2.948478e-001
42647370.000	-9.532370e-001	-2.948156e-001
42653364.000	-9.531867e-001	-2.947083e-001
42659358.000	-9.532170e-001	-2.946500e-001
42665352.000	-9.531623e-001	-2.945881e-001
42671346.000	-9.532805e-001	-2.946023e-001
42677340.000	-9.531799e-001	-2.945623e-001
42683334.000	-9.532145e-001	-2.946664e-001
42689328.000	-9.532129e-001	-2.944903e-001
42695322.000	-9.531749e-001	-2.944756e-001
42701316.000	-9.532270e-001	-2.944584e-001
42707310.000	-9.533698e-001	-2.943611e-001
42713304.000	-9.532963e-001	-2.942366e-001
42719298.000	-9.533537e-001	-2.942958e-001
42725292.000	-9.533521e-001	-2.942397e-001
42731286.000	-9.532734e-001	-2.942367e-001
42737280.000	-9.532537e-001	-2.941315e-001
42743274.000	-9.534081e-001	-2.941299e-001
42749268.000	-9.533036e-001	-2.941550e-001
42755262.000	-9.534432e-001	-2.940252e-001
42761256.000	-9.533640e-001	-2.939396e-001
42767250.000	-9.534919e-001	-2.940221e-001
42773244.000	-9.534204e-001	-2.939243e-001
42779238.000	-9.534877e-001	-2.938973e-001
42785232.000	-9.534321e-001	-2.938451e-001
42791226.000	-9.535955e-001	-2.937753e-001
42797220.000	-9.536092e-001	-2.938333e-001
42803214.000	-9.535684e-001	-2.937069e-001
42809208.000	-9.535206e-001	-2.936916e-001
42815202.000	-9.536255e-001	-2.936891e-001
42821196.000	-9.536358e-001	-2.936229e-001
42827190.000	-9.534788e-001	-2.935844e-001
42833184.000	-9.536374e-001	-2.934942e-001
42839178.000	-9.535913e-001	-2.935895e-001
42845172.000	-9.535914e-001	-2.934765e-001
42851166.000	-9.535824e-001	-2.934163e-001
42857160.000	-9.535331e-001	-2.933806e-001
42863154.000	-9.536128e-001	-2.933488e-001
42869148.000	-9.536017e-001	-2.931478e-001
42875142.000	-9.537014e-001	-2.932108e-001
42881136.000	-9.537381e-001	-2.932475e-001
42887130.000	-9.535884e-001	-2.931124e-001
42893124.000	-9.536049e-001	-2.930763e-001
42899118.000	-9.537305e-001	-2.930497e-001
42905112.000	-9.536919e-001	-2.930938e-001
42911106.000	-9.536976e-001	-2.929404e-001
42917100.000	-9.537409e-001	-2.929614e-001
42923094.000	-9.537272e-001	-2.928605e-001
42929088.000	-9.537332e-001	-2.929777e-001
42935082.000	-9.537889e-001	-2.929422e-001
42941076.000	-9.537466e-001	-2.928080e-001
42947070.000	-9.538072e-001	-2.928178e-001
42953064.000	-9.537594e-001	-2.927934e-001
42959058.000	-9.537934e-001	-2.926253e-001
42965052.000	-9.538488e-001	-2.926932e-001
42971046.000	-9.538756e-001	-2.924907e-001
42977040.000	-9.537413e-001	-2.925469e-001
42983034.000	-9.537697e-001	-2.925385e-001
42989028.000	-9.539028e-001	-2.924206e-001
42995022.000	-9.537775e-001	-2.924436e-001
43001016.000	-9.538546e-001	-2.922839e-001
43007010.000	-9.539009e-001	-2.923642e-001
43013004.000	-9.539177e-001	-2.922691e-001
43018998.000	-9.539343e-001	-2.922907e-001
43024992.000	-9.539540e-001	-2.922392e-001
43030986.000	-9.539532e-001	-2.922152e-001
43036980.000	-9.538975e-001	-2.921188e-001
43042974.000	-9.540386e-001	-2.921766e-001
43048968.000	-9.540243e-001	-2.920345e-001
43054962.000	-9.540317e-001	-2.920286e-001
43060956.000	-9.540154e-001	-2.919566e-001
43066950.000	-9.541152e-001	-2.919626e-001
43072944.000	-9.540754e-001	-2.919483e-001
43078938.000	-9.541267e-001	-2.918421e-001
43084932.000	-9.539586e-001	-2.918131e-001
43090926.000	-9.540839e-001	-2.917768e-001
43096920.000	-9.541173e-001	-2.917499e-001
43102914.000	-9.541612e-001	-2.917218e-001
43108908.000	-9.540782e-001	-2.916197e-001
43114902.000	-9.541463e-001	-2.917021e-001
43120896.000	-9.541877e-001	-2.915596e-001
43126890.000	-9.542377e-001	-2.915110e-001
43132884.000	-9.541631e-001	-2.914736e-001
43138878.000	-9.542404e-001	-2.915343e-001
43144872.000	-9.541326e-001	-2.914614e-001
43150866.000	-9.542282e-001	-2.913762e-001
43156860.000	-9.541541e-001	-2.913540e-001
43162854.000	-9.542380e-001	-2.913798e-001
43168848.000	-9.541810e-001	-2.912030e-001
43174842.000	-9.543482e-001	-2.911955e-001
43180836.000	-9.543275e-001	-2.911956e-001
43186830.000	-9.543237e-001	-2.911621e-001
43192824.000	-9.543704e-001	-2.911521e-001
43198818.000	-9.544676e-001	-2.910293e-001
43204812.000	-9.543897e-001	-2.910329e-001
43210806.000	-9.543874e-001	-2.911247e-001
43216800.000	-9.544391e-001	-2.910766e-001
43222794.000	-9.544774e-001	-2.910003e-001
43228788.000	-9.544894e-001	-2.908795e-001
43234782.000	-9.543771e-001	-2.908520e-001
43240776.000	-9.543108e-001	-2.907929e-001
43246770.000	-9.544118e-001	-2.906988e-001
43252764.000	-9.544546e-001	-2.907206e-001
43258758.000	-9.544421e-001	-2.906077e-001
43264752.000	-9.543276e-001	-2.905134e-001
43270746.000	-9.544047e-001	-2.905139e-001
43276740.000	-9.543931e-001	-2.905952e-001
43282734.000	-9.544865e-001	-2.905678e-001
43288728.000	-9.545454e-001	-2.903609e-001
43294722.000	-9.544307e-001	-2.904265e-001
43300716.000	-9.544316e-001	-2.904215e-001
43306710.000	-9.545466e-001	-2.903803e-001
43312704.000	-9.545539e-001	-2.902715e-001
43318698.000	-9.545356e-001	-2.903532e-001
43324692.000	-9.545901e-001	-2.902628e-001
43330686.000	-9.546030e-001	-2.901520e-001
43336680.000	-9.545900e-001	-2.901109e-001
43342674.000	-9.545762e-001	-2.901085e-001
43348668.000	-9.547150e-001	-2.899529e-001
43354662.000	-9.546622e-001	-2.899905e-001
43360656.000	-9.546312e-001	-2.899708e-001
43366650.000	-9.546778e-001	-2.899690e-001
43372644.000	-9.547268e-001	-2.899114e-001
43378638.000	-9.547134e-001	-2.898773e-001
43384632.000	-9.548092e-001	-2.898839e-001
43390626.000	-9.548382e-001	-2.897691e-001
43396620.000	-9.548253e-001	-2.898648e-001
43402614.000	-9.547778e-001	-2.898046e-001
43408608.000	-9.548366e-001	-2.896342e-001
43414602.000	-9.547460e-001	-2.896494e-001
43420596.000	-9.547679e-001	-2.894691e-001
43426590.000	-9.547666e-001	-2.895559e-001
43432584.000	-9.547140e-001	-2.896147e-001
43438578.000	-9.548711e-001	-2.895585e-001
43444572.000	-9.548822e-001	-2.895742e-001
43450566.000	-9.548671e-001	-2.895231e-001
43456560.000	-9.548990e-001	-2.894479e-001
43462554.000	-9.548964e-001	-2.893287e-001
43468548.000	-9.548387e-001	-2.892755e-001
43474542.000	-9.549693e-001	-2.892206e-001
43480536.000	-9.549323e-001	-2.892084e-001
43486530.000	-9.549494e-001	-2.891741e-001
43492524.000	-9.548992e-001	-2.891661e-001
43498518.000	-9.549420e-001	-2.891103e-001
43504512.000	-9.548674e-001	-2.890233e-001
43510506.000	-9.549590e-001	-2.890136e-001
43516500.000	-9.549671e-001	-2.889811e-001
43522494.000	-9.549470e-001	-2.890067e-001
43528488.000	-9.549336e-001	-2.889434e-001
43534482.000	-9.549858e-001	-2.888502e-001
43540476.000	-9.551006e-001	-2.888635e-001
43546470.000	-9.550040e-001	-2.888090e-001
43552464.000	-9.550973e-001	-2.887593e-001
43558458.000	-9.550454e-001	-2.887750e-001
43564452.000	-9.550782e-001	-2.886647e-001
43570446.000	-9.549826e-001	-2.885947e-001
43576440.000	-9.550349e-001	-2.886146e-001
43582434.000	-9.550718e-001	-2.885754e-001
43588428.000	-9.551431e-001	-2.886343e-001
43594422.000	-9.552441e-001	-2.885096e-001
43600416.000	-9.551539e-001	-2.885059e-001
43606410.000	-9.551414e-001	-2.884292e-001
43612404.000	-9.551193e-001	-2.883570e-001
43618398.000	-9.552170e-001	-2.884328e-001
43624392.000	-9.552893e-001	-2.883828e-001
43630386.000	-9.551517e-001	-2.882975e-001
43636380.000	-9.551758e-001	-2.881644e-001
43642374.000	-9.552351e-001	-2.881247e-001
43648368.000	-9.552725e-001	-2.880820e-001
43654362.000	-9.553242e-001	-2.880722e-001
43660356.000	-9.551919e-001	-2.880677e-001
43666350.000	-9.553130e-001	-2.880889e-001
43672344.000	-9.553396e-001	-2.880293e-001
43678338.000	-9.552823e-001	-2.880810e-001
43684332.000	-9.552164e-001	-2.879337e-001
43690326.000	-9.554168e-001	-2.879091e-001
43696320.000	-9.552117e-001	-2.878801e-001
43702314.000	-9.553926e-001	-2.879089e-001
43708308.000	-9.553544e-001	-2.878175e-001
43714302.000	-9.553963e-001	-2.876568e-001
43720296.000	-9.554397e-001	-2.876961e-001
43726290.000	-9.553083e-001	-2.875408e-001
43732284.000	-9.553929e-001	-2.876116e-001
43738278.000	-9.554316e-001	-2.876443e-001
43744272.000	-9.555050e-001	-2.874944e-001
43750266.000	-9.553679e-001	-2.874460e-001
43756260.000	-9.554585e-001	-2.873720e-001
43762254.000	-9.554469e-001	-2.874258e-001
43768248.000	-9.554601e-001	-2.874599e-001
43774242.000	-9.555094e-001	-2.873669e-001
43780236.000	-9.554411e-001	-2.871162e-001
43786230.000	-9.555158e-001	-2.873619e-001
43792224.000	-9.555736e-001	-2.873021e-001
43798218.000	-9.555651e-001	-2.870989e-001
43804212.000	-9.555769e-001	-2.871607e-001
43810206.000	-9.554140e-001	-2.871740e-001
43816200.000	-9.556511e-001	-2.870364e-001
43822194.000	-9.554807e-001	-2.868727e-001
43828188.000	-9.555856e-001	-2.870229e-001
43834182.000	-9.555845e-001	-2.870110e-001
43840176.000	-9.556332e-001	-2.869616e-001
43846170.000	-9.555821e-001	-2.868292e-001
43852164.000	-9.555881e-001	-2.868185e-001
43858158.000	-9.555737e-001	-2.867638e-001
43864152.000	-9.557569e-001	-2.866697e-001
43870146.000	-9.556194e-001	-2.866609e-001
43876140.000	-9.557039e-001	-2.866450e-001
43882134.000	-9.556871e-001	-2.866246e-001
43888128.000	-9.557326e-001	-2.866537e-001
43894122.000	-9.557105e-001	-2.864879e-001
43900116.000	-9.556905e-001	-2.864679e-001
43906110.000	-9.557560e-001	-2.865451e-001
43912104.000	-9.557808e-001	-2.864294e-001
43918098.000	-9.557917e-001	-2.864146e-001
43924092.000	-9.557530e-001	-2.863878e-001
43930086.000	-9.558880e-001	-2.864116e-001
43936080.000	-9.558185e-001	-2.863401e-001
43942074.000	-9.558314e-001	-2.862793e-001
43948068.000	-9.558700e-001	-2.862207e-001
43954062.000	-9.558502e-001	-2.862133e-001
43960056.000	-9.559273e-001	-2.860513e-001
43966050.000	-9.558520e-001	-2.860894e-001
43972044.000	-9.557506e-001	-2.860657e-001
43978038.000	-9.559249e-001	-2.860731e-001
43984032.000	-9.558464e-001	-2.860029e-001
43990026.000	-9.558856e-001	-2.859754e-001
43996020.000	-9.559243e-001	-2.858362e-001
44002014.000	-9.559339e-001	-2.857740e-001
44008008.000	-9.559459e-001	-2.858455e-001
44014002.000	-9.558924e-001	-2.858250e-001
44019996.000	-9.559329e-001	-2.856648e-001
44025990.000	-9.559896e-001	-2.856667e-001
44031984.000	-9.558535e-001	-2.855679e-001
44037978.000	-9.560023e-001	-2.856465e-001
44043972.000	-9.561007e-001	-2.855455e-001
44049966.000	-9.560639e-001	-2.855285e-001
44055960.000	-9.560263e-001	-2.855698e-001
44061954.000	-9.561387e-001	-2.853781e-001
44067948.000	-9.560661e-001	-2.853046e-001
44073942.000	-9.560306e-001	-2.854112e-001
44079936.000	-9.560652e-001	-2.853446e-001
44085930.000	-9.561208e-001	-2.852654e-001
44091924.000	-9.561198e-001	-2.852319e-001
44097918.000	-9.561359e-001	-2.852367e-001
44103912.000	-9.560815e-001	-2.851554e-001
44109906.000	-9.561685e-001	-2.852187e-001
44115900.000	-9.561507e-001	-2.849913e-001
44121894.000	-9.561638e-001	-2.850179e-001
44127888.000	-9.561553e-001	-2.850734e-001
44133882.000	-9.562023e-001	-2.850662e-001
44139876.000	-9.562490e-001	-2.849748e-001
44145870.000	-9.562271e-001	-2.849318e-001
44151864.000	-9.562353e-001	-2.850042e-001
44157858.000	-9.562622e-001	-2.848394e-001
44163852.000	-9.562409e-001	-2.849092e-001
44169846.000	-9.562570e-001	-2.848855e-001
44175840.000	-9.563549e-001	-2.848519e-001
44181834.000	-9.563686e-001	-2.847128e-001
44187828.000	-9.562414e-001	-2.846991e-001
44193822.000	-9.563183e-001	-2.846807e-001
44199816.000	-9.562646e-001	-2.846187e-001
44205810.000	-9.563096e-001	-2.845874e-001
44211804.000	-9.562542e-001	-2.845900e-001
44217798.000	-9.563217e-001	-2.844150e-001
44223792.000	-9.563978e-001	-2.845291e-001
44229786.000	-9.563056e-001	-2.844918e-001
44235780.000	-9.563261e-001	-2.844972e-001
44241774.000	-9.564296e-001	-2.843610e-001
44247768.000	-9.564082e-001	-2.843487e-001
44253762.000	-9.563160e-001	-2.842950e-001
44259756.000	-9.564564e-001	-2.842037e-001
44265750.000	-9.565600e-001	-2.842819e-001
44271744.000	-9.565495e-001	-2.840596e-001
44277738.000	-9.565584e-001	-2.840404e-001
44283732.000	-9.565089e-001	-2.840417e-001
44289726.000	-9.566088e-001	-2.841123e-001
44295720.000	-9.565689e-001	-2.840183e-001
44301714.000	-9.566001e-001	-2.839878e-001
44307708.000	-9.565964e-001	-2.840452e-001
44313702.000	-9.566013e-001	-2.838824e-001
44319696.000	-9.565527e-001	-2.838228e-001
44325690.000	-9.565295e-001	-2.838765e-001
44331684.000	-9.565096e-001	-2.837841e-001
44337678.000	-9.565430e-001	-2.838653e-001
44343672.000	-9.565780e-001	-2.836709e-001
44349666.000	-9.566656e-001	-2.836863e-001
44355660.000	-9.567316e-001	-2.836173e-001
44361654.000	-9.565815e-001	-2.836462e-001
44367648.000	-9.566411e-001	-2.835745e-001
44373642.000	-9.566957e-001	-2.837166e-001
44379636.000	-9.566658e-001	-2.834841e-001
44385630.000	-9.566391e-001	-2.835373e-001
44391624.000	-9.566601e-001	-2.833943e-001
44397618.000	-9.567744e-001	-2.834163e-001
44403612.000	-9.567314e-001	-2.834537e-001
44409606.000	-9.567756e-001	-2.831841e-001
44415600.000	-9.566944e-001	-2.832501e-001
44421594.000	-9.567121e-001	-2.831456e-001
44427588.000	-9.566902e-001	-2.832566e-001
44433582.000	-9.568417e-001	-2.831406e-001
44439576.000	-9.567959e-001	-2.831733e-001
44445570.000	-9.567582e-001	-2.831532e-001
44451564.000	-9.567423e-001	-2.830219e-001
44457558.000	-9.568243e-001	-2.830559e-001
44463552.000	-9.567945e-001	-2.829894e-001
44469546.000	-9.567816e-001	-2.829744e-001
44475540.000	-9.567054e-001	-2.829589e-001
44481534.000	-9.567819e-001	-2.827334e-001
44487528.000	-9.568637e-001	-2.827665e-001
44493522.000	-9.568801e-001	-2.828456e-001
44499516.000	-9.569530e-001	-2.827259e-001
44505510.000	-9.569545e-001	-2.828407e-001
44511504.000	-9.569010e-001	-2.827226e-001
44517498.000	-9.569300e-001	-2.826213e-001
44523492.000	-9.569106e-001	-2.825619e-001
44529486.000	-9.569930e-001	-2.825233e-001
44535480.000	-9.569781e-001	-2.826793e-001
44541474.000	-9.568836e-001	-2.825435e-001
44547468.000	-9.570063e-001	-2.824964e-001
44553462.000	-9.570723e-001	-2.822505e-001
44559456.000	-9.569538e-001	-2.823236e-001
44565450.000	-9.568924e-001	-2.824088e-001
44571444.000	-9.570246e-001	-2.821691e-001
44577438.000	-9.569858e-001	-2.822768e-001
44583432.000	-9.570703e-001	-2.822962e-001
44589426.000	-9.571331e-001	-2.822478e-001
44595420.000	-9.570553e-001	-2.821724e-001
44601414.000	-9.571387e-001	-2.822593e-001
44607408.000	-9.571023e-001	-2.821542e-001
44613402.000	-9.570608e-001	-2.820792e-001
44619396.000	-9.571722e-001	-2.820214e-001
44625390.000	-9.571138e-001	-2.820184e-001
44631384.000	-9.570219e-001	-2.819199e-001
44637378.000	-9.570830e-001	-2.819076e-001
44643372.000	-9.570705e-001	-2.817045e-001
44649366.000	-9.570650e-001	-2.817993e-001
44655360.000	-9.571765e-001	-2.818554e-001
44661354.000	-9.571877e-001	-2.817754e-001
44667348.000	-9.572549e-001	-2.818200e-001
44673342.000	-9.572310e-001	-2.816956e-001
44679336.000	-9.572663e-001	-2.816645e-001
44685330.000	-9.572839e-001	-2.816182e-001
44691324.000	-9.573367e-001	-2.814887e-001
44697318.000	-9.572684e-001	-2.814954e-001
44703312.000	-9.572744e-001	-2.814598e-001
44709306.000	-9.572514e-001	-2.814393e-001
44715300.000	-9.572492e-001	-2.813963e-001
44721294.000	-9.573438e-001	-2.814161e-001
44727288.000	-9.572535e-001	-2.813777e-001
44733282.000	-9.572987e-001	-2.813217e-001
44739276.000	-9.573449e-001	-2.811674e-001
44745270.000	-9.573587e-001	-2.812522e-001
44751264.000	-9.573349e-001	-2.810206e-001
44757258.000	-9.573277e-001	-2.811149e-001
44763252.000	-9.573801e-001	-2.810166e-001
44769246.000	-9.573773e-001	-2.810105e-001
44775240.000	-9.574137e-001	-2.811180e-001
44781234.000	-9.573250e-001	-2.809938e-001
44787228.000	-9.575005e-001	-2.809522e-001
44793222.000	-9.574736e-001	-2.809715e-001
44799216.000	-9.574961e-001	-2.809880e-001
44805210.000	-9.574999e-001	-2.809319e-001
44811204.000	-9.574397e-001	-2.809291e-001
44817198.000	-9.575654e-001	-2.806646e-001
44823192.000	-9.574556e-001	-2.807696e-001
44829186.000	-9.575152e-001	-2.805784e-001
44835180.000	-9.575434e-001	-2.806759e-001
44841174.000	-9.575475e-001	-2.807157e-001
44847168.000	-9.575604e-001	-2.806490e-001
44853162.000	-9.576390e-001	-2.806274e-001
44859156.000	-9.575658e-001	-2.806038e-001
44865150.000	-9.576114e-001	-2.805677e-001
44871144.000	-9.575799e-001	-2.804368e-001
44877138.000	-9.576174e-001	-2.803860e-001
44883132.000	-9.576955e-001	-2.804592e-001
44889126.000	-9.576446e-001	-2.804225e-001
44895120.000	-9.577048e-001	-2.803011e-001
44901114.000	-9.577510e-001	-2.803043e-001
44907108.000	-9.577915e-001	-2.802982e-001
44913102.000	-9.575716e-001	-2.802616e-001
44919096.000	-9.578230e-001	-2.802180e-001
44925090.000	-9.577328e-001	-2.801694e-001
44931084.000	-9.577432e-001	-2.800941e-001
44937078.000	-9.577982e-001	-2.800806e-001
44943072.000	-9.577490e-001	-2.800114e-001
44949066.000	-9.578379e-001	-2.801020e-001
44955060.000	-9.576955e-001	-2.799499e-001
44961054.000	-9.577765e-001	-2.799414e-001
44967048.000	-9.576688e-001	-2.798056e-001
44973042.000	-9.577616e-001	-2.798722e-001
44979036.000	-9.577474e-001	-2.799024e-001
44985030.000	-9.577369e-001	-2.798100e-001
44991024.000	-9.577702e-001	-2.796869e-001
44997018.000	-9.578747e-001	-2.797282e-001
45003012.000	-9.578627e-001	-2.797255e-001
45009006.000	-9.579523e-001	-2.796540e-001
45015000.000	-9.578673e-001	-2.796950e-001
45020994.000	-9.578260e-001	-2.795295e-001
45026988.000	-9.577860e-001	-2.795766e-001
45032982.000	-9.579538e-001	-2.794574e-001
45038976.000	-9.578277e-001	-2.795464e-001
45044970.000	-9.579323e-001	-2.793999e-001
45050964.000	-9.579375e-001	-2.792846e-001
45056958.000	-9.579246e-001	-2.794181e-001
45062952.000	-9.579700e-001	-2.791783e-001
45068946.000	-9.579705e-001	-2.792339e-001
45074940.000	-9.579132e-001	-2.792278e-001
45080934.000	-9.580253e-001	-2.792854e-001
45086928.000	-9.579986e-001	-2.790532e-001
45092922.000	-9.580140e-001	-2.792316e-001
45098916.000	-9.580502e-001	-2.791655e-001
45104910.000	-9.580184e-001	-2.791478e-001
45110904.000	-9.581481e-001	-2.791121e-001
45116898.000	-9.580877e-001	-2.789769e-001
45122892.000	-9.579811e-001	-2.788936e-001
45128886.000	-9.580988e-001	-2.790007e-001
45134880.000	-9.580690e-001	-2.788728e-001
45140874.000	-9.580533e-001	-2.788672e-001
45146868.000	-9.581408e-001	-2.788792e-001
45152862.000	-9.581262e-001	-2.786810e-001
45158856.000	-9.581618e-001	-2.787939e-001
45164850.000	-9.581687e-001	-2.787257e-001
45170844.000	-9.579598e-001	-2.785879e-001
45176838.000	-9.582151e-001	-2.786517e-001
45182832.000	-9.581680e-001	-2.785980e-001
45188826.000	-9.581603e-001	-2.785092e-001
45194820.000	-9.581680e-001	-2.785558e-001
45200814.000	-9.581787e-001	-2.783505e-001
45206808.000	-9.580903e-001	-2.784695e-001
45212802.000	-9.582088e-001	-2.784945e-001
45218796.000	-9.582114e-001	-2.783689e-001
45224790.000	-9.583191e-001	-2.782272e-001
45230784.000	-9.583140e-001	-2.783032e-001
45236778.000	-9.582406e-001	-2.782722e-001
45242772.000	-9.582964e-001	-2.781805e-001
45248766.000	-9.582917e-001	-2.781062e-001
45254760.000	-9.584204e-001	-2.782828e-001
45260754.000	-9.583133e-001	-2.780893e-001
45266748.000	-9.583334e-001	-2.780459e-001
45272742.000	-9.582783e-001	-2.780988e-001
45278736.000	-9.583369e-001	-2.780584e-001
45284730.000	-9.583460e-001	-2.779922e-001
45290724.000	-9.585207e-001	-2.780289e-001
45296718.000	-9.583183e-001	-2.779844e-001
45302712.000	-9.583304e-001	-2.778226e-001
45308706.000	-9.583344e-001	-2.779265e-001
45314700.000	-9.583390e-001	-2.777413e-001
45320694.000	-9.583116e-001	-2.776473e-001
45326688.000	-9.584233e-001	-2.776553e-001
45332682.000	-9.584312e-001	-2.776314e-001
45338676.000	-9.583563e-001	-2.775747e-001
45344670.000	-9.584037e-001	-2.775206e-001
45350664.000	-9.584542e-001	-2.775048e-001
45356658.000	-9.584297e-001	-2.774433e-001
45362652.000	-9.585004e-001	-2.773607e-001
45368646.000	-9.584562e-001	-2.774555e-001
45374640.000	-9.584760e-001	-2.773771e-001
45380634.000	-9.584539e-001	-2.774291e-001
45386628.000	-9.585448e-001	-2.772971e-001
45392622.000	-9.584556e-001	-2.773671e-001
45398616.000	-9.585068e-001	-2.773576e-001
45404610.000	-9.585461e-001	-2.772971e-001
45410604.000	-9.585315e-001	-2.771639e-001
45416598.000	-9.585771e-001	-2.771443e-001
45422592.000	-9.586602e-001	-2.771779e-001
45428586.000	-9.586093e-001	-2.770606e-001
45434580.000	-9.585674e-001	-2.770706e-001
45440574.000	-9.586768e-001	-2.770345e-001
45446568.000	-9.586314e-001	-2.769459e-001
45452562.000	-9.587596e-001	-2.770165e-001
45458556.000	-9.587219e-001	-2.769586e-001
45464550.000	-9.586448e-001	-2.768587e-001
45470544.000	-9.586562e-001	-2.767957e-001
45476538.000	-9.587259e-001	-2.768141e-001
45482532.000	-9.586625e-001	-2.768871e-001
45488526.000	-9.586964e-001	-2.767571e-001
45494520.000	-9.586665e-001	-2.767957e-001
45500514.000	-9.588202e-001	-2.767450e-001
45506508.000	-9.587655e-001	-2.765770e-001
45512502.000	-9.587591e-001	-2.765728e-001
45518496.000	-9.587382e-001	-2.764920e-001
45524490.000	-9.586765e-001	-2.764449e-001
45530484.000	-9.587209e-001	-2.765622e-001
45536478.000	-9.588400e-001	-2.765270e-001
45542472.000	-9.587785e-001	-2.764328e-001
45548466.000	-9.587992e-001	-2.762280e-001
45554460.000	-9.588408e-001	-2.762756e-001
45560454.000	-9.589301e-001	-2.762272e-001
45566448.000	-9.588078e-001	-2.762593e-001
45572442.000	-9.588642e-001	-2.762734e-001
45578436.000	-9.588757e-001	-2.762616e-001
45584430.000	-9.589192e-001	-2.763025e-001
45590424.000	-9.589722e-001	-2.761144e-001
45596418.000	-9.589599e-001	-2.761281e-001
45602412.000	-9.589295e-001	-2.760769e-001
45608406.000	-9.588845e-001	-2.759604e-001
45614400.000	-9.588193e-001	-2.760268e-001
45620394.000	-9.589623e-001	-2.759677e-001
45626388.000	-9.587812e-001	-2.757148e-001
45632382.000	-9.589673e-001	-2.759255e-001
45638376.000	-9.589523e-001	-2.758956e-001
45644370.000	-9.589133e-001	-2.757467e-001
45650364.000	-9.589912e-001	-2.757967e-001
45656358.000	-9.590332e-001	-2.756485e-001
45662352.000	-9.589643e-001	-2.757287e-001
45668346.000	-9.589194e-001	-2.756255e-001
45674340.000	-9.590871e-001	-2.756760e-001
45680334.000	-9.590202e-001	-2.755630e-001
45686328.000	-9.590087e-001	-2.757175e-001
45692322.000	-9.591496e-001	-2.755061e-001
45698316.000	-9.591542e-001	-2.755770e-001
45704310.000	-9.590922e-001	-2.755559e-001
45710304.000	-9.591563e-001	-2.753657e-001
45716298.000	-9.591219e-001	-2.752804e-001
45722292.000	-9.591454e-001	-2.752715e-001
45728286.000	-9.591879e-001	-2.753318e-001
45734280.000	-9.591238e-001	-2.753134e-001
45740274.000	-9.591518e-001	-2.753430e-001
45746268.000	-9.591524e-001	-2.752531e-001
45752262.000	-9.592351e-001	-2.752809e-001
45758256.000	-9.591608e-001	-2.751188e-001
45764250.000	-9.591857e-001	-2.751506e-001
45770244.000	-9.593240e-001	-2.751864e-001
45776238.000	-9.591232e-001	-2.750163e-001
45782232.000	-9.591771e-001	-2.750582e-001
45788226.000	-9.593091e-001	-2.750561e-001
45794220.000	-9.591563e-001	-2.749696e-001
45800214.000	-9.592095e-001	-2.749345e-001
45806208.000	-9.593052e-001	-2.750711e-001
45812202.000	-9.593287e-001	-2.749374e-001
45818196.000	-9.592638e-001	-2.749198e-001
45824190.000	-9.593721e-001	-2.748510e-001
45830184.000	-9.593484e-001	-2.748046e-001
45836178.000	-9.592162e-001	-2.746920e-001
45842172.000	-9.593637e-001	-2.746472e-001
45848166.000	-9.593177e-001	-2.746195e-001
45854160.000	-9.593069e-001	-2.745364e-001
45860154.000	-9.594475e-001	-2.744950e-001
45866148.000	-9.593782e-001	-2.743083e-001
45872142.000	-9.593116e-001	-2.743234e-001
45878136.000	-9.593723e-001	-2.742855e-001
45884130.000	-9.594516e-001	-2.744056e-001
45890124.000	-9.593731e-001	-2.743691e-001
45896118.000	-9.593826e-001	-2.743530e-001
45902112.000	-9.592835e-001	-2.743201e-001
45908106.000	-9.592912e-001	-2.742368e-001
45914100.000	-9.594044e-001	-2.742654e-001
45920094.000	-9.595137e-001	-2.740904e-001
45926088.000	-9.594241e-001	-2.741177e-001
45932082.000	-9.594338e-001	-2.740541e-001
45938076.000	-9.594554e-001	-2.739585e-001
45944070.000	-9.596132e-001	-2.739769e-001
45950064.000	-9.594894e-001	-2.740248e-001
45956058.000	-9.595741e-001	-2.739405e-001
45962052.000	-9.594578e-001	-2.739695e-001
45968046.000	-9.595716e-001	-2.738124e-001
45974040.000	-9.595709e-001	-2.738304e-001
45980034.000	-9.595713e-001	-2.738896e-001
45986028.000	-9.596678e-001	-2.737514e-001
45992022.000	-9.594867e-001	-2.737064e-001
45998016.000	-9.596148e-001	-2.737355e-001
46004010.000	-9.596126e-001	-2.737288e-001
46010004.000	-9.597195e-001	-2.738015e-001
46015998.000	-9.596809e-001	-2.736138e-001
46021992.000	-9.596700e-001	-2.735189e-001
46027986.000	-9.596542e-001	-2.735285e-001
46033980.000	-9.597438e-001	-2.735391e-001
46039974.000	-9.597469e-001	-2.735198e-001
46045968.000	-9.597146e-001	-2.735193e-001
46051962.000	-9.596866e-001	-2.733991e-001
46057956.000	-9.597344e-001	-2.732883e-001
46063950.000	-9.596021e-001	-2.732135e-001
46069944.000	-9.597775e-001	-2.732185e-001
46075938.000	-9.597893e-001	-2.732082e-001
46081932.000	-9.596432e-001	-2.731709e-001
46087926.000	-9.597364e-001	-2.731731e-001
46093920.000	-9.598158e-001	-2.731420e-001
46099914.000	-9.597369e-001	-2.731088e-001
46105908.000	-9.597993e-001	-2.729765e-001
46111902.000	-9.597249e-001	-2.729965e-001
46117896.000	-9.598105e-001	-2.730187e-001
46123890.000	-9.599060e-001	-2.729370e-001
46129884.000	-9.597665e-001	-2.729531e-001
46135878.000	-9.597914e-001	-2.729002e-001
46141872.000	-9.598081e-001	-2.729277e-001
46147866.000	-9.598882e-001	-2.729376e-001
46153860.000	-9.598339e-001	-2.727519e-001
46159854.000	-9.598102e-001	-2.727470e-001
46165848.000	-9.598776e-001	-2.727164e-001
46171842.000	-9.598320e-001	-2.726270e-001
46177836.000	-9.600029e-001	-2.726994e-001
46183830.000	-9.598374e-001	-2.726611e-001
46189824.000	-9.598737e-001	-2.724931e-001
46195818.000	-9.599683e-001	-2.725784e-001
46201812.000	-9.598994e-001	-2.723704e-001
46207806.000	-9.599664e-001	-2.724796e-001
46213800.000	-9.599500e-001	-2.725393e-001
46219794.000	-9.598722e-001	-2.723182e-001
46225788.000	-9.600657e-001	-2.723596e-001
46231782.000	-9.599579e-001	-2.722961e-001
46237776.000	-9.599550e-001	-2.722678e-001
46243770.000	-9.599888e-001	-2.722335e-001
46249764.000	-9.600318e-001	-2.722276e-001
46255758.000	-9.600375e-001	-2.722605e-001
46261752.000	-9.600895e-001	-2.720504e-001
46267746.000	-9.600075e-001	-2.721002e-001
46273740.000	-9.600987e-001	-2.720345e-001
46279734.000	-9.599773e-001	-2.719302e-001
46285728.000	-9.600378e-001	-2.719817e-001
46291722.000	-9.600195e-001	-2.720327e-001
46297716.000	-9.600865e-001	-2.719747e-001
46303710.000	-9.601859e-001	-2.718953e-001
46309704.000	-9.599947e-001	-2.718496e-001
46315698.000	-9.601203e-001	-2.717393e-001
46321692.000	-9.600656e-001	-2.716871e-001
46327686.000	-9.600943e-001	-2.717407e-001
46333680.000	-9.601677e-001	-2.717089e-001
46339674.000	-9.600673e-001	-2.717062e-001
46345668.000	-9.601436e-001	-2.716386e-001
46351662.000	-9.601540e-001	-2.717364e-001
46357656.000	-9.602240e-001	-2.716720e-001
46363650.000	-9.601379e-001	-2.715604e-001
46369644.000	-9.601875e-001	-2.715328e-001
46375638.000	-9.602570e-001	-2.715001e-001
46381632.000	-9.601974e-001	-2.715585e-001
46387626.000	-9.604062e-001	-2.714497e-001
46393620.000	-9.603068e-001	-2.714158e-001
46399614.000	-9.602396e-001	-2.713067e-001
46405608.000	-9.602797e-001	-2.712818e-001
46411602.000	-9.602718e-001	-2.713958e-001
46417596.000	-9.603143e-001	-2.713530e-001
46423590.000	-9.603759e-001	-2.711712e-001
46429584.000	-9.603869e-001	-2.712296e-001
46435578.000	-9.603857e-001	-2.712579e-001
46441572.000	-9.602598e-001	-2.711654e-001
46447566.000	-9.602772e-001	-2.710780e-001
46453560.000	-9.604338e-001	-2.710656e-001
46459554.000	-9.603066e-001	-2.710268e-001
46465548.000	-9.602444e-001	-2.708991e-001
46471542.000	-9.603481e-001	-2.708494e-001
46477536.000	-9.602877e-001	-2.708304e-001
46483530.000	-9.604132e-001	-2.707055e-001
46489524.000	-9.603935e-001	-2.707830e-001
46495518.000	-9.603612e-001	-2.707352e-001
46501512.000	-9.605414e-001	-2.707216e-001
46507506.000	-9.603787e-001	-2.706754e-001
46513500.000	-9.603407e-001	-2.705597e-001
46519494.000	-9.603717e-001	-2.705939e-001
46525488.000	-9.604170e-001	-2.705667e-001
46531482.000	-9.604490e-001	-2.705743e-001
46537476.000	-9.604690e-001	-2.705764e-001
46543470.000	-9.604373e-001	-2.705084e-001
46549464.000	-9.604005e-001	-2.704853e-001
46555458.000	-9.604678e-001	-2.704111e-001
46561452.000	-9.605444e-001	-2.704730e-001
46567446.000	-9.605436e-001	-2.704246e-001
46573440.000	-9.604764e-001	-2.702624e-001
46579434.000	-9.605345e-001	-2.702358e-001
46585428.000	-9.605118e-001	-2.701513e-001
46591422.000	-9.605343e-001	-2.702004e-001
46597416.000	-9.606450e-001	-2.702286e-001
46603410.000	-9.605992e-001	-2.701978e-001
46609404.000	-9.606291e-001	-2.701518e-001
46615398.000	-9.605961e-001	-2.700948e-001
46621392.000	-9.606992e-001	-2.701478e-001
46627386.000	-9.604849e-001	-2.700292e-001
46633380.000	-9.605983e-001	-2.700042e-001
46639374.000	-9.606135e-001	-2.699407e-001
46645368.000	-9.606107e-001	-2.699096e-001
46651362.000	-9.606725e-001	-2.699537e-001
46657356.000	-9.607308e-001	-2.698920e-001
46663350.000	-9.607085e-001	-2.698263e-001
46669344.000	-9.606897e-001	-2.697991e-001
46675338.000	-9.606317e-001	-2.696536e-001
46681332.000	-9.607401e-001	-2.697104e-001
46687326.000	-9.608389e-001	-2.697636e-001
46693320.000	-9.606506e-001	-2.695292e-001
46699314.000	-9.607401e-001	-2.695698e-001
46705308.000	-9.607175e-001	-2.694404e-001
46711302.000	-9.607712e-001	-2.695376e-001
46717296.000	-9.607113e-001	-2.695059e-001
46723290.000	-9.608431e-001	-2.694875e-001
46729284.000	-9.607941e-001	-2.694815e-001
46735278.000	-9.607447e-001	-2.693828e-001
46741272.000	-9.608191e-001	-2.694945e-001
46747266.000	-9.608959e-001	-2.694412e-001
46753260.000	-9.608435e-001	-2.693899e-001
46759254.000	-9.609059e-001	-2.692234e-001
46765248.000	-9.608244e-001	-2.692474e-001
46771242.000	-9.608704e-001	-2.691933e-001
46777236.000	-9.608689e-001	-2.692134e-001
46783230.000	-9.609423e-001	-2.690766e-001
46789224.000	-9.608494e-001	-2.691137e-001
46795218.000	-9.609158e-001	-2.691347e-001
46801212.000	-9.608853e-001	-2.691211e-001
46807206.000	-9.609153e-001	-2.690292e-001
46813200.000	-9.609424e-001	-2.689794e-001
46819194.000	-9.609444e-001	-2.690098e-001
46825188.000	-9.609300e-001	-2.688822e-001
46831182.000	-9.608983e-001	-2.689219e-001
46837176.000	-9.609556e-001	-2.688308e-001
46843170.000	-9.609425e-001	-2.687660e-001
46849164.000	-9.609681e-001	-2.687655e-001
46855158.000	-9.610388e-001	-2.687985e-001
46861152.000	-9.610286e-001	-2.687194e-001
46867146.000	-9.609420e-001	-2.687070e-001
46873140.000	-9.611297e-001	-2.685661e-001
46879134.000	-9.610198e-001	-2.685154e-001
46885128.000	-9.611546e-001	-2.686576e-001
46891122.000	-9.611023e-001	-2.686269e-001
46897116.000	-9.611146e-001	-2.684885e-001
46903110.000	-9.610640e-001	-2.686068e-001
46909104.000	-9.611035e-001	-2.684239e-001
46915098.000	-9.610722e-001	-2.685342e-001
46921092.000	-9.610921e-001	-2.683892e-001
46927086.000	-9.611385e-001	-2.683375e-001
46933080.000	-9.611285e-001	-2.683537e-001
46939074.000	-9.611413e-001	-2.681771e-001
46945068.000	-9.611588e-001	-2.682269e-001
46951062.000	-9.611391e-001	-2.682150e-001
46957056.000	-9.612112e-001	-2.682209e-001
46963050.000	-9.611017e-001	-2.681406e-001
46969044.000	-9.611002e-001	-2.680752e-001
46975038.000	-9.612269e-001	-2.681613e-001
46981032.000	-9.612365e-001	-2.679836e-001
46987026.000	-9.612330e-001	-2.680644e-001
46993020.000	-9.612445e-001	-2.680759e-001
46999014.000	-9.613167e-001	-2.679732e-001
47005008.000	-9.612345e-001	-2.679579e-001
47011002.000	-9.613290e-001	-2.679557e-001
47016996.000	-9.612860e-001	-2.679817e-001
47022990.000	-9.613718e-001	-2.677841e-001
47028984.000	-9.613288e-001	-2.677215e-001
47034978.000	-9.613549e-001	-2.678110e-001
47040972.000	-9.612700e-001	-2.676831e-001
47046966.000	-9.613638e-001	-2.675913e-001
47052960.000	-9.612563e-001	-2.674796e-001
47058954.000	-9.613701e-001	-2.675773e-001
47064948.000	-9.614673e-001	-2.676370e-001
47070942.000	-9.613447e-001	-2.675528e-001
47076936.000	-9.613416e-001	-2.675766e-001
47082930.000	-9.613054e-001	-2.674724e-001
47088924.000	-9.613563e-001	-2.674275e-001
47094918.000	-9.612804e-001	-2.675360e-001
47100912.000	-9.614410e-001	-2.674510e-001
47106906.000	-9.614556e-001	-2.673080e-001
47112900.000	-9.615258e-001	-2.673634e-001
47118894.000	-9.614161e-001	-2.674153e-001
47124888.000	-9.615492e-001	-2.672658e-001
47130882.000	-9.615914e-001	-2.672730e-001
47136876.000	-9.614985e-001	-2.672786e-001
47142870.000	-9.615290e-001	-2.671850e-001
47148864.000	-9.614984e-001	-2.671324e-001
47154858.000	-9.615664e-001	-2.670997e-001
47160852.000	-9.615887e-001	-2.671332e-001
47166846.000	-9.615233e-001	-2.670916e-001
47172840.000	-9.615757e-001	-2.668460e-001
47178834.000	-9.616163e-001	-2.669306e-001
47184828.000	-9.615294e-001	-2.669741e-001
47190822.000	-9.615621e-001	-2.667916e-001
47196816.000	-9.615926e-001	-2.668830e-001
47202810.000	-9.616250e-001	-2.667665e-001
47208804.000	-9.615186e-001	-2.668130e-001
47214798.000	-9.615805e-001	-2.667594e-001
47220792.000	-9.615039e-001	-2.666707e-001
47226786.000	-9.615497e-001	-2.666848e-001
47232780.000	-9.615891e-001	-2.666803e-001
47238774.000	-9.616082e-001	-2.666407e-001
47244768.000	-9.617077e-001	-2.665954e-001
47250762.000	-9.616271e-001	-2.665756e-001
47256756.000	-9.616984e-001	-2.665493e-001
47262750.000	-9.615784e-001	-2.663681e-001
47268744.000	-9.616641e-001	-2.664688e-001
47274738.000	-9.617451e-001	-2.665567e-001
47280732.000	-9.617846e-001	-2.664662e-001
47286726.000	-9.617048e-001	-2.665041e-001
47292720.000	-9.617327e-001	-2.663392e-001
47298714.000	-9.618457e-001	-2.664230e-001
47304708.000	-9.617688e-001	-2.663831e-001
47310702.000	-9.618953e-001	-2.662781e-001
47316696.000	-9.618136e-001	-2.662002e-001
47322690.000	-9.617813e-001	-2.661007e-001
47328684.000	-9.617745e-001	-2.660285e-001
47334678.000	-9.616926e-001	-2.660272e-001
47340672.000	-9.618702e-001	-2.660238e-001
47346666.000	-9.616833e-001	-2.660232e-001
47352660.000	-9.618256e-001	-2.659957e-001
47358654.000	-9.618521e-001	-2.659329e-001
47364648.000	-9.619227e-001	-2.659473e-001
47370642.000	-9.618763e-001	-2.658936e-001
47376636.000	-9.618255e-001	-2.658329e-001
47382630.000	-9.618585e-001	-2.658109e-001
47388624.000	-9.618410e-001	-2.657564e-001
47394618.000	-9.618227e-001	-2.657314e-001
47400612.000	-9.619924e-001	-2.655611e-001
47406606.000	-9.619039e-001	-2.656261e-001
47412600.000	-9.619014e-001	-2.655362e-001
47418594.000	-9.620410e-001	-2.655770e-001
47424588.000	-9.619741e-001	-2.655148e-001
47430582.000	-9.620020e-001	-2.655610e-001
47436576.000	-9.619319e-001	-2.654957e-001
47442570.000	-9.619198e-001	-2.654700e-001
47448564.000	-9.619958e-001	-2.653395e-001
47454558.000	-9.619363e-001	-2.653832e-001
47460552.000	-9.620125e-001	-2.653915e-001
47466546.000	-9.620030e-001	-2.654221e-001
47472540.000	-9.619733e-001	-2.653195e-001
47478534.000	-9.620497e-001	-2.655039e-001
47484528.000	-9.620481e-001	-2.653312e-001
47490522.000	-9.620671e-001	-2.652152e-001
47496516.000	-9.620125e-001	-2.651940e-001
47502510.000	-9.619275e-001	-2.650072e-001
47508504.000	-9.620871e-001	-2.651809e-001
47514498.000	-9.621062e-001	-2.649739e-001
47520492.000	-9.620535e-001	-2.650444e-001
47526486.000	-9.619860e-001	-2.650316e-001
47532480.000	-9.620471e-001	-2.649256e-001
47538474.000	-9.620291e-001	-2.649636e-001
47544468.000	-9.620878e-001	-2.649517e-001
47550462.000	-9.621602e-001	-2.649666e-001
47556456.000	-9.620979e-001	-2.648539e-001
47562450.000	-9.621487e-001	-2.647748e-001
47568444.000	-9.620765e-001	-2.647988e-001
47574438.000	-9.621818e-001	-2.647635e-001
47580432.000	-9.621540e-001	-2.646583e-001
47586426.000	-9.622789e-001	-2.647709e-001
47592420.000	-9.622527e-001	-2.645779e-001
47598414.000	-9.621079e-001	-2.646371e-001
47604408.000	-9.622059e-001	-2.646115e-001
47610402.000	-9.621753e-001	-2.645525e-001
47616396.000	-9.621692e-001	-2.645249e-001
47622390.000	-9.622872e-001	-2.645847e-001
47628384.000	-9.622937e-001	-2.645107e-001
47634378.000	-9.622902e-001	-2.643866e-001
47640372.000	-9.622088e-001	-2.643534e-001
47646366.000	-9.622209e-001	-2.643165e-001
47652360.000	-9.622223e-001	-2.642312e-001
47658354.000	-9.622607e-001	-2.643180e-001
47664348.000	-9.622593e-001	-2.642379e-001
47670342.000	-9.623094e-001	-2.640502e-001
47676336.000	-9.622175e-001	-2.640933e-001
47682330.000	-9.623700e-001	-2.641072e-001
47688324.000	-9.622073e-001	-2.640406e-001
47694318.000	-9.623391e-001	-2.640486e-001
47700312.000	-9.623102e-001	-2.641109e-001
47706306.000	-9.624606e-001	-2.640270e-001
47712300.000	-9.622916e-001	-2.639602e-001
47718294.000	-9.624518e-001	-2.639443e-001
47724288.000	-9.624399e-001	-2.638919e-001
47730282.000	-9.624208e-001	-2.638000e-001
47736276.000	-9.624101e-001	-2.639213e-001
47742270.000	-9.624115e-001	-2.638269e-001
47748264.000	-9.623855e-001	-2.637675e-001
47754258.000	-9.623550e-001	-2.637856e-001
47760252.000	-9.625822e-001	-2.637024e-001
47766246.000	-9.624144e-001	-2.636759e-001
47772240.000	-9.625064e-001	-2.635566e-001
47778234.000	-9.624949e-001	-2.634774e-001
47784228.000	-9.624361e-001	-2.635707e-001
47790222.000	-9.625127e-001	-2.634952e-001
47796216.000	-9.625283e-001	-2.635197e-001
47802210.000	-9.627390e-001	-2.634053e-001
47808204.000	-9.625877e-001	-2.636391e-001
47814198.000	-9.625956e-001	-2.634770e-001
47820192.000	-9.624990e-001	-2.634730e-001
47826186.000	-9.625888e-001	-2.635821e-001
47832180.000	-9.625952e-001	-2.634698e-001
47838174.000	-9.625776e-001	-2.633049e-001
47844168.000	-9.626236e-001	-2.633132e-001
47850162.000	-9.626178e-001	-2.631673e-001
47856156.000	-9.625478e-001	-2.633842e-001
47862150.000	-9.626450e-001	-2.631680e-001
47868144.000	-9.626222e-001	-2.630832e-001
47874138.000	-9.626774e-001	-2.631240e-001
47880132.000	-9.627415e-001	-2.631140e-001
47886126.000	-9.626953e-001	-2.629571e-001
47892120.000	-9.626305e-001	-2.629227e-001
47898114.000	-9.627097e-001	-2.629672e-001
47904108.000	-9.626204e-001	-2.629840e-001
47910102.000	-9.626762e-001	-2.627771e-001
47916096.000	-9.625659e-001	-2.628538e-001
47922090.000	-9.626156e-001	-2.628081e-001
47928084.000	-9.627025e-001	-2.627830e-001
47934078.000	-9.626672e-001	-2.625899e-001
47940072.000	-9.626831e-001	-2.627242e-001
47946066.000	-9.627034e-001	-2.626252e-001
47952060.000	-9.626831e-001	-2.626112e-001
47958054.000	-9.625819e-001	-2.626188e-001
47964048.000	-9.627617e-001	-2.625645e-001
47970042.000	-9.628483e-001	-2.625972e-001
47976036.000	-9.626757e-001	-2.623883e-001
47982030.000	-9.626667e-001	-2.625181e-001
47988024.000	-9.627125e-001	-2.625048e-001
47994018.000	-9.627109e-001	-2.623286e-001
48000012.000	-9.627594e-001	-2.624937e-001
48006006.000	-9.627898e-001	-2.623060e-001
48012000.000	-9.628060e-001	-2.624274e-001
48017994.000	-9.627758e-001	-2.624492e-001
48023988.000	-9.628754e-001	-2.623493e-001
48029982.000	-9.628154e-001	-2.623032e-001
48035976.000	-9.628757e-001	-2.622938e-001
48041970.000	-9.629370e-001	-2.621985e-001
48047964.000	-9.629182e-001	-2.622012e-001
48053958.000	-9.629064e-001	-2.620398e-001
48059952.000	-9.629361e-001	-2.621025e-001
48065946.000	-9.629113e-001	-2.621102e-001
48071940.000	-9.628900e-001	-2.620359e-001
48077934.000	-9.629517e-001	-2.620435e-001
48083928.000	-9.628860e-001	-2.619329e-001
48089922.000	-9.628953e-001	-2.618266e-001
48095916.000	-9.629136e-001	-2.618937e-001
48101910.000	-9.628645e-001	-2.618185e-001
48107904.000	-9.630436e-001	-2.618127e-001
48113898.000	-9.629463e-001	-2.617864e-001
48119892.000	-9.629855e-001	-2.617672e-001
48125886.000	-9.630833e-001	-2.617249e-001
48131880.000	-9.630667e-001	-2.616910e-001
48137874.000	-9.629425e-001	-2.615459e-001
48143868.000	-9.630060e-001	-2.616371e-001
48149862.000	-9.630233e-001	-2.615556e-001
48155856.000	-9.630283e-001	-2.616334e-001
48161850.000	-9.629289e-001	-2.615205e-001
48167844.000	-9.630379e-001	-2.614599e-001
48173838.000	-9.630414e-001	-2.614203e-001
48179832.000	-9.630795e-001	-2.615247e-001
48185826.000	-9.631101e-001	-2.613910e-001
48191820.000	-9.631450e-001	-2.615278e-001
48197814.000	-9.631578e-001	-2.613481e-001
48203808.000	-9.632039e-001	-2.613727e-001
48209802.000	-9.630748e-001	-2.613293e-001
48215796.000	-9.631102e-001	-2.612809e-001
48221790.000	-9.631593e-001	-2.611945e-001
48227784.000	-9.631817e-001	-2.611986e-001
48233778.000	-9.631432e-001	-2.611071e-001
48239772.000	-9.632016e-001	-2.609864e-001
48245766.000	-9.631738e-001	-2.610667e-001
48251760.000	-9.631331e-001	-2.609049e-001
48257754.000	-9.631632e-001	-2.609119e-001
48263748.000	-9.632038e-001	-2.609350e-001
48269742.000	-9.631206e-001	-2.609128e-001
48275736.000	-9.632163e-001	-2.609962e-001
48281730.000	-9.631678e-001	-2.608730e-001
48287724.000	-9.631669e-001	-2.607689e-001
48293718.000	-9.631808e-001	-2.607806e-001
48299712.000	-9.631695e-001	-2.607940e-001
48305706.000	-9.633359e-001	-2.607178e-001
48311700.000	-9.632595e-001	-2.606525e-001
48317694.000	-9.632280e-001	-2.606942e-001
48323688.000	-9.632518e-001	-2.605982e-001
48329682.000	-9.632321e-001	-2.605344e-001
48335676.000	-9.632499e-001	-2.605340e-001
48341670.000	-9.631983e-001	-2.604986e-001
48347664.000	-9.633178e-001	-2.604701e-001
48353658.000	-9.632952e-001	-2.604911e-001
48359652.000	-9.633434e-001	-2.604785e-001
48365646.000	-9.632838e-001	-2.602957e-001
48371640.000	-9.633446e-001	-2.601935e-001
48377634.000	-9.632605e-001	-2.601491e-001
48383628.000	-9.633369e-001	-2.601890e-001
48389622.000	-9.633184e-001	-2.602750e-001
48395616.000	-9.633342e-001	-2.602748e-001
48401610.000	-9.634979e-001	-2.602881e-001
48407604.000	-9.633853e-001	-2.600146e-001
48413598.000	-9.634109e-001	-2.601478e-001
48419592.000	-9.633095e-001	-2.599948e-001
48425586.000	-9.633425e-001	-2.600656e-001
48431580.000	-9.633640e-001	-2.599767e-001
48437574.000	-9.634466e-001	-2.599527e-001
48443568.000	-9.634537e-001	-2.599388e-001
48449562.000	-9.634721e-001	-2.599228e-001
48455556.000	-9.635645e-001	-2.598952e-001
48461550.000	-9.634714e-001	-2.599594e-001
48467544.000	-9.634545e-001	-2.598297e-001
48473538.000	-9.635289e-001	-2.598233e-001
48479532.000	-9.635351e-001	-2.597937e-001
48485526.000	-9.634934e-001	-2.595674e-001
48491520.000	-9.635609e-001	-2.597454e-001
48497514.000	-9.635387e-001	-2.595974e-001
48503508.000	-9.634853e-001	-2.596578e-001
48509502.000	-9.635595e-001	-2.595039e-001
48515496.000	-9.635538e-001	-2.595381e-001
48521490.000	-9.635110e-001	-2.595076e-001
48527484.000	-9.635403e-001	-2.595488e-001
48533478.000	-9.635559e-001	-2.594735e-001
48539472.000	-9.636113e-001	-2.594798e-001
48545466.000	-9.636087e-001	-2.595284e-001
48551460.000	-9.636009e-001	-2.594621e-001
48557454.000	-9.636518e-001	-2.593531e-001
48563448.000	-9.636846e-001	-2.593156e-001
48569442.000	-9.635836e-001	-2.593021e-001
48575436.000	-9.636268e-001	-2.592389e-001
48581430.000	-9.636561e-001	-2.592609e-001
48587424.000	-9.636476e-001	-2.591279e-001
48593418.000	-9.636177e-001	-2.592069e-001
48599412.000	-9.636743e-001	-2.591639e-001
48605406.000	-9.636086e-001	-2.591793e-001
48611400.000	-9.636669e-001	-2.590384e-001
48617394.000	-9.636440e-001	-2.590329e-001
48623388.000	-9.636204e-001	-2.589895e-001
48629382.000	-9.637707e-001	-2.589462e-001
48635376.000	-9.637487e-001	-2.589350e-001
48641370.000	-9.637530e-001	-2.588327e-001
48647364.000	-9.637503e-001	-2.588118e-001
48653358.000	-9.637810e-001	-2.588017e-001
48659352.000	-9.637585e-001	-2.588422e-001
48665346.000	-9.637894e-001	-2.586512e-001
48671340.000	-9.637456e-001	-2.588698e-001
48677334.000	-9.636908e-001	-2.585637e-001
48683328.000	-9.637470e-001	-2.586300e-001
48689322.000	-9.637333e-001	-2.585347e-001
48695316.000	-9.638390e-001	-2.586532e-001
48701310.000	-9.637730e-001	-2.584962e-001
48707304.000	-9.637602e-001	-2.584988e-001
48713298.000	-9.636801e-001	-2.583691e-001
48719292.000	-9.638144e-001	-2.584498e-001
48725286.000	-9.638086e-001	-2.583968e-001
48731280.000	-9.638477e-001	-2.584337e-001
48737274.000	-9.638200e-001	-2.584307e-001
48743268.000	-9.638353e-001	-2.583816e-001
48749262.000	-9.638546e-001	-2.583683e-001
48755256.000	-9.639305e-001	-2.583339e-001
48761250.000	-9.639022e-001	-2.581858e-001
48767244.000	-9.639655e-001	-2.581791e-001
48773238.000	-9.639256e-001	-2.581208e-001
48779232.000	-9.639264e-001	-2.580952e-001
48785226.000	-9.640521e-001	-2.581315e-001
48791220.000	-9.639296e-001	-2.580403e-001
48797214.000	-9.638466e-001	-2.581327e-001
48803208.000	-9.639714e-001	-2.580000e-001
48809202.000	-9.639973e-001	-2.580171e-001
48815196.000	-9.639498e-001	-2.578357e-001
48821190.000	-9.640000e-001	-2.579303e-001
48827184.000	-9.639851e-001	-2.578984e-001
48833178.000	-9.640649e-001	-2.578522e-001
48839172.000	-9.640566e-001	-2.577698e-001
48845166.000	-9.641134e-001	-2.576732e-001
48851160.000	-9.639454e-001	-2.577698e-001
48857154.000	-9.639743e-001	-2.577769e-001
48863148.000	-9.640326e-001	-2.575372e-001
48869142.000	-9.640624e-001	-2.575947e-001
48875136.000	-9.641342e-001	-2.575861e-001
48881130.000	-9.641172e-001	-2.575632e-001
48887124.000	-9.641083e-001	-2.575788e-001
48893118.000	-9.640606e-001	-2.574810e-001
48899112.000	-9.641067e-001	-2.574889e-001
48905106.000	-9.641777e-001	-2.574490e-001
48911100.000	-9.641589e-001	-2.573573e-001
48917094.000	-9.641429e-001	-2.573485e-001
48923088.000	-9.642561e-001	-2.572268e-001
48929082.000	-9.641837e-001	-2.574693e-001
48935076.000	-9.641266e-001	-2.574068e-001
48941070.000	-9.642078e-001	-2.571271e-001
48947064.000	-9.641331e-001	-2.572225e-001
48953058.000	-9.641618e-001	-2.572031e-001
48959052.000	-9.641721e-001	-2.572166e-001
48965046.000	-9.641965e-001	-2.572383e-001
48971040.000	-9.642111e-001	-2.572802e-001
48977034.000	-9.642116e-001	-2.570868e-001
48983028.000	-9.641499e-001	-2.571623e-001
48989022.000	-9.642917e-001	-2.570990e-001
48995016.000	-9.642842e-001	-2.570779e-001
49001010.000	-9.640753e-001	-2.569474e-001
49007004.000	-9.641722e-001	-2.569831e-001
49012998.000	-9.643350e-001	-2.570025e-001
49018992.000	-9.643089e-001	-2.570283e-001
49024986.000	-9.642525e-001	-2.568495e-001
49030980.000	-9.642017e-001	-2.567071e-001
49036974.000	-9.642739e-001	-2.566868e-001
49042968.000	-9.642927e-001	-2.566868e-001
49048962.000	-9.643384e-001	-2.567043e-001
49054956.000	-9.642769e-001	-2.567390e-001
49060950.000	-9.643123e-001	-2.566517e-001
49066944.000	-9.643027e-001	-2.565448e-001
49072938.000	-9.643163e-001	-2.565569e-001
49078932.000	-9.643558e-001	-2.566951e-001
49084926.000	-9.643180e-001	-2.566230e-001
49090920.000	-9.643442e-001	-2.564726e-001
49096914.000	-9.643485e-001	-2.564376e-001
49102908.000	-9.643810e-001	-2.563952e-001
49108902.000	-9.644019e-001	-2.562249e-001
49114896.000	-9.643818e-001	-2.564436e-001
49120890.000	-9.643498e-001	-2.562788e-001
49126884.000	-9.643946e-001	-2.562791e-001
49132878.000	-9.643603e-001	-2.562124e-001
49138872.000	-9.644291e-001	-2.562531e-001
49144866.000	-9.644326e-001	-2.561526e-001
49150860.000	-9.644459e-001	-2.560776e-001
49156854.000	-9.644238e-001	-2.560373e-001
49162848.000	-9.644545e-001	-2.562119e-001
49168842.000	-9.643991e-001	-2.560271e-001
49174836.000	-9.644121e-001	-2.560426e-001
49180830.000	-9.646226e-001	-2.560160e-001
49186824.000	-9.644758e-001	-2.560328e-001
49192818.000	-9.645127e-001	-2.559689e-001
49198812.000	-9.644693e-001	-2.559734e-001
49204806.000	-9.644871e-001	-2.559277e-001
49210800.000	-9.645520e-001	-2.558185e-001
49216794.000	-9.645404e-001	-2.557403e-001
49222788.000	-9.645389e-001	-2.557855e-001
49228782.000	-9.645072e-001	-2.558011e-001
49234776.000	-9.645201e-001	-2.556987e-001
49240770.000	-9.645305e-001	-2.556351e-001
49246764.000	-9.645287e-001	-2.555911e-001
49252758.000	-9.645159e-001	-2.556090e-001
49258752.000	-9.643767e-001	-2.555554e-001
49264746.000	-9.645705e-001	-2.556820e-001
49270740.000	-9.645557e-001	-2.556286e-001
49276734.000	-9.646430e-001	-2.555807e-001
49282728.000	-9.645256e-001	-2.554902e-001
49288722.000	-9.645443e-001	-2.554088e-001
49294716.000	-9.645932e-001	-2.554324e-001
49300710.000	-9.647247e-001	-2.552949e-001
49306704.000	-9.646411e-001	-2.553654e-001
49312698.000	-9.645799e-001	-2.552227e-001
49318692.000	-9.645827e-001	-2.552916e-001
49324686.000	-9.646245e-001	-2.552083e-001
49330680.000	-9.646098e-001	-2.553223e-001
49336674.000	-9.646224e-001	-2.552347e-001
49342668.000	-9.646718e-001	-2.551560e-001
49348662.000	-9.646890e-001	-2.551194e-001
49354656.000	-9.646817e-001	-2.550912e-001
49360650.000	-9.647013e-001	-2.550722e-001
49366644.000	-9.647129e-001	-2.549955e-001
49372638.000	-9.647006e-001	-2.549991e-001
49378632.000	-9.648004e-001	-2.550394e-001
49384626.000	-9.646620e-001	-2.548413e-001
49390620.000	-9.647103e-001	-2.549141e-001
49396614.000	-9.648276e-001	-2.549458e-001
49402608.000	-9.647812e-001	-2.548419e-001
49408602.000	-9.647969e-001	-2.547872e-001
49414596.000	-9.647900e-001	-2.548182e-001
49420590.000	-9.648133e-001	-2.547871e-001
49426584.000	-9.647792e-001	-2.547467e-001
49432578.000	-9.648553e-001	-2.546909e-001
49438572.000	-9.648672e-001	-2.546748e-001
49444566.000	-9.649702e-001	-2.546436e-001
49450560.000	-9.648057e-001	-2.546205e-001
49456554.000	-9.647145e-001	-2.545910e-001
49462548.000	-9.648399e-001	-2.545153e-001
49468542.000	-9.648635e-001	-2.545217e-001
49474536.000	-9.648993e-001	-2.544131e-001
49480530.000	-9.648425e-001	-2.544458e-001
49486524.000	-9.648642e-001	-2.544338e-001
49492518.000	-9.648095e-001	-2.544597e-001
49498512.000	-9.648711e-001	-2.543519e-001
49504506.000	-9.648812e-001	-2.543877e-001
49510500.000	-9.650224e-001	-2.543101e-001
49516494.000	-9.650282e-001	-2.544107e-001
49522488.000	-9.649950e-001	-2.542536e-001
49528482.000	-9.649296e-001	-2.542910e-001
49534476.000	-9.650769e-001	-2.542357e-001
49540470.000	-9.649626e-001	-2.540673e-001
49546464.000	-9.649559e-001	-2.541772e-001
49552458.000	-9.649573e-001	-2.540779e-001
49558452.000	-9.650300e-001	-2.541521e-001
49564446.000	-9.649609e-001	-2.540678e-001
49570440.000	-9.649852e-001	-2.540329e-001
49576434.000	-9.650477e-001	-2.540271e-001
49582428.000	-9.649890e-001	-2.540519e-001
49588422.000	-9.651349e-001	-2.540600e-001
49594416.000	-9.651219e-001	-2.539435e-001
49600410.000	-9.651014e-001	-2.539407e-001
49606404.000	-9.650144e-001	-2.538626e-001
49612398.000	-9.650526e-001	-2.538619e-001
49618392.000	-9.651205e-001	-2.537338e-001
49624386.000	-9.651028e-001	-2.537107e-001
49630380.000	-9.651009e-001	-2.537984e-001
49636374.000	-9.652760e-001	-2.537005e-001
49642368.000	-9.651001e-001	-2.537291e-001
49648362.000	-9.651970e-001	-2.536585e-001
49654356.000	-9.651692e-001	-2.536676e-001
49660350.000	-9.652161e-001	-2.535242e-001
49666344.000	-9.651066e-001	-2.534229e-001
49672338.000	-9.651253e-001	-2.535460e-001
49678332.000	-9.651906e-001	-2.535648e-001
49684326.000	-9.651840e-001	-2.535591e-001
49690320.000	-9.651396e-001	-2.534560e-001
49696314.000	-9.652582e-001	-2.534826e-001
49702308.000	-9.651891e-001	-2.534447e-001
49708302.000	-9.652739e-001	-2.533146e-001
49714296.000	-9.652147e-001	-2.533081e-001
49720290.000	-9.653215e-001	-2.533991e-001
49726284.000	-9.653043e-001	-2.533285e-001
49732278.000	-9.652579e-001	-2.533068e-001
49738272.000	-9.652407e-001	-2.531604e-001
49744266.000	-9.652228e-001	-2.531734e-001
49750260.000	-9.652962e-001	-2.531152e-001
49756254.000	-9.652608e-001	-2.531087e-001
49762248.000	-9.652753e-001	-2.530199e-001
49768242.000	-9.651747e-001	-2.529492e-001
49774236.000	-9.652020e-001	-2.530034e-001
49780230.000	-9.652894e-001	-2.530458e-001
49786224.000	-9.652668e-001	-2.530395e-001
49792218.000	-9.653748e-001	-2.529463e-001
49798212.000	-9.652132e-001	-2.529316e-001
49804206.000	-9.652935e-001	-2.528972e-001
49810200.000	-9.654151e-001	-2.529790e-001
49816194.000	-9.653228e-001	-2.527027e-001
49822188.000	-9.653622e-001	-2.527751e-001
49828182.000	-9.654098e-001	-2.527550e-001
49834176.000	-9.653628e-001	-2.526339e-001
49840170.000	-9.653719e-001	-2.527004e-001
49846164.000	-9.653783e-001	-2.525517e-001
49852158.000	-9.653958e-001	-2.526589e-001
49858152.000	-9.654328e-001	-2.526604e-001
49864146.000	-9.655093e-001	-2.526067e-001
49870140.000	-9.654128e-001	-2.526277e-001
49876134.000	-9.655148e-001	-2.524632e-001
49882128.000	-9.653859e-001	-2.523790e-001
49888122.000	-9.655363e-001	-2.525012e-001
49894116.000	-9.656080e-001	-2.524231e-001
49900110.000	-9.654524e-001	-2.523682e-001
49906104.000	-9.655642e-001	-2.524021e-001
49912098.000	-9.657069e-001	-2.522762e-001
49918092.000	-9.655697e-001	-2.523598e-001
49924086.000	-9.654810e-001	-2.520728e-001
49930080.000	-9.654930e-001	-2.522226e-001
49936074.000	-9.655416e-001	-2.521561e-001
49942068.000	-9.655363e-001	-2.522380e-001
49948062.000	-9.656188e-001	-2.521966e-001
49954056.000	-9.654979e-001	-2.521721e-001
49960050.000	-9.655714e-001	-2.519934e-001
49966044.000	-9.655095e-001	-2.519488e-001
49972038.000	-9.656084e-001	-2.519708e-001
49978032.000	-9.655628e-001	-2.520018e-001
49984026.000	-9.656035e-001	-2.520251e-001
49990020.000	-9.654887e-001	-2.519059e-001
49996014.000	-9.656205e-001	-2.517751e-001
50002008.000	-9.656160e-001	-2.519188e-001
50008002.000	-9.656855e-001	-2.518372e-001
50013996.000	-9.657151e-001	-2.517791e-001
50019990.000	-9.656450e-001	-2.518447e-001
50025984.000	-9.656863e-001	-2.516469e-001
50031978.000	-9.656764e-001	-2.517594e-001
50037972.000	-9.656519e-001	-2.516396e-001
50043966.000	-9.657581e-001	-2.515421e-001
50049960.000	-9.656569e-001	-2.515697e-001
50055954.000	-9.655385e-001	-2.515560e-001
50061948.000	-9.657031e-001	-2.514938e-001
50067942.000	-9.657813e-001	-2.515101e-001
50073936.000	-9.657159e-001	-2.515402e-001
50079930.000	-9.657425e-001	-2.514484e-001
50085924.000	-9.657102e-001	-2.515340e-001
50091918.000	-9.657075e-001	-2.513571e-001
50097912.000	-9.657250e-001	-2.514176e-001
50103906.000	-9.658444e-001	-2.512511e-001
50109900.000	-9.657122e-001	-2.512149e-001
50115894.000	-9.658022e-001	-2.512817e-001
50121888.000	-9.656936e-001	-2.512450e-001
50127882.000	-9.657969e-001	-2.510974e-001
50133876.000	-9.658794e-001	-2.512630e-001
50139870.000	-9.657741e-001	-2.511119e-001
50145864.000	-9.659197e-001	-2.511748e-001
50151858.000	-9.658391e-001	-2.511099e-001
50157852.000	-9.659187e-001	-2.510300e-001
50163846.000	-9.658753e-001	-2.509791e-001
50169840.000	-9.657587e-001	-2.509355e-001
50175834.000	-9.658576e-001	-2.510268e-001
50181828.000	-9.659099e-001	-2.510115e-001
50187822.000	-9.658918e-001	-2.509183e-001
50193816.000	-9.658242e-001	-2.507695e-001
50199810.000	-9.658093e-001	-2.507684e-001
50205804.000	-9.658709e-001	-2.508369e-001
50211798.000	-9.658681e-001	-2.508419e-001
50217792.000	-9.659191e-001	-2.507539e-001
50223786.000	-9.658662e-001	-2.507524e-001
50229780.000	-9.659157e-001	-2.507322e-001
50235774.000	-9.659399e-001	-2.507016e-001
50241768.000	-9.659437e-001	-2.506086e-001
50247762.000	-9.659139e-001	-2.506160e-001
50253756.000	-9.660211e-001	-2.504727e-001
50259750.000	-9.659367e-001	-2.506574e-001
50265744.000	-9.660539e-001	-2.505616e-001
50271738.000	-9.660163e-001	-2.505649e-001
50277732.000	-9.659462e-001	-2.504761e-001
50283726.000	-9.660515e-001	-2.504492e-001
50289720.000	-9.660074e-001	-2.505317e-001
50295714.000	-9.659550e-001	-2.503647e-001
50301708.000	-9.659289e-001	-2.502689e-001
50307702.000	-9.659415e-001	-2.503725e-001
50313696.000	-9.660797e-001	-2.503379e-001
50319690.000	-9.660780e-001	-2.502226e-001
50325684.000	-9.661056e-001	-2.502962e-001
50331678.000	-9.659923e-001	-2.500940e-001
50337672.000	-9.661254e-001	-2.502579e-001
50343666.000	-9.661501e-001	-2.501214e-001
50349660.000	-9.660657e-001	-2.501190e-001
50355654.000	-9.662136e-001	-2.500863e-001
50361648.000	-9.661228e-001	-2.500760e-001
50367642.000	-9.661530e-001	-2.500330e-001
50373636.000	-9.660341e-001	-2.499084e-001
50379630.000	-9.661240e-001	-2.500716e-001
50385624.000	-9.661174e-001	-2.498477e-001
50391618.000	-9.660507e-001	-2.499055e-001
50397612.000	-9.661018e-001	-2.500287e-001
50403606.000	-9.662073e-001	-2.498546e-001
50409600.000	-9.661856e-001	-2.499090e-001
50415594.000	-9.661094e-001	-2.498505e-001
50421588.000	-9.661872e-001	-2.497667e-001
50427582.000	-9.663052e-001	-2.497984e-001
50433576.000	-9.662673e-001	-2.498191e-001
50439570.000	-9.663729e-001	-2.497950e-001
50445564.000	-9.662206e-001	-2.496143e-001
50451558.000	-9.662358e-001	-2.496447e-001
50457552.000	-9.661960e-001	-2.495978e-001
50463546.000	-9.662607e-001	-2.497370e-001
50469540.000	-9.661902e-001	-2.496652e-001
50475534.000	-9.662416e-001	-2.495506e-001
50481528.000	-9.663001e-001	-2.495986e-001
50487522.000	-9.662861e-001	-2.493624e-001
50493516.000	-9.663448e-001	-2.494387e-001
50499510.000	-9.663243e-001	-2.494635e-001
50505504.000	-9.663151e-001	-2.493620e-001
50511498.000	-9.663136e-001	-2.494293e-001
50517492.000	-9.663259e-001	-2.492689e-001
50523486.000	-9.663600e-001	-2.494211e-001
50529480.000	-9.663131e-001	-2.492347e-001
50535474.000	-9.662840e-001	-2.493361e-001
50541468.000	-9.663825e-001	-2.492131e-001
50547462.000	-9.664426e-001	-2.493254e-001
50553456.000	-9.663248e-001	-2.492525e-001
50559450.000	-9.664272e-001	-2.491686e-001
50565444.000	-9.663723e-001	-2.491354e-001
50571438.000	-9.664528e-001	-2.491395e-001
50577432.000	-9.664559e-001	-2.491062e-001
50583426.000	-9.663554e-001	-2.490259e-001
50589420.000	-9.664048e-001	-2.489778e-001
50595414.000	-9.664787e-001	-2.490478e-001
50601408.000	-9.663225e-001	-2.489721e-001
50607402.000	-9.664491e-001	-2.489458e-001
50613396.000	-9.664047e-001	-2.488524e-001
50619390.000	-9.664576e-001	-2.488570e-001
50625384.000	-9.664124e-001	-2.488111e-001
50631378.000	-9.664358e-001	-2.488166e-001
50637372.000	-9.665627e-001	-2.487185e-001
50643366.000	-9.664837e-001	-2.486861e-001
50649360.000	-9.665024e-001	-2.487191e-001
50655354.000	-9.664422e-001	-2.487169e-001
50661348.000	-9.665805e-001	-2.485639e-001
50667342.000	-9.666311e-001	-2.484638e-001
50673336.000	-9.665096e-001	-2.485002e-001
50679330.000	-9.664871e-001	-2.484841e-001
50685324.000	-9.664666e-001	-2.484146e-001
50691318.000	-9.664473e-001	-2.484413e-001
50697312.000	-9.665168e-001	-2.483866e-001
50703306.000	-9.665883e-001	-2.483291e-001
50709300.000	-9.665829e-001	-2.482993e-001
50715294.000	-9.664922e-001	-2.482446e-001
50721288.000	-9.666632e-001	-2.483264e-001
50727282.000	-9.665065e-001	-2.482110e-001
50733276.000	-9.666145e-001	-2.481528e-001
50739270.000	-9.665804e-001	-2.481640e-001
50745264.000	-9.666030e-001	-2.481176e-001
50751258.000	-9.666339e-001	-2.480772e-001
50757252.000	-9.665674e-001	-2.480005e-001
50763246.000	-9.665770e-001	-2.480256e-001
50769240.000	-9.667023e-001	-2.479869e-001
50775234.000	-9.666787e-001	-2.480076e-001
50781228.000	-9.666444e-001	-2.478626e-001
50787222.000	-9.666546e-001	-2.479840e-001
50793216.000	-9.666601e-001	-2.478593e-001
50799210.000	-9.667571e-001	-2.478136e-001
50805204.000	-9.667301e-001	-2.477580e-001
50811198.000	-9.667062e-001	-2.477915e-001
50817192.000	-9.668080e-001	-2.477398e-001
50823186.000	-9.667303e-001	-2.477120e-001
50829180.000	-9.668447e-001	-2.476640e-001
50835174.000	-9.667008e-001	-2.477081e-001
50841168.000	-9.667269e-001	-2.475398e-001
50847162.000	-9.667075e-001	-2.476978e-001
50853156.000	-9.667794e-001	-2.477576e-001
50859150.000	-9.666900e-001	-2.475438e-001
50865144.000	-9.667992e-001	-2.475368e-001
50871138.000	-9.667423e-001	-2.475537e-001
50877132.000	-9.668374e-001	-2.475672e-001
50883126.000	-9.668375e-001	-2.474921e-001
50889120.000	-9.668364e-001	-2.475681e-001
50895114.000	-9.668208e-001	-2.474238e-001
50901108.000	-9.667899e-001	-2.473964e-001
50907102.000	-9.668337e-001	-2.473624e-001
50913096.000	-9.668277e-001	-2.473704e-001
50919090.000	-9.669421e-001	-2.473655e-001
50925084.000	-9.668769e-001	-2.473469e-001
50931078.000	-9.669149e-001	-2.473268e-001
50937072.000	-9.668780e-001	-2.471978e-001
50943066.000	-9.669049e-001	-2.472573e-001
50949060.000	-9.669164e-001	-2.471267e-001
50955054.000	-9.669885e-001	-2.470807e-001
50961048.000	-9.669294e-001	-2.471910e-001
50967042.000	-9.669381e-001	-2.470689e-001
50973036.000	-9.669555e-001	-2.471424e-001
50979030.000	-9.669445e-001	-2.470823e-001
50985024.000	-9.668699e-001	-2.469696e-001
50991018.000	-9.669036e-001	-2.469487e-001
50997012.000	-9.668880e-001	-2.469438e-001
51003006.000	-9.669173e-001	-2.469482e-001
51009000.000	-9.670027e-001	-2.469960e-001
51014994.000	-9.669009e-001	-2.468541e-001
51020988.000	-9.668407e-001	-2.469066e-001
51026982.000	-9.669670e-001	-2.466663e-001
51032976.000	-9.669591e-001	-2.467666e-001
51038970.000	-9.669376e-001	-2.467881e-001
51044964.000	-9.669384e-001	-2.467442e-001
51050958.000	-9.670485e-001	-2.466491e-001
51056952.000	-9.669791e-001	-2.465499e-001
51062946.000	-9.669498e-001	-2.465382e-001
51068940.000	-9.670869e-001	-2.466219e-001
51074934.000	-9.670173e-001	-2.465717e-001
51080928.000	-9.670732e-001	-2.465784e-001
51086922.000	-9.670534e-001	-2.466373e-001
51092916.000	-9.671391e-001	-2.465452e-001
51098910.000	-9.671353e-001	-2.465315e-001
51104904.000	-9.670386e-001	-2.465700e-001
51110898.000	-9.670807e-001	-2.465112e-001
51116892.000	-9.671872e-001	-2.464368e-001
51122886.000	-9.671028e-001	-2.462630e-001
51128880.000	-9.671075e-001	-2.463710e-001
51134874.000	-9.671734e-001	-2.462998e-001
51140868.000	-9.671872e-001	-2.463479e-001
51146862.000	-9.671166e-001	-2.463388e-001
51152856.000	-9.672064e-001	-2.463066e-001
51158850.000	-9.671228e-001	-2.462148e-001
51164844.000	-9.672514e-001	-2.461710e-001
51170838.000	-9.671681e-001	-2.461577e-001
51176832.000	-9.671923e-001	-2.460621e-001
51182826.000	-9.671878e-001	-2.460261e-001
51188820.000	-9.672261e-001	-2.460380e-001
51194814.000	-9.672185e-001	-2.462218e-001
51200808.000	-9.672359e-001	-2.460205e-001
51206802.000	-9.672307e-001	-2.458617e-001
51212796.000	-9.672026e-001	-2.459580e-001
51218790.000	-9.671898e-001	-2.458078e-001
51224784.000	-9.672757e-001	-2.459039e-001
51230778.000	-9.672912e-001	-2.458893e-001
51236772.000	-9.672530e-001	-2.459388e-001
51242766.000	-9.672307e-001	-2.457102e-001
51248760.000	-9.672086e-001	-2.456840e-001
51254754.000	-9.672954e-001	-2.458138e-001
51260748.000	-9.671887e-001	-2.457250e-001
51266742.000	-9.672767e-001	-2.456683e-001
51272736.000	-9.673422e-001	-2.456684e-001
51278730.000	-9.671979e-001	-2.455275e-001
51284724.000	-9.671927e-001	-2.455651e-001
51290718.000	-9.672979e-001	-2.455240e-001
51296712.000	-9.672901e-001	-2.455026e-001
51302706.000	-9.672268e-001	-2.454206e-001
51308700.000	-9.672848e-001	-2.455235e-001
51314694.000	-9.673375e-001	-2.454191e-001
51320688.000	-9.673778e-001	-2.453307e-001
51326682.000	-9.673065e-001	-2.453722e-001
51332676.000	-9.673325e-001	-2.454479e-001
51338670.000	-9.673675e-001	-2.453347e-001
51344664.000	-9.674546e-001	-2.453450e-001
51350658.000	-9.674016e-001	-2.453121e-001
51356652.000	-9.674366e-001	-2.452305e-001
51362646.000	-9.674442e-001	-2.451414e-001
51368640.000	-9.674374e-001	-2.453836e-001
51374634.000	-9.674143e-001	-2.450503e-001
51380628.000	-9.673544e-001	-2.450370e-001
51386622.000	-9.674640e-001	-2.448952e-001
51392616.000	-9.674373e-001	-2.448324e-001
51398610.000	-9.673841e-001	-2.448653e-001
51404604.000	-9.673384e-001	-2.449345e-001
51410598.000	-9.674308e-001	-2.449113e-001
51416592.000	-9.674260e-001	-2.448175e-001
51422586.000	-9.674375e-001	-2.448930e-001
51428580.000	-9.674375e-001	-2.448906e-001
51434574.000	-9.674136e-001	-2.447454e-001
51440568.000	-9.674811e-001	-2.447740e-001
51446562.000	-9.675500e-001	-2.446761e-001
51452556.000	-9.675177e-001	-2.447786e-001
51458550.000	-9.676003e-001	-2.446535e-001
51464544.000	-9.675606e-001	-2.445248e-001
51470538.000	-9.676116e-001	-2.445665e-001
51476532.000	-9.675648e-001	-2.445789e-001
51482526.000	-9.675474e-001	-2.446764e-001
51488520.000	-9.676001e-001	-2.445224e-001
51494514.000	-9.676410e-001	-2.444852e-001
51500508.000	-9.675296e-001	-2.444225e-001
51506502.000	-9.675445e-001	-2.444855e-001
51512496.000	-9.675685e-001	-2.444805e-001
51518490.000	-9.675111e-001	-2.443805e-001
51524484.000	-9.676022e-001	-2.443454e-001
51530478.000	-9.676775e-001	-2.443235e-001
51536472.000	-9.675675e-001	-2.445250e-001
51542466.000	-9.677399e-001	-2.443366e-001
51548460.000	-9.677077e-001	-2.442561e-001
51554454.000	-9.675248e-001	-2.442521e-001
51560448.000	-9.676264e-001	-2.442377e-001
51566442.000	-9.677392e-001	-2.442803e-001
51572436.000	-9.677309e-001	-2.442070e-001
51578430.000	-9.676580e-001	-2.440703e-001
51584424.000	-9.676316e-001	-2.440168e-001
51590418.000	-9.677322e-001	-2.440998e-001
51596412.000	-9.676589e-001	-2.440456e-001
51602406.000	-9.676848e-001	-2.439671e-001
51608400.000	-9.676467e-001	-2.439031e-001
51614394.000	-9.678334e-001	-2.439632e-001
51620388.000	-9.677725e-001	-2.438531e-001
51626382.000	-9.677258e-001	-2.438220e-001
51632376.000	-9.676958e-001	-2.438456e-001
51638370.000	-9.677860e-001	-2.438882e-001
51644364.000	-9.677595e-001	-2.437192e-001
51650358.000	-9.676852e-001	-2.437257e-001
51656352.000	-9.677383e-001	-2.437637e-001
51662346.000	-9.677463e-001	-2.436970e-001
51668340.000	-9.678028e-001	-2.437206e-001
51674334.000	-9.678663e-001	-2.436633e-001
51680328.000	-9.678182e-001	-2.436350e-001
51686322.000	-9.677686e-001	-2.436031e-001
51692316.000	-9.678250e-001	-2.436535e-001
51698310.000	-9.677396e-001	-2.435683e-001
51704304.000	-9.678136e-001	-2.434839e-001
51710298.000	-9.677912e-001	-2.435213e-001
51716292.000	-9.679267e-001	-2.434495e-001
51722286.000	-9.679518e-001	-2.434814e-001
51728280.000	-9.677907e-001	-2.434929e-001
51734274.000	-9.677792e-001	-2.432336e-001
51740268.000	-9.678891e-001	-2.433807e-001
51746262.000	-9.678515e-001	-2.432601e-001
51752256.000	-9.677373e-001	-2.432949e-001
51758250.000	-9.678837e-001	-2.433123e-001
51764244.000	-9.678651e-001	-2.431862e-001
51770238.000	-9.678942e-001	-2.431837e-001
51776232.000	-9.679463e-001	-2.431602e-001
51782226.000	-9.679830e-001	-2.432494e-001
51788220.000	-9.679337e-001	-2.431028e-001
51794214.000	-9.679312e-001	-2.430352e-001
51800208.000	-9.679504e-001	-2.430533e-001
51806202.000	-9.678928e-001	-2.430053e-001
51812196.000	-9.679227e-001	-2.429645e-001
51818190.000	-9.679198e-001	-2.429196e-001
51824184.000	-9.680113e-001	-2.430307e-001
51830178.000	-9.679643e-001	-2.428494e-001
51836172.000	-9.679805e-001	-2.430440e-001
51842166.000	-9.680831e-001	-2.429161e-001
51848160.000	-9.680095e-001	-2.429583e-001
51854154.000	-9.679088e-001	-2.428400e-001
51860148.000	-9.679944e-001	-2.429266e-001
51866142.000	-9.680620e-001	-2.427950e-001
51872136.000	-9.680085e-001	-2.427330e-001
51878130.000	-9.679215e-001	-2.426865e-001
51884124.000	-9.680387e-001	-2.427821e-001
51890118.000	-9.680317e-001	-2.427368e-001
51896112.000	-9.680850e-001	-2.427708e-001
51902106.000	-9.681658e-001	-2.425876e-001
51908100.000	-9.680699e-001	-2.426210e-001
51914094.000	-9.681666e-001	-2.425939e-001
51920088.000	-9.681077e-001	-2.424725e-001
51926082.000	-9.681050e-001	-2.425084e-001
51932076.000	-9.681050e-001	-2.424340e-001
51938070.000	-9.681558e-001	-2.424660e-001
51944064.000	-9.682025e-001	-2.425657e-001
51950058.000	-9.681969e-001	-2.423953e-001
51956052.000	-9.682098e-001	-2.424082e-001
51962046.000	-9.681643e-001	-2.423525e-001
51968040.000	-9.680975e-001	-2.423122e-001
51974034.000	-9.681004e-001	-2.423426e-001
51980028.000	-9.681836e-001	-2.422487e-001
51986022.000	-9.682234e-001	-2.421123e-001
51992016.000	-9.681726e-001	-2.420315e-001
51998010.000	-9.682321e-001	-2.420018e-001
52004004.000	-9.681956e-001	-2.420984e-001
52009998.000	-9.682577e-001	-2.421056e-001
52015992.000	-9.683524e-001	-2.420875e-001
52021986.000	-9.681859e-001	-2.419794e-001
52027980.000	-9.682823e-001	-2.419682e-001
52033974.000	-9.681562e-001	-2.419666e-001
52039968.000	-9.683182e-001	-2.419984e-001
52045962.000	-9.682774e-001	-2.418595e-001
52051956.000	-9.681801e-001	-2.418850e-001
52057950.000	-9.681607e-001	-2.416696e-001
52063944.000	-9.682667e-001	-2.417211e-001
52069938.000	-9.682798e-001	-2.416925e-001
52075932.000	-9.682016e-001	-2.417041e-001
52081926.000	-9.683067e-001	-2.417703e-001
52087920.000	-9.682641e-001	-2.416874e-001
52093914.000	-9.683457e-001	-2.417691e-001
52099908.000	-9.682853e-001	-2.416665e-001
52105902.000	-9.683671e-001	-2.415915e-001
52111896.000	-9.683589e-001	-2.416447e-001
52117890.000	-9.684084e-001	-2.416049e-001
52123884.000	-9.684331e-001	-2.414739e-001
52129878.000	-9.683965e-001	-2.415489e-001
52135872.000	-9.683362e-001	-2.415760e-001
52141866.000	-9.684766e-001	-2.414309e-001
52147860.000	-9.683645e-001	-2.415575e-001
52153854.000	-9.684045e-001	-2.415380e-001
52159848.000	-9.684752e-001	-2.414943e-001
52165842.000	-9.684472e-001	-2.413050e-001
52171836.000	-9.683503e-001	-2.413109e-001
52177830.000	-9.683936e-001	-2.413484e-001
52183824.000	-9.684375e-001	-2.411533e-001
52189818.000	-9.683504e-001	-2.413411e-001
52195812.000	-9.684332e-001	-2.412936e-001
52201806.000	-9.684175e-001	-2.412956e-001
52207800.000	-9.685644e-001	-2.412320e-001
52213794.000	-9.685227e-001	-2.412171e-001
52219788.000	-9.684776e-001	-2.410560e-001
52225782.000	-9.684998e-001	-2.410056e-001
52231776.000	-9.684489e-001	-2.410298e-001
52237770.000	-9.685247e-001	-2.411582e-001
52243764.000	-9.685771e-001	-2.411717e-001
52249758.000	-9.685480e-001	-2.410553e-001
52255752.000	-9.685499e-001	-2.409957e-001
52261746.000	-9.684876e-001	-2.409303e-001
52267740.000	-9.685520e-001	-2.408924e-001
52273734.000	-9.684162e-001	-2.408866e-001
52279728.000	-9.685051e-001	-2.408878e-001
52285722.000	-9.685476e-001	-2.408878e-001
52291716.000	-9.684590e-001	-2.407428e-001
52297710.000	-9.685396e-001	-2.407485e-001
52303704.000	-9.685864e-001	-2.407305e-001
52309698.000	-9.685369e-001	-2.407073e-001
52315692.000	-9.684870e-001	-2.407164e-001
52321686.000	-9.685910e-001	-2.406016e-001
52327680.000	-9.686338e-001	-2.406210e-001
52333674.000	-9.686964e-001	-2.406213e-001
52339668.000	-9.685674e-001	-2.406151e-001
52345662.000	-9.686380e-001	-2.405197e-001
52351656.000	-9.686347e-001	-2.405928e-001
52357650.000	-9.686171e-001	-2.404922e-001
52363644.000	-9.686330e-001	-2.404613e-001
52369638.000	-9.687032e-001	-2.404494e-001
52375632.000	-9.686152e-001	-2.404122e-001
52381626.000	-9.686404e-001	-2.403496e-001
52387620.000	-9.686037e-001	-2.402514e-001
52393614.000	-9.685979e-001	-2.402611e-001
52399608.000	-9.687240e-001	-2.403092e-001
52405602.000	-9.686669e-001	-2.403010e-001
52411596.000	-9.687585e-001	-2.402878e-001
52417590.000	-9.687513e-001	-2.403123e-001
52423584.000	-9.687591e-001	-2.402763e-001
52429578.000	-9.687759e-001	-2.403531e-001
52435572.000	-9.687439e-001	-2.402183e-001
52441566.000	-9.687212e-001	-2.401405e-001
52447560.000	-9.688037e-001	-2.401708e-001
52453554.000	-9.687423e-001	-2.400281e-001
52459548.000	-9.687986e-001	-2.399983e-001
52465542.000	-9.687396e-001	-2.399940e-001
52471536.000	-9.687662e-001	-2.400154e-001
52477530.000	-9.689121e-001	-2.400316e-001
52483524.000	-9.687901e-001	-2.399258e-001
52489518.000	-9.688025e-001	-2.399369e-001
52495512.000	-9.688633e-001	-2.399493e-001
52501506.000	-9.688521e-001	-2.398805e-001
52507500.000	-9.688350e-001	-2.397886e-001
52513494.000	-9.687680e-001	-2.397891e-001
52519488.000	-9.688594e-001	-2.396589e-001
52525482.000	-9.687968e-001	-2.397079e-001
52531476.000	-9.687769e-001	-2.396633e-001
52537470.000	-9.688849e-001	-2.396678e-001
52543464.000	-9.688915e-001	-2.396413e-001
52549458.000	-9.687845e-001	-2.395775e-001
52555452.000	-9.689340e-001	-2.395793e-001
52561446.000	-9.689127e-001	-2.396361e-001
52567440.000	-9.688987e-001	-2.395350e-001
52573434.000	-9.689375e-001	-2.395117e-001
52579428.000	-9.688867e-001	-2.394304e-001
52585422.000	-9.689022e-001	-2.394152e-001
52591416.000	-9.689293e-001	-2.394514e-001
52597410.000	-9.688928e-001	-2.394177e-001
52603404.000	-9.689053e-001	-2.392025e-001
52609398.000	-9.689221e-001	-2.392469e-001
52615392.000	-9.688362e-001	-2.392600e-001
52621386.000	-9.689802e-001	-2.392672e-001
52627380.000	-9.688742e-001	-2.392897e-001
52633374.000	-9.689026e-001	-2.391776e-001
52639368.000	-9.690636e-001	-2.392407e-001
52645362.000	-9.689891e-001	-2.391536e-001
52651356.000	-9.689258e-001	-2.390738e-001
52657350.000	-9.689557e-001	-2.391278e-001
52663344.000	-9.689060e-001	-2.390034e-001
52669338.000	-9.689796e-001	-2.390164e-001
52675332.000	-9.690025e-001	-2.390710e-001
52681326.000	-9.689343e-001	-2.389659e-001
52687320.000	-9.690125e-001	-2.389723e-001
52693314.000	-9.689449e-001	-2.388816e-001
52699308.000	-9.690660e-001	-2.389234e-001
52705302.000	-9.690763e-001	-2.388190e-001
52711296.000	-9.691317e-001	-2.388696e-001
52717290.000	-9.690542e-001	-2.388639e-001
52723284.000	-9.690692e-001	-2.387852e-001
52729278.000	-9.690919e-001	-2.388281e-001
52735272.000	-9.691071e-001	-2.387539e-001
52741266.000	-9.691347e-001	-2.387964e-001
52747260.000	-9.691587e-001	-2.387517e-001
52753254.000	-9.691058e-001	-2.386351e-001
52759248.000	-9.690890e-001	-2.386540e-001
52765242.000	-9.691071e-001	-2.385188e-001
52771236.000	-9.691115e-001	-2.386321e-001
52777230.000	-9.691387e-001	-2.385834e-001
52783224.000	-9.691388e-001	-2.386209e-001
52789218.000	-9.690789e-001	-2.384812e-001
52795212.000	-9.691652e-001	-2.385274e-001
52801206.000	-9.691069e-001	-2.385775e-001
52807200.000	-9.692890e-001	-2.385032e-001
52813194.000	-9.692108e-001	-2.384295e-001
52819188.000	-9.691736e-001	-2.382545e-001
52825182.000	-9.691184e-001	-2.383281e-001
52831176.000	-9.692382e-001	-2.384345e-001
52837170.000	-9.692074e-001	-2.382411e-001
52843164.000	-9.692958e-001	-2.383158e-001
52849158.000	-9.692850e-001	-2.382201e-001
52855152.000	-9.692497e-001	-2.382452e-001
52861146.000	-9.692779e-001	-2.380917e-001
52867140.000	-9.692853e-001	-2.381842e-001
52873134.000	-9.691956e-001	-2.381780e-001
52879128.000	-9.692080e-001	-2.381564e-001
52885122.000	-9.691978e-001	-2.380907e-001
52891116.000	-9.692508e-001	-2.381128e-001
52897110.000	-9.692743e-001	-2.381255e-001
52903104.000	-9.693161e-001	-2.381183e-001
52909098.000	-9.693226e-001	-2.380028e-001
52915092.000	-9.693820e-001	-2.380071e-001
52921086.000	-9.692837e-001	-2.380046e-001
52927080.000	-9.692714e-001	-2.378200e-001
52933074.000	-9.692948e-001	-2.378088e-001
52939068.000	-9.692984e-001	-2.378192e-001
52945062.000	-9.692369e-001	-2.377775e-001
52951056.000	-9.693141e-001	-2.377090e-001
52957050.000	-9.693257e-001	-2.377281e-001
52963044.000	-9.693580e-001	-2.376271e-001
52969038.000	-9.693236e-001	-2.377256e-001
52975032.000	-9.692771e-001	-2.376581e-001
52981026.000	-9.694161e-001	-2.375470e-001
52987020.000	-9.693595e-001	-2.375706e-001
52993014.000	-9.693798e-001	-2.376129e-001
52999008.000	-9.694366e-001	-2.374649e-001
53005002.000	-9.694582e-001	-2.376082e-001
53010996.000	-9.694370e-001	-2.376100e-001
53016990.000	-9.694466e-001	-2.375410e-001
53022984.000	-9.694686e-001	-2.373639e-001
53028978.000	-9.693488e-001	-2.372585e-001
53034972.000	-9.694724e-001	-2.372373e-001
53040966.000	-9.694048e-001	-2.373060e-001
53046960.000	-9.695196e-001	-2.373924e-001
53052954.000	-9.694754e-001	-2.372282e-001
53058948.000	-9.694534e-001	-2.373413e-001
53064942.000	-9.694511e-001	-2.372634e-001
53070936.000	-9.695328e-001	-2.372525e-001
53076930.000	-9.694890e-001	-2.371711e-001
53082924.000	-9.695281e-001	-2.372099e-001
53088918.000	-9.695809e-001	-2.371266e-001
53094912.000	-9.694606e-001	-2.372906e-001
53100906.000	-9.695634e-001	-2.371442e-001
53106900.000	-9.695944e-001	-2.369731e-001
53112894.000	-9.695770e-001	-2.370301e-001
53118888.000	-9.695105e-001	-2.370324e-001
53124882.000	-9.695320e-001	-2.369678e-001
53130876.000	-9.695180e-001	-2.369603e-001
53136870.000	-9.696394e-001	-2.368353e-001
53142864.000	-9.695784e-001	-2.368788e-001
53148858.000	-9.694611e-001	-2.368559e-001
53154852.000	-9.695798e-001	-2.368081e-001
53160846.000	-9.695807e-001	-2.368094e-001
53166840.000	-9.695693e-001	-2.367652e-001
53172834.000	-9.696213e-001	-2.368196e-001
53178828.000	-9.697223e-001	-2.366453e-001
53184822.000	-9.696743e-001	-2.366690e-001
53190816.000	-9.696389e-001	-2.365816e-001
53196810.000	-9.695728e-001	-2.366235e-001
53202804.000	-9.696500e-001	-2.365742e-001
53208798.000	-9.695954e-001	-2.366574e-001
53214792.000	-9.696366e-001	-2.365997e-001
53220786.000	-9.695842e-001	-2.366284e-001
53226780.000	-9.696487e-001	-2.364635e-001
53232774.000	-9.696713e-001	-2.365395e-001
53238768.000	-9.696786e-001	-2.364377e-001
53244762.000	-9.696340e-001	-2.364362e-001
53250756.000	-9.696431e-001	-2.363739e-001
53256750.000	-9.697140e-001	-2.364006e-001
53262744.000	-9.696712e-001	-2.364630e-001
53268738.000	-9.696424e-001	-2.363232e-001
53274732.000	-9.696294e-001	-2.363141e-001
53280726.000	-9.696798e-001	-2.363412e-001
53286720.000	-9.697244e-001	-2.363050e-001
53292714.000	-9.696814e-001	-2.361655e-001
53298708.000	-9.697180e-001	-2.361228e-001
53304702.000	-9.698137e-001	-2.361749e-001
53310696.000	-9.698018e-001	-2.361714e-001
53316690.000	-9.697771e-001	-2.361095e-001
53322684.000	-9.697950e-001	-2.361282e-001
53328678.000	-9.698084e-001	-2.360528e-001
53334672.000	-9.697921e-001	-2.360363e-001
53340666.000	-9.698414e-001	-2.361093e-001
53346660.000	-9.697856e-001	-2.360642e-001
53352654.000	-9.697690e-001	-2.360463e-001
53358648.000	-9.697837e-001	-2.359568e-001
53364642.000	-9.697333e-001	-2.357457e-001
53370636.000	-9.699670e-001	-2.359391e-001
53376630.000	-9.698195e-001	-2.358090e-001
53382624.000	-9.698708e-001	-2.359484e-001
53388618.000	-9.698833e-001	-2.358113e-001
53394612.000	-9.698474e-001	-2.358439e-001
53400606.000	-9.698088e-001	-2.358378e-001
53406600.000	-9.698493e-001	-2.357088e-001
53412594.000	-9.699790e-001	-2.356874e-001
53418588.000	-9.698967e-001	-2.356223e-001
53424582.000	-9.700144e-001	-2.356808e-001
53430576.000	-9.698642e-001	-2.356125e-001
53436570.000	-9.698005e-001	-2.354592e-001
53442564.000	-9.698593e-001	-2.354403e-001
53448558.000	-9.699418e-001	-2.354505e-001
53454552.000	-9.700102e-001	-2.355673e-001
53460546.000	-9.700055e-001	-2.355797e-001
53466540.000	-9.700495e-001	-2.353838e-001
53472534.000	-9.700130e-001	-2.354455e-001
53478528.000	-9.699122e-001	-2.354522e-001
53484522.000	-9.700806e-001	-2.355097e-001
53490516.000	-9.699029e-001	-2.354614e-001
53496510.000	-9.699346e-001	-2.354025e-001
53502504.000	-9.699267e-001	-2.353485e-001
53508498.000	-9.699831e-001	-2.353404e-001
53514492.000	-9.700000e-001	-2.353448e-001
53520486.000	-9.700550e-001	-2.352157e-001
53526480.000	-9.700455e-001	-2.352330e-001
53532474.000	-9.700665e-001	-2.351891e-001
53538468.000	-9.700803e-001	-2.351175e-001
53544462.000	-9.699281e-001	-2.350851e-001
53550456.000	-9.700267e-001	-2.350961e-001
53556450.000	-9.700587e-001	-2.351028e-001
53562444.000	-9.700806e-001	-2.349666e-001
53568438.000	-9.699663e-001	-2.349146e-001
53574432.000	-9.700699e-001	-2.349476e-001
53580426.000	-9.699852e-001	-2.348412e-001
53586420.000	-9.701525e-001	-2.348449e-001
53592414.000	-9.700871e-001	-2.348554e-001
53598408.000	-9.700559e-001	-2.347594e-001
53604402.000	-9.699509e-001	-2.347480e-001
53610396.000	-9.701262e-001	-2.348907e-001
53616390.000	-9.700514e-001	-2.348312e-001
53622384.000	-9.701015e-001	-2.348749e-001
53628378.000	-9.701122e-001	-2.347683e-001
53634372.000	-9.700220e-001	-2.346182e-001
53640366.000	-9.701058e-001	-2.346288e-001
53646360.000	-9.702147e-001	-2.346034e-001
53652354.000	-9.701515e-001	-2.347164e-001
53658348.000	-9.701681e-001	-2.345646e-001
53664342.000	-9.701706e-001	-2.345865e-001
53670336.000	-9.701582e-001	-2.345808e-001
53676330.000	-9.701669e-001	-2.345990e-001
53682324.000	-9.702483e-001	-2.346154e-001
53688318.000	-9.700581e-001	-2.345505e-001
53694312.000	-9.701496e-001	-2.343969e-001
53700306.000	-9.700834e-001	-2.345440e-001
53706300.000	-9.702203e-001	-2.344282e-001
53712294.000	-9.701486e-001	-2.343397e-001
53718288.000	-9.702100e-001	-2.343766e-001
53724282.000	-9.702728e-001	-2.343467e-001
53730276.000	-9.701834e-001	-2.343815e-001
53736270.000	-9.701590e-001	-2.342249e-001
53742264.000	-9.702414e-001	-2.342449e-001
53748258.000	-9.701777e-001	-2.343526e-001
53754252.000	-9.702058e-001	-2.342945e-001
53760246.000	-9.702681e-001	-2.342892e-001
53766240.000	-9.702374e-001	-2.341153e-001
53772234.000	-9.702386e-001	-2.341452e-001
53778228.000	-9.702390e-001	-2.342025e-001
53784222.000	-9.703769e-001	-2.340519e-001
53790216.000	-9.702740e-001	-2.340632e-001
53796210.000	-9.702674e-001	-2.339965e-001
53802204.000	-9.703373e-001	-2.339966e-001
53808198.000	-9.702002e-001	-2.340344e-001
53814192.000	-9.702372e-001	-2.338702e-001
53820186.000	-9.703365e-001	-2.338834e-001
53826180.000	-9.704033e-001	-2.337920e-001
53832174.000	-9.703533e-001	-2.338654e-001
53838168.000	-9.703593e-001	-2.338969e-001
53844162.000	-9.703043e-001	-2.337965e-001
53850156.000	-9.703504e-001	-2.337928e-001
53856150.000	-9.703335e-001	-2.337417e-001
53862144.000	-9.703732e-001	-2.337486e-001
53868138.000	-9.703989e-001	-2.337773e-001
53874132.000	-9.704578e-001	-2.337749e-001
53880126.000	-9.703678e-001	-2.336800e-001
53886120.000	-9.704368e-001	-2.335985e-001
53892114.000	-9.704999e-001	-2.337004e-001
53898108.000	-9.704106e-001	-2.336716e-001
53904102.000	-9.704219e-001	-2.335865e-001
53910096.000	-9.704258e-001	-2.334851e-001
53916090.000	-9.704562e-001	-2.335137e-001
53922084.000	-9.704462e-001	-2.334904e-001
53928078.000	-9.704830e-001	-2.332955e-001
53934072.000	-9.704140e-001	-2.333595e-001
53940066.000	-9.705122e-001	-2.332985e-001
53946060.000	-9.703700e-001	-2.333364e-001
53952054.000	-9.703335e-001	-2.333407e-001
53958048.000	-9.704134e-001	-2.332664e-001
53964042.000	-9.703929e-001	-2.333279e-001
53970036.000	-9.704902e-001	-2.332618e-001
53976030.000	-9.705463e-001	-2.332258e-001
53982024.000	-9.704032e-001	-2.332266e-001
53988018.000	-9.704208e-001	-2.331419e-001
53994012.000	-9.704507e-001	-2.331575e-001
54000006.000	-9.704684e-001	-2.330819e-001
54006000.000	-9.704048e-001	-2.331218e-001
54011994.000	-9.706678e-001	-2.330431e-001
54017988.000	-9.705530e-001	-2.330457e-001
54023982.000	-9.705640e-001	-2.331307e-001
54029976.000	-9.704979e-001	-2.328717e-001
54035970.000	-9.705911e-001	-2.329219e-001
54041964.000	-9.705730e-001	-2.328525e-001
54047958.000	-9.705368e-001	-2.329275e-001
54053952.000	-9.704740e-001	-2.329005e-001
54059946.000	-9.705438e-001	-2.328652e-001
54065940.000	-9.706254e-001	-2.328365e-001
54071934.000	-9.705557e-001	-2.327908e-001
54077928.000	-9.706302e-001	-2.327545e-001
54083922.000	-9.705722e-001	-2.327099e-001
54089916.000	-9.706116e-001	-2.327345e-001
54095910.000	-9.706172e-001	-2.326031e-001
54101904.000	-9.706153e-001	-2.327258e-001
54107898.000	-9.705744e-001	-2.325007e-001
54113892.000	-9.706244e-001	-2.326422e-001
54119886.000	-9.706092e-001	-2.325207e-001
54125880.000	-9.707341e-001	-2.325226e-001
54131874.000	-9.706650e-001	-2.326359e-001
54137868.000	-9.706585e-001	-2.325292e-001
54143862.000	-9.706592e-001	-2.324241e-001
54149856.000	-9.706118e-001	-2.324867e-001
54155850.000	-9.707145e-001	-2.324425e-001
54161844.000	-9.708098e-001	-2.324709e-001
54167838.000	-9.707620e-001	-2.324212e-001
54173832.000	-9.707142e-001	-2.322551e-001
54179826.000	-9.707016e-001	-2.323105e-001
54185820.000	-9.707202e-001	-2.321780e-001
54191814.000	-9.707117e-001	-2.322471e-001
54197808.000	-9.706988e-001	-2.322938e-001
54203802.000	-9.707632e-001	-2.320740e-001
54209796.000	-9.707451e-001	-2.321722e-001
54215790.000	-9.706591e-001	-2.321283e-001
54221784.000	-9.707579e-001	-2.321658e-001
54227778.000	-9.706669e-001	-2.321609e-001
54233772.000	-9.707468e-001	-2.320700e-001
54239766.000	-9.708041e-001	-2.320401e-001
54245760.000	-9.707682e-001	-2.320696e-001
54251754.000	-9.708355e-001	-2.320202e-001
54257748.000	-9.708216e-001	-2.319860e-001
54263742.000	-9.707643e-001	-2.320154e-001
54269736.000	-9.707904e-001	-2.319443e-001
54275730.000	-9.707677e-001	-2.319677e-001
54281724.000	-9.707904e-001	-2.318209e-001
54287718.000	-9.707429e-001	-2.318284e-001
54293712.000	-9.706983e-001	-2.317830e-001
54299706.000	-9.707395e-001	-2.316938e-001
54305700.000	-9.708198e-001	-2.316142e-001
54311694.000	-9.709679e-001	-2.318146e-001
54317688.000	-9.708212e-001	-2.317838e-001
54323682.000	-9.708425e-001	-2.316835e-001
54329676.000	-9.708650e-001	-2.316816e-001
54335670.000	-9.707486e-001	-2.316907e-001
54341664.000	-9.708940e-001	-2.316572e-001
54347658.000	-9.708676e-001	-2.316476e-001
54353652.000	-9.708895e-001	-2.316424e-001
54359646.000	-9.708469e-001	-2.315046e-001
54365640.000	-9.708442e-001	-2.315808e-001
54371634.000	-9.708621e-001	-2.314090e-001
54377628.000	-9.707815e-001	-2.314476e-001
54383622.000	-9.709345e-001	-2.313309e-001
54389616.000	-9.708764e-001	-2.314184e-001
54395610.000	-9.709219e-001	-2.314038e-001
54401604.000	-9.708866e-001	-2.313510e-001
54407598.000	-9.709360e-001	-2.311307e-001
54413592.000	-9.709378e-001	-2.312194e-001
54419586.000	-9.709392e-001	-2.312326e-001
54425580.000	-9.710136e-001	-2.313323e-001
54431574.000	-9.709344e-001	-2.313130e-001
54437568.000	-9.709153e-001	-2.312510e-001
54443562.000	-9.709483e-001	-2.312848e-001
54449556.000	-9.710275e-001	-2.311302e-001
54455550.000	-9.710076e-001	-2.312119e-001
54461544.000	-9.708802e-001	-2.311091e-001
54467538.000	-9.711420e-001	-2.311522e-001
54473532.000	-9.710511e-001	-2.310948e-001
54479526.000	-9.710284e-001	-2.310921e-001
54485520.000	-9.710499e-001	-2.310275e-001
54491514.000	-9.710533e-001	-2.310408e-001
54497508.000	-9.710010e-001	-2.309230e-001
54503502.000	-9.710208e-001	-2.308648e-001
54509496.000	-9.710842e-001	-2.309795e-001
54515490.000	-9.709935e-001	-2.308805e-001
54521484.000	-9.710705e-001	-2.307817e-001
54527478.000	-9.710756e-001	-2.308082e-001
54533472.000	-9.710671e-001	-2.307158e-001
54539466.000	-9.710516e-001	-2.307219e-001
54545460.000	-9.711560e-001	-2.307577e-001
54551454.000	-9.710882e-001	-2.306933e-001
54557448.000	-9.711064e-001	-2.306883e-001
54563442.000	-9.711003e-001	-2.306182e-001
54569436.000	-9.712459e-001	-2.306452e-001
54575430.000	-9.712009e-001	-2.306720e-001
54581424.000	-9.712177e-001	-2.306158e-001
54587418.000	-9.712234e-001	-2.306250e-001
54593412.000	-9.712947e-001	-2.305413e-001
54599406.000	-9.712043e-001	-2.305135e-001
54605400.000	-9.712136e-001	-2.305047e-001
54611394.000	-9.711213e-001	-2.304007e-001
54617388.000	-9.712407e-001	-2.304513e-001
54623382.000	-9.711114e-001	-2.304668e-001
54629376.000	-9.712289e-001	-2.304093e-001
54635370.000	-9.712712e-001	-2.304730e-001
54641364.000	-9.712274e-001	-2.304909e-001
54647358.000	-9.713380e-001	-2.303484e-001
54653352.000	-9.712204e-001	-2.303619e-001
54659346.000	-9.712398e-001	-2.303285e-001
54665340.000	-9.711539e-001	-2.302993e-001
54671334.000	-9.712113e-001	-2.302053e-001
54677328.000	-9.713822e-001	-2.301899e-001
54683322.000	-9.712314e-001	-2.300707e-001
54689316.000	-9.712727e-001	-2.300059e-001
54695310.000	-9.712418e-001	-2.300738e-001
54701304.000	-9.712052e-001	-2.299686e-001
54707298.000	-9.712546e-001	-2.299856e-001
54713292.000	-9.712666e-001	-2.300190e-001
54719286.000	-9.713043e-001	-2.300408e-001
54725280.000	-9.713336e-001	-2.298946e-001
54731274.000	-9.713694e-001	-2.299401e-001
54737268.000	-9.713505e-001	-2.299900e-001
54743262.000	-9.713804e-001	-2.299638e-001
54749256.000	-9.713066e-001	-2.297968e-001
54755250.000	-9.712693e-001	-2.298853e-001
54761244.000	-9.712442e-001	-2.298383e-001
54767238.000	-9.712860e-001	-2.298252e-001
54773232.000	-9.713480e-001	-2.297070e-001
54779226.000	-9.713724e-001	-2.297132e-001
54785220.000	-9.713165e-001	-2.297447e-001
54791214.000	-9.712857e-001	-2.296711e-001
54797208.000	-9.713635e-001	-2.296850e-001
54803202.000	-9.713288e-001	-2.295508e-001
54809196.000	-9.713575e-001	-2.295817e-001
54815190.000	-9.712647e-001	-2.295482e-001
54821184.000	-9.713444e-001	-2.295178e-001
54827178.000	-9.713640e-001	-2.295721e-001
54833172.000	-9.713832e-001	-2.294218e-001
54839166.000	-9.714169e-001	-2.294186e-001
54845160.000	-9.713335e-001	-2.293333e-001
54851154.000	-9.712478e-001	-2.294404e-001
54857148.000	-9.713685e-001	-2.294585e-001
54863142.000	-9.713758e-001	-2.292981e-001
54869136.000	-9.714395e-001	-2.293950e-001
54875130.000	-9.714491e-001	-2.292823e-001
54881124.000	-9.714552e-001	-2.292877e-001
54887118.000	-9.714470e-001	-2.292587e-001
54893112.000	-9.714708e-001	-2.293251e-001
54899106.000	-9.715157e-001	-2.292245e-001
54905100.000	-9.714212e-001	-2.291946e-001
54911094.000	-9.713983e-001	-2.291159e-001
54917088.000	-9.714340e-001	-2.291342e-001
54923082.000	-9.714820e-001	-2.291555e-001
54929076.000	-9.715236e-001	-2.290832e-001
54935070.000	-9.714937e-001	-2.290867e-001
54941064.000	-9.715204e-001	-2.289770e-001
54947058.000	-9.714618e-001	-2.289171e-001
54953052.000	-9.714895e-001	-2.289901e-001
54959046.000	-9.714681e-001	-2.288475e-001
54965040.000	-9.715483e-001	-2.289660e-001
54971034.000	-9.714943e-001	-2.288889e-001
54977028.000	-9.713992e-001	-2.289236e-001
54983022.000	-9.714376e-001	-2.287401e-001
54989016.000	-9.716613e-001	-2.287373e-001
54995010.000	-9.716044e-001	-2.288286e-001
55001004.000	-9.715788e-001	-2.288077e-001
55006998.000	-9.716206e-001	-2.287750e-001
55012992.000	-9.715898e-001	-2.286589e-001
55018986.000	-9.715715e-001	-2.287133e-001
55024980.000	-9.716375e-001	-2.286425e-001
55030974.000	-9.716368e-001	-2.286934e-001
55036968.000	-9.715468e-001	-2.286091e-001
55042962.000	-9.715886e-001	-2.286605e-001
55048956.000	-9.715474e-001	-2.285616e-001
55054950.000	-9.715691e-001	-2.285070e-001
55060944.000	-9.716634e-001	-2.286821e-001
55066938.000	-9.716047e-001	-2.284593e-001
55072932.000	-9.716854e-001	-2.284811e-001
55078926.000	-9.716847e-001	-2.284942e-001
55084920.000	-9.715813e-001	-2.283860e-001
55090914.000	-9.718085e-001	-2.283731e-001
55096908.000	-9.716406e-001	-2.284755e-001
55102902.000	-9.716610e-001	-2.283948e-001
55108896.000	-9.717389e-001	-2.284325e-001
55114890.000	-9.716661e-001	-2.284013e-001
55120884.000	-9.717112e-001	-2.282546e-001
55126878.000	-9.717036e-001	-2.281872e-001
55132872.000	-9.717119e-001	-2.281927e-001
55138866.000	-9.717566e-001	-2.282604e-001
55144860.000	-9.717452e-001	-2.282675e-001
55150854.000	-9.716533e-001	-2.282777e-001
55156848.000	-9.717657e-001	-2.282167e-001
55162842.000	-9.718127e-001	-2.280766e-001
55168836.000	-9.718870e-001	-2.281971e-001
55174830.000	-9.718369e-001	-2.280700e-001
55180824.000	-9.717543e-001	-2.280682e-001
55186818.000	-9.717488e-001	-2.280765e-001
55192812.000	-9.717520e-001	-2.282498e-001
55198806.000	-9.718104e-001	-2.279165e-001
55204800.000	-9.717627e-001	-2.279078e-001
55210794.000	-9.718061e-001	-2.278534e-001
55216788.000	-9.719248e-001	-2.279846e-001
55222782.000	-9.718940e-001	-2.279111e-001
55228776.000	-9.718230e-001	-2.279119e-001
55234770.000	-9.718572e-001	-2.278216e-001
55240764.000	-9.719388e-001	-2.277782e-001
55246758.000	-9.717875e-001	-2.278020e-001
55252752.000	-9.718402e-001	-2.277811e-001
55258746.000	-9.719001e-001	-2.278445e-001
55264740.000	-9.718681e-001	-2.277616e-001
55270734.000	-9.718805e-001	-2.277661e-001
55276728.000	-9.719119e-001	-2.276901e-001
55282722.000	-9.718935e-001	-2.278151e-001
55288716.000	-9.718260e-001	-2.277278e-001
55294710.000	-9.718683e-001	-2.275598e-001
55300704.000	-9.719248e-001	-2.276305e-001
55306698.000	-9.718772e-001	-2.276435e-001
55312692.000	-9.719586e-001	-2.275014e-001
55318686.000	-9.718753e-001	-2.276805e-001
55324680.000	-9.718738e-001	-2.274772e-001
55330674.000	-9.719882e-001	-2.274493e-001
55336668.000	-9.720357e-001	-2.275083e-001
55342662.000	-9.719988e-001	-2.274698e-001
55348656.000	-9.719603e-001	-2.275017e-001
55354650.000	-9.719988e-001	-2.273657e-001
55360644.000	-9.720170e-001	-2.274729e-001
55366638.000	-9.719507e-001	-2.274227e-001
55372632.000	-9.719685e-001	-2.272216e-001
55378626.000	-9.719336e-001	-2.270658e-001
55384620.000	-9.718826e-001	-2.271807e-001
55390614.000	-9.719970e-001	-2.272094e-001
55396608.000	-9.719356e-001	-2.272242e-001
55402602.000	-9.720081e-001	-2.271065e-001
55408596.000	-9.719650e-001	-2.271793e-001
55414590.000	-9.720404e-001	-2.271549e-001
55420584.000	-9.720512e-001	-2.269566e-001
55426578.000	-9.720178e-001	-2.269730e-001
55432572.000	-9.720082e-001	-2.269555e-001
55438566.000	-9.720488e-001	-2.269654e-001
55444560.000	-9.720374e-001	-2.268959e-001
55450554.000	-9.720514e-001	-2.269627e-001
55456548.000	-9.720244e-001	-2.269150e-001
55462542.000	-9.721511e-001	-2.269162e-001
55468536.000	-9.721625e-001	-2.269929e-001
55474530.000	-9.721673e-001	-2.270186e-001
55480524.000	-9.721210e-001	-2.269241e-001
55486518.000	-9.721168e-001	-2.268934e-001
55492512.000	-9.722008e-001	-2.268292e-001
55498506.000	-9.722287e-001	-2.267976e-001
55504500.000	-9.720624e-001	-2.267734e-001
55510494.000	-9.720845e-001	-2.266782e-001
55516488.000	-9.721269e-001	-2.266087e-001
55522482.000	-9.721885e-001	-2.266689e-001
55528476.000	-9.721536e-001	-2.266521e-001
55534470.000	-9.721039e-001	-2.266688e-001
55540464.000	-9.721513e-001	-2.264912e-001
55546458.000	-9.721663e-001	-2.265245e-001
55552452.000	-9.722176e-001	-2.265521e-001
55558446.000	-9.721067e-001	-2.264646e-001
55564440.000	-9.721407e-001	-2.264000e-001
55570434.000	-9.723326e-001	-2.264452e-001
55576428.000	-9.722748e-001	-2.264319e-001
55582422.000	-9.721822e-001	-2.263483e-001
55588416.000	-9.722025e-001	-2.263248e-001
55594410.000	-9.721812e-001	-2.264366e-001
55600404.000	-9.722475e-001	-2.263038e-001
55606398.000	-9.722526e-001	-2.264312e-001
55612392.000	-9.722558e-001	-2.262610e-001
55618386.000	-9.722444e-001	-2.263288e-001
55624380.000	-9.722590e-001	-2.262365e-001
55630374.000	-9.722796e-001	-2.263403e-001
55636368.000	-9.722843e-001	-2.262394e-001
55642362.000	-9.722488e-001	-2.262486e-001
55648356.000	-9.723584e-001	-2.262797e-001
55654350.000	-9.722826e-001	-2.261238e-001
55660344.000	-9.722534e-001	-2.260790e-001
55666338.000	-9.723634e-001	-2.260849e-001
55672332.000	-9.723041e-001	-2.260687e-001
55678326.000	-9.723502e-001	-2.260828e-001
55684320.000	-9.723584e-001	-2.258690e-001
55690314.000	-9.722186e-001	-2.258808e-001
55696308.000	-9.723063e-001	-2.260024e-001
55702302.000	-9.723097e-001	-2.258088e-001
55708296.000	-9.724857e-001	-2.260086e-001
55714290.000	-9.723961e-001	-2.259711e-001
55720284.000	-9.723019e-001	-2.259198e-001
55726278.000	-9.723205e-001	-2.258811e-001
55732272.000	-9.722764e-001	-2.258742e-001
55738266.000	-9.723085e-001	-2.258612e-001
55744260.000	-9.723819e-001	-2.257354e-001
55750254.000	-9.723852e-001	-2.257627e-001
55756248.000	-9.724188e-001	-2.256807e-001
55762242.000	-9.723842e-001	-2.257078e-001
55768236.000	-9.724862e-001	-2.256919e-001
55774230.000	-9.723669e-001	-2.255872e-001
55780224.000	-9.723925e-001	-2.255701e-001
55786218.000	-9.723364e-001	-2.256239e-001
55792212.000	-9.724966e-001	-2.255575e-001
55798206.000	-9.724372e-001	-2.255910e-001
55804200.000	-9.723582e-001	-2.255026e-001
55810194.000	-9.725030e-001	-2.254931e-001
55816188.000	-9.724577e-001	-2.254439e-001
55822182.000	-9.723984e-001	-2.254500e-001
55828176.000	-9.724201e-001	-2.254222e-001
55834170.000	-9.724082e-001	-2.253648e-001
55840164.000	-9.724730e-001	-2.253994e-001
55846158.000	-9.724577e-001	-2.254668e-001
55852152.000	-9.723672e-001	-2.252832e-001
55858146.000	-9.724687e-001	-2.252064e-001
55864140.000	-9.723904e-001	-2.252514e-001
55870134.000	-9.725336e-001	-2.252940e-001
55876128.000	-9.724911e-001	-2.252218e-001
55882122.000	-9.724081e-001	-2.252612e-001
55888116.000	-9.724843e-001	-2.251717e-001
55894110.000	-9.726634e-001	-2.250782e-001
55900104.000	-9.725023e-001	-2.250649e-001
55906098.000	-9.725136e-001	-2.250954e-001
55912092.000	-9.725060e-001	-2.251368e-001
55918086.000	-9.725157e-001	-2.251005e-001
55924080.000	-9.726088e-001	-2.250640e-001
55930074.000	-9.725491e-001	-2.250632e-001
55936068.000	-9.724491e-001	-2.249788e-001
55942062.000	-9.725231e-001	-2.249571e-001
55948056.000	-9.725831e-001	-2.248750e-001
55954050.000	-9.725457e-001	-2.248554e-001
55960044.000	-9.725797e-001	-2.247351e-001
55966038.000	-9.726242e-001	-2.247924e-001
55972032.000	-9.726183e-001	-2.247588e-001
55978026.000	-9.725718e-001	-2.248372e-001
55984020.000	-9.725642e-001	-2.247150e-001
55990014.000	-9.725644e-001	-2.247790e-001
55996008.000	-9.726214e-001	-2.247920e-001
56002002.000	-9.725539e-001	-2.247067e-001
56007996.000	-9.725795e-001	-2.246588e-001
56013990.000	-9.725420e-001	-2.246507e-001
56019984.000	-9.726937e-001	-2.246263e-001
56025978.000	-9.726252e-001	-2.246698e-001
56031972.000	-9.725285e-001	-2.246415e-001
56037966.000	-9.727107e-001	-2.245032e-001
56043960.000	-9.726782e-001	-2.244479e-001
56049954.000	-9.726184e-001	-2.245485e-001
56055948.000	-9.726367e-001	-2.245242e-001
56061942.000	-9.726592e-001	-2.244850e-001
56067936.000	-9.727205e-001	-2.244695e-001
56073930.000	-9.726426e-001	-2.245394e-001
56079924.000	-9.726854e-001	-2.245111e-001
56085918.000	-9.726962e-001	-2.244807e-001
56091912.000	-9.725850e-001	-2.243418e-001
56097906.000	-9.727660e-001	-2.243383e-001
56103900.000	-9.726826e-001	-2.243310e-001
56109894.000	-9.726656e-001	-2.241752e-001
56115888.000	-9.727296e-001	-2.241784e-001
56121882.000	-9.727853e-001	-2.241600e-001
56127876.000	-9.727457e-001	-2.242284e-001
56133870.000	-9.726599e-001	-2.241775e-001
56139864.000	-9.726985e-001	-2.240607e-001
56145858.000	-9.728376e-001	-2.240438e-001
56151852.000	-9.727331e-001	-2.242123e-001
56157846.000	-9.726812e-001	-2.240109e-001
56163840.000	-9.727613e-001	-2.240086e-001
56169834.000	-9.727878e-001	-2.240444e-001
56175828.000	-9.727193e-001	-2.240228e-001
56181822.000	-9.728418e-001	-2.239107e-001
56187816.000	-9.727197e-001	-2.239028e-001
56193810.000	-9.727479e-001	-2.239238e-001
56199804.000	-9.727933e-001	-2.238116e-001
56205798.000	-9.727928e-001	-2.237968e-001
56211792.000	-9.728307e-001	-2.238886e-001
56217786.000	-9.727955e-001	-2.239467e-001
56223780.000	-9.728092e-001	-2.237845e-001
56229774.000	-9.727468e-001	-2.238606e-001
56235768.000	-9.727723e-001	-2.237955e-001
56241762.000	-9.728252e-001	-2.237302e-001
56247756.000	-9.728533e-001	-2.237752e-001
56253750.000	-9.728519e-001	-2.238402e-001
56259744.000	-9.729512e-001	-2.237319e-001
56265738.000	-9.729236e-001	-2.237041e-001
56271732.000	-9.728546e-001	-2.236209e-001
56277726.000	-9.729703e-001	-2.235732e-001
56283720.000	-9.728487e-001	-2.236891e-001
56289714.000	-9.728805e-001	-2.236058e-001
56295708.000	-9.729507e-001	-2.235165e-001
56301702.000	-9.729672e-001	-2.234901e-001
56307696.000	-9.729756e-001	-2.234794e-001
56313690.000	-9.728322e-001	-2.234556e-001
56319684.000	-9.729301e-001	-2.234859e-001
56325678.000	-9.729538e-001	-2.233844e-001
56331672.000	-9.727744e-001	-2.234444e-001
56337666.000	-9.729158e-001	-2.233138e-001
56343660.000	-9.729896e-001	-2.233069e-001
56349654.000	-9.729199e-001	-2.231334e-001
56355648.000	-9.729812e-001	-2.231748e-001
56361642.000	-9.729460e-001	-2.233434e-001
56367636.000	-9.729599e-001	-2.232640e-001
56373630.000	-9.729339e-001	-2.231931e-001
56379624.000	-9.730852e-001	-2.231918e-001
56385618.000	-9.730368e-001	-2.231362e-001
56391612.000	-9.730697e-001	-2.231810e-001
56397606.000	-9.730219e-001	-2.232004e-001
56403600.000	-9.730015e-001	-2.230736e-001
56409594.000	-9.730211e-001	-2.230339e-001
56415588.000	-9.730710e-001	-2.230661e-001
56421582.000	-9.730518e-001	-2.229989e-001
56427576.000	-9.730492e-001	-2.229236e-001
56433570.000	-9.729723e-001	-2.228785e-001
56439564.000	-9.729700e-001	-2.229795e-001
56445558.000	-9.730647e-001	-2.227983e-001
56451552.000	-9.729354e-001	-2.228899e-001
56457546.000	-9.730155e-001	-2.229176e-001
56463540.000	-9.730496e-001	-2.229016e-001
56469534.000	-9.729953e-001	-2.228154e-001
56475528.000	-9.730527e-001	-2.228401e-001
56481522.000	-9.730855e-001	-2.228291e-001
56487516.000	-9.731437e-001	-2.227325e-001
56493510.000	-9.730313e-001	-2.227267e-001
56499504.000	-9.731544e-001	-2.225926e-001
56505498.000	-9.730467e-001	-2.226598e-001
56511492.000	-9.731134e-001	-2.226913e-001
56517486.000	-9.730877e-001	-2.224721e-001
56523480.000	-9.731618e-001	-2.225774e-001
56529474.000	-9.731821e-001	-2.225682e-001
56535468.000	-9.731695e-001	-2.225646e-001
56541462.000	-9.730201e-001	-2.225414e-001
56547456.000	-9.730784e-001	-2.224717e-001
56553450.000	-9.730847e-001	-2.225153e-001
56559444.000	-9.731728e-001	-2.225096e-001
56565438.000	-9.731663e-001	-2.223807e-001
56571432.000	-9.731253e-001	-2.223757e-001
56577426.000	-9.731227e-001	-2.222612e-001
56583420.000	-9.731813e-001	-2.222564e-001
56589414.000	-9.731681e-001	-2.222744e-001
56595408.000	-9.732025e-001	-2.223714e-001
56601402.000	-9.731781e-001	-2.223280e-001
56607396.000	-9.731655e-001	-2.221882e-001
56613390.000	-9.732643e-001	-2.224534e-001
56619384.000	-9.733512e-001	-2.221812e-001
56625378.000	-9.731657e-001	-2.221845e-001
56631372.000	-9.732499e-001	-2.221749e-001
56637366.000	-9.732748e-001	-2.220276e-001
56643360.000	-9.732189e-001	-2.222330e-001
56649354.000	-9.732210e-001	-2.220658e-001
56655348.000	-9.731975e-001	-2.220222e-001
56661342.000	-9.731909e-001	-2.219978e-001
56667336.000	-9.731554e-001	-2.219983e-001
56673330.000	-9.733058e-001	-2.219771e-001
56679324.000	-9.732546e-001	-2.219217e-001
56685318.000	-9.733324e-001	-2.220289e-001
56691312.000	-9.732678e-001	-2.219712e-001
56697306.000	-9.732493e-001	-2.219229e-001
56703300.000	-9.732207e-001	-2.218010e-001
56709294.000	-9.732676e-001	-2.217518e-001
56715288.000	-9.733640e-001	-2.218181e-001
56721282.000	-9.733185e-001	-2.217195e-001
56727276.000	-9.734117e-001	-2.217824e-001
56733270.000	-9.732871e-001	-2.218227e-001
56739264.000	-9.734171e-001	-2.217323e-001
56745258.000	-9.732763e-001	-2.216443e-001
56751252.000	-9.733011e-001	-2.216745e-001
56757246.000	-9.734258e-001	-2.216900e-001
56763240.000	-9.732571e-001	-2.216566e-001
56769234.000	-9.733805e-001	-2.215519e-001
56775228.000	-9.733527e-001	-2.215406e-001
56781222.000	-9.734887e-001	-2.216089e-001
56787216.000	-9.733733e-001	-2.214303e-001
56793210.000	-9.733252e-001	-2.214834e-001
56799204.000	-9.733085e-001	-2.213621e-001
56805198.000	-9.733910e-001	-2.214020e-001
56811192.000	-9.733644e-001	-2.214721e-001
56817186.000	-9.734098e-001	-2.213713e-001
56823180.000	-9.733443e-001	-2.213889e-001
56829174.000	-9.733925e-001	-2.213177e-001
56835168.000	-9.735277e-001	-2.213598e-001
56841162.000	-9.734817e-001	-2.213361e-001
56847156.000	-9.734426e-001	-2.213502e-001
56853150.000	-9.734614e-001	-2.212772e-001
56859144.000	-9.733729e-001	-2.212868e-001
56865138.000	-9.734426e-001	-2.212321e-001
56871132.000	-9.734234e-001	-2.212311e-001
56877126.000	-9.734157e-001	-2.212257e-001
56883120.000	-9.734859e-001	-2.210944e-001
56889114.000	-9.734461e-001	-2.211866e-001
56895108.000	-9.734593e-001	-2.210007e-001
56901102.000	-9.734489e-001	-2.210004e-001
56907096.000	-9.735015e-001	-2.211698e-001
56913090.000	-9.734762e-001	-2.210936e-001
56919084.000	-9.733669e-001	-2.210709e-001
56925078.000	-9.734840e-001	-2.210850e-001
56931072.000	-9.735977e-001	-2.209423e-001
56937066.000	-9.735035e-001	-2.209646e-001
56943060.000	-9.735397e-001	-2.209469e-001
56949054.000	-9.735880e-001	-2.209102e-001
56955048.000	-9.735089e-001	-2.208608e-001
56961042.000	-9.735354e-001	-2.208257e-001
56967036.000	-9.734035e-001	-2.206793e-001
56973030.000	-9.736327e-001	-2.207321e-001
56979024.000	-9.735740e-001	-2.207024e-001
56985018.000	-9.734672e-001	-2.207539e-001
56991012.000	-9.735313e-001	-2.207945e-001
56997006.000	-9.734907e-001	-2.206742e-001
57003000.000	-9.736244e-001	-2.206991e-001
57008994.000	-9.735900e-001	-2.206034e-001
57014988.000	-9.735937e-001	-2.207110e-001
57020982.000	-9.736053e-001	-2.206557e-001
57026976.000	-9.735229e-001	-2.206014e-001
57032970.000	-9.736647e-001	-2.205482e-001
57038964.000	-9.735963e-001	-2.206079e-001
57044958.000	-9.736282e-001	-2.205617e-001
57050952.000	-9.735766e-001	-2.205130e-001
57056946.000	-9.736553e-001	-2.203512e-001
57062940.000	-9.735503e-001	-2.204853e-001
57068934.000	-9.736625e-001	-2.205033e-001
57074928.000	-9.736394e-001	-2.204868e-001
57080922.000	-9.736801e-001	-2.202335e-001
57086916.000	-9.736957e-001	-2.203758e-001
57092910.000	-9.737781e-001	-2.203960e-001
57098904.000	-9.738123e-001	-2.203383e-001
57104898.000	-9.736959e-001	-2.202003e-001
57110892.000	-9.735813e-001	-2.202852e-001
57116886.000	-9.737779e-001	-2.202053e-001
57122880.000	-9.737496e-001	-2.202192e-001
57128874.000	-9.737749e-001	-2.202037e-001
57134868.000	-9.737419e-001	-2.201301e-001
57140862.000	-9.737325e-001	-2.201212e-001
57146856.000	-9.736375e-001	-2.202285e-001
57152850.000	-9.736795e-001	-2.200589e-001
57158844.000	-9.736882e-001	-2.201212e-001
57164838.000	-9.738307e-001	-2.201262e-001
57170832.000	-9.737215e-001	-2.200875e-001
57176826.000	-9.736478e-001	-2.200897e-001
57182820.000	-9.738045e-001	-2.201661e-001
57188814.000	-9.737225e-001	-2.200674e-001
57194808.000	-9.737000e-001	-2.200677e-001
57200802.000	-9.737569e-001	-2.199872e-001
57206796.000	-9.738787e-001	-2.199356e-001
57212790.000	-9.738495e-001	-2.199331e-001
57218784.000	-9.737361e-001	-2.199273e-001
57224778.000	-9.736704e-001	-2.199646e-001
57230772.000	-9.738148e-001	-2.198994e-001
57236766.000	-9.737277e-001	-2.198972e-001
57242760.000	-9.737542e-001	-2.198034e-001
57248754.000	-9.738594e-001	-2.198038e-001
57254748.000	-9.738476e-001	-2.198559e-001
57260742.000	-9.739213e-001	-2.198962e-001
57266736.000	-9.738249e-001	-2.197418e-001
57272730.000	-9.738201e-001	-2.197590e-001
57278724.000	-9.738821e-001	-2.197371e-001
57284718.000	-9.737867e-001	-2.196269e-001
57290712.000	-9.737767e-001	-2.196424e-001
57296706.000	-9.738590e-001	-2.196299e-001
57302700.000	-9.738019e-001	-2.196456e-001
57308694.000	-9.738385e-001	-2.196064e-001
57314688.000	-9.738730e-001	-2.195409e-001
57320682.000	-9.739188e-001	-2.195843e-001
57326676.000	-9.738616e-001	-2.195300e-001
57332670.000	-9.739279e-001	-2.195738e-001
57338664.000	-9.739346e-001	-2.193270e-001
57344658.000	-9.739753e-001	-2.193877e-001
57350652.000	-9.739599e-001	-2.194585e-001
57356646.000	-9.738247e-001	-2.192953e-001
57362640.000	-9.740809e-001	-2.193414e-001
57368634.000	-9.739422e-001	-2.193502e-001
57374628.000	-9.739458e-001	-2.194256e-001
57380622.000	-9.739236e-001	-2.192963e-001
57386616.000	-9.740272e-001	-2.193013e-001
57392610.000	-9.740163e-001	-2.192264e-001
57398604.000	-9.739550e-001	-2.191863e-001
57404598.000	-9.740130e-001	-2.191566e-001
57410592.000	-9.740415e-001	-2.191215e-001
57416586.000	-9.740588e-001	-2.191589e-001
57422580.000	-9.740527e-001	-2.191202e-001
57428574.000	-9.740562e-001	-2.191743e-001
57434568.000	-9.739484e-001	-2.190874e-001
57440562.000	-9.740874e-001	-2.190867e-001
57446556.000	-9.739830e-001	-2.189914e-001
57452550.000	-9.740611e-001	-2.189634e-001
57458544.000	-9.740275e-001	-2.189603e-001
57464538.000	-9.740467e-001	-2.188448e-001
57470532.000	-9.739920e-001	-2.188616e-001
57476526.000	-9.740328e-001	-2.188330e-001
57482520.000	-9.740244e-001	-2.189301e-001
57488514.000	-9.740768e-001	-2.187812e-001
57494508.000	-9.740895e-001	-2.188198e-001
57500502.000	-9.740532e-001	-2.188604e-001
57506496.000	-9.740356e-001	-2.187815e-001
57512490.000	-9.741239e-001	-2.186154e-001
57518484.000	-9.741313e-001	-2.186905e-001
57524478.000	-9.740487e-001	-2.186577e-001
57530472.000	-9.740335e-001	-2.186532e-001
57536466.000	-9.740680e-001	-2.187254e-001
57542460.000	-9.740992e-001	-2.187593e-001
57548454.000	-9.740729e-001	-2.186180e-001
57554448.000	-9.741017e-001	-2.185082e-001
57560442.000	-9.741091e-001	-2.186127e-001
57566436.000	-9.740051e-001	-2.185281e-001
57572430.000	-9.741030e-001	-2.184951e-001
57578424.000	-9.740329e-001	-2.185671e-001
57584418.000	-9.741382e-001	-2.184744e-001
57590412.000	-9.741808e-001	-2.183687e-001
57596406.000	-9.741612e-001	-2.184128e-001
57602400.000	-9.742790e-001	-2.184201e-001
57608394.000	-9.741508e-001	-2.184582e-001
57614388.000	-9.741783e-001	-2.184179e-001
57620382.000	-9.742417e-001	-2.183190e-001
57626376.000	-9.741376e-001	-2.183420e-001
57632370.000	-9.741998e-001	-2.182545e-001
57638364.000	-9.742517e-001	-2.183002e-001
57644358.000	-9.743399e-001	-2.181797e-001
57650352.000	-9.742247e-001	-2.181936e-001
57656346.000	-9.741941e-001	-2.181823e-001
57662340.000	-9.742018e-001	-2.180858e-001
57668334.000	-9.741370e-001	-2.180845e-001
57674328.000	-9.742857e-001	-2.180206e-001
57680322.000	-9.743489e-001	-2.180560e-001
57686316.000	-9.741877e-001	-2.180622e-001
57692310.000	-9.741372e-001	-2.179255e-001
57698304.000	-9.742505e-001	-2.179609e-001
57704298.000	-9.742538e-001	-2.179984e-001
57710292.000	-9.742184e-001	-2.178922e-001
57716286.000	-9.742946e-001	-2.178564e-001
57722280.000	-9.742264e-001	-2.179348e-001
57728274.000	-9.743638e-001	-2.179358e-001
57734268.000	-9.742227e-001	-2.178633e-001
57740262.000	-9.742702e-001	-2.178988e-001
57746256.000	-9.743046e-001	-2.178350e-001
57752250.000	-9.742846e-001	-2.178368e-001
57758244.000	-9.742953e-001	-2.177962e-001
57764238.000	-9.742693e-001	-2.176915e-001
57770232.000	-9.742877e-001	-2.176324e-001
57776226.000	-9.743422e-001	-2.176532e-001
57782220.000	-9.743012e-001	-2.176728e-001
57788214.000	-9.743792e-001	-2.176558e-001
57794208.000	-9.744378e-001	-2.176041e-001
57800202.000	-9.743440e-001	-2.175433e-001
57806196.000	-9.743285e-001	-2.175525e-001
57812190.000	-9.744030e-001	-2.175855e-001
57818184.000	-9.744303e-001	-2.176006e-001
57824178.000	-9.743569e-001	-2.174882e-001
57830172.000	-9.744145e-001	-2.174453e-001
57836166.000	-9.743958e-001	-2.175571e-001
57842160.000	-9.743303e-001	-2.175843e-001
57848154.000	-9.744684e-001	-2.174392e-001
57854148.000	-9.744904e-001	-2.174283e-001
57860142.000	-9.744226e-001	-2.174230e-001
57866136.000	-9.743566e-001	-2.174153e-001
57872130.000	-9.744316e-001	-2.173551e-001
57878124.000	-9.743465e-001	-2.171598e-001
57884118.000	-9.743142e-001	-2.172540e-001
57890112.000	-9.743816e-001	-2.172002e-001
57896106.000	-9.744083e-001	-2.171973e-001
57902100.000	-9.745282e-001	-2.172306e-001
57908094.000	-9.744864e-001	-2.170124e-001
57914088.000	-9.744188e-001	-2.172223e-001
57920082.000	-9.744604e-001	-2.171891e-001
57926076.000	-9.745318e-001	-2.170923e-001
57932070.000	-9.744142e-001	-2.170701e-001
57938064.000	-9.745186e-001	-2.170533e-001
57944058.000	-9.744011e-001	-2.170912e-001
57950052.000	-9.743567e-001	-2.170127e-001
57956046.000	-9.745088e-001	-2.170211e-001
57962040.000	-9.744002e-001	-2.169784e-001
57968034.000	-9.745033e-001	-2.170640e-001
57974028.000	-9.744938e-001	-2.169652e-001
57980022.000	-9.745121e-001	-2.169789e-001
57986016.000	-9.745511e-001	-2.169562e-001
57992010.000	-9.745554e-001	-2.169207e-001
57998004.000	-9.746642e-001	-2.169079e-001
58003998.000	-9.744950e-001	-2.168577e-001
58009992.000	-9.745395e-001	-2.167579e-001
58015986.000	-9.745946e-001	-2.167781e-001
58021980.000	-9.743889e-001	-2.166459e-001
58027974.000	-9.744739e-001	-2.167229e-001
58033968.000	-9.745144e-001	-2.167215e-001
58039962.000	-9.744903e-001	-2.167281e-001
58045956.000	-9.746418e-001	-2.166692e-001
58051950.000	-9.745866e-001	-2.166108e-001
58057944.000	-9.745251e-001	-2.166162e-001
58063938.000	-9.746257e-001	-2.165418e-001
58069932.000	-9.746677e-001	-2.165880e-001
58075926.000	-9.744772e-001	-2.165835e-001
58081920.000	-9.745641e-001	-2.164910e-001
58087914.000	-9.745153e-001	-2.166448e-001
58093908.000	-9.745212e-001	-2.165534e-001
58099902.000	-9.745367e-001	-2.164217e-001
58105896.000	-9.746186e-001	-2.163832e-001
58111890.000	-9.746306e-001	-2.164980e-001
58117884.000	-9.746520e-001	-2.163955e-001
58123878.000	-9.745680e-001	-2.163120e-001
58129872.000	-9.745684e-001	-2.162437e-001
58135866.000	-9.745657e-001	-2.162606e-001
58141860.000	-9.746393e-001	-2.163185e-001
58147854.000	-9.746586e-001	-2.163438e-001
58153848.000	-9.746249e-001	-2.162771e-001
58159842.000	-9.746296e-001	-2.162479e-001
58165836.000	-9.746243e-001	-2.161997e-001
58171830.000	-9.746593e-001	-2.161557e-001
58177824.000	-9.746714e-001	-2.162089e-001
58183818.000	-9.746739e-001	-2.161616e-001
58189812.000	-9.746419e-001	-2.162018e-001
58195806.000	-9.746885e-001	-2.160422e-001
58201800.000	-9.747715e-001	-2.161053e-001
58207794.000	-9.747203e-001	-2.160951e-001
58213788.000	-9.746360e-001	-2.160994e-001
58219782.000	-9.747071e-001	-2.160189e-001
58225776.000	-9.746549e-001	-2.159612e-001
58231770.000	-9.747637e-001	-2.160171e-001
58237764.000	-9.748190e-001	-2.160526e-001
58243758.000	-9.747012e-001	-2.159254e-001
58249752.000	-9.746891e-001	-2.158445e-001
58255746.000	-9.746910e-001	-2.158124e-001
58261740.000	-9.746205e-001	-2.158156e-001
58267734.000	-9.747615e-001	-2.158486e-001
58273728.000	-9.747315e-001	-2.157362e-001
58279722.000	-9.747264e-001	-2.156963e-001
58285716.000	-9.747573e-001	-2.158511e-001
58291710.000	-9.748031e-001	-2.157554e-001
58297704.000	-9.747469e-001	-2.157601e-001
58303698.000	-9.748283e-001	-2.155710e-001
58309692.000	-9.747285e-001	-2.156475e-001
58315686.000	-9.747265e-001	-2.156316e-001
58321680.000	-9.747929e-001	-2.156879e-001
58327674.000	-9.748452e-001	-2.156752e-001
58333668.000	-9.749023e-001	-2.155805e-001
58339662.000	-9.748364e-001	-2.156624e-001
58345656.000	-9.746966e-001	-2.154575e-001
58351650.000	-9.748226e-001	-2.154500e-001
58357644.000	-9.747460e-001	-2.154629e-001
58363638.000	-9.748085e-001	-2.153812e-001
58369632.000	-9.748240e-001	-2.154878e-001
58375626.000	-9.748493e-001	-2.154905e-001
58381620.000	-9.748847e-001	-2.153722e-001
58387614.000	-9.748203e-001	-2.154040e-001
58393608.000	-9.747897e-001	-2.153912e-001
58399602.000	-9.748741e-001	-2.153307e-001
58405596.000	-9.748940e-001	-2.152445e-001
58411590.000	-9.748059e-001	-2.152573e-001
58417584.000	-9.749061e-001	-2.152465e-001
58423578.000	-9.748809e-001	-2.150843e-001
58429572.000	-9.747190e-001	-2.151397e-001
58435566.000	-9.748823e-001	-2.151660e-001
58441560.000	-9.749078e-001	-2.152030e-001
58447554.000	-9.749258e-001	-2.152141e-001
58453548.000	-9.749511e-001	-2.151564e-001
58459542.000	-9.749204e-001	-2.151233e-001
58465536.000	-9.748712e-001	-2.150060e-001
58471530.000	-9.749336e-001	-2.150941e-001
58477524.000	-9.749127e-001	-2.149820e-001
58483518.000	-9.749202e-001	-2.150332e-001
58489512.000	-9.749135e-001	-2.149677e-001
58495506.000	-9.749264e-001	-2.149819e-001
58501500.000	-9.749409e-001	-2.149417e-001
58507494.000	-9.749205e-001	-2.149538e-001
58513488.000	-9.750068e-001	-2.149382e-001
58519482.000	-9.750549e-001	-2.148525e-001
58525476.000	-9.749016e-001	-2.148547e-001
58531470.000	-9.748949e-001	-2.148975e-001
58537464.000	-9.748639e-001	-2.147819e-001
58543458.000	-9.749203e-001	-2.147179e-001
58549452.000	-9.750199e-001	-2.148078e-001
58555446.000	-9.750396e-001	-2.146993e-001
58561440.000	-9.749649e-001	-2.146801e-001
58567434.000	-9.750005e-001	-2.146251e-001
58573428.000	-9.750082e-001	-2.146390e-001
58579422.000	-9.750742e-001	-2.145695e-001
58585416.000	-9.749678e-001	-2.146557e-001
58591410.000	-9.750016e-001	-2.146133e-001
58597404.000	-9.750063e-001	-2.146660e-001
58603398.000	-9.750143e-001	-2.145852e-001
58609392.000	-9.749909e-001	-2.144647e-001
58615386.000	-9.749491e-001	-2.144477e-001
58621380.000	-9.749541e-001	-2.143434e-001
58627374.000	-9.750045e-001	-2.142953e-001
58633368.000	-9.749932e-001	-2.145229e-001
58639362.000	-9.750912e-001	-2.143485e-001
58645356.000	-9.750794e-001	-2.143090e-001
58651350.000	-9.750662e-001	-2.142326e-001
58657344.000	-9.751272e-001	-2.142396e-001
58663338.000	-9.751559e-001	-2.142270e-001
58669332.000	-9.750944e-001	-2.142197e-001
58675326.000	-9.750379e-001	-2.143087e-001
58681320.000	-9.750197e-001	-2.143437e-001
58687314.000	-9.751517e-001	-2.143479e-001
58693308.000	-9.751353e-001	-2.141481e-001
58699302.000	-9.751629e-001	-2.142338e-001
58705296.000	-9.751028e-001	-2.141934e-001
58711290.000	-9.752152e-001	-2.141436e-001
58717284.000	-9.751752e-001	-2.141504e-001
58723278.000	-9.751697e-001	-2.141041e-001
58729272.000	-9.752043e-001	-2.141391e-001
58735266.000	-9.751460e-001	-2.140558e-001
58741260.000	-9.752018e-001	-2.139201e-001
58747254.000	-9.751268e-001	-2.140036e-001
58753248.000	-9.751240e-001	-2.140556e-001
58759242.000	-9.752266e-001	-2.140015e-001
58765236.000	-9.752238e-001	-2.139469e-001
58771230.000	-9.752130e-001	-2.139121e-001
58777224.000	-9.752473e-001	-2.139022e-001
58783218.000	-9.751891e-001	-2.138186e-001
58789212.000	-9.751739e-001	-2.137603e-001
58795206.000	-9.751857e-001	-2.138196e-001
58801200.000	-9.752511e-001	-2.137675e-001
58807194.000	-9.751777e-001	-2.137804e-001
58813188.000	-9.752157e-001	-2.136225e-001
58819182.000	-9.752819e-001	-2.137646e-001
58825176.000	-9.752267e-001	-2.136898e-001
58831170.000	-9.751416e-001	-2.136257e-001
58837164.000	-9.752025e-001	-2.136252e-001
58843158.000	-9.752165e-001	-2.135286e-001
58849152.000	-9.752530e-001	-2.136061e-001
58855146.000	-9.752867e-001	-2.135473e-001
58861140.000	-9.751776e-001	-2.135929e-001
58867134.000	-9.751724e-001	-2.135425e-001
58873128.000	-9.753542e-001	-2.133856e-001
58879122.000	-9.752675e-001	-2.134667e-001
58885116.000	-9.752567e-001	-2.134446e-001
58891110.000	-9.752274e-001	-2.134455e-001
58897104.000	-9.752437e-001	-2.133806e-001
58903098.000	-9.752868e-001	-2.132593e-001
58909092.000	-9.753825e-001	-2.132815e-001
58915086.000	-9.754381e-001	-2.133676e-001
58921080.000	-9.752317e-001	-2.133170e-001
58927074.000	-9.753700e-001	-2.133069e-001
58933068.000	-9.753200e-001	-2.131734e-001
58939062.000	-9.753164e-001	-2.132716e-001
58945056.000	-9.753549e-001	-2.132120e-001
58951050.000	-9.753042e-001	-2.132072e-001
58957044.000	-9.754215e-001	-2.131427e-001
58963038.000	-9.754205e-001	-2.131954e-001
58969032.000	-9.753777e-001	-2.130095e-001
58975026.000	-9.753284e-001	-2.131743e-001
58981020.000	-9.753892e-001	-2.131314e-001
58987014.000	-9.753754e-001	-2.130172e-001
58993008.000	-9.753709e-001	-2.130452e-001
58999002.000	-9.753252e-001	-2.129799e-001
59004996.000	-9.753399e-001	-2.129526e-001
59010990.000	-9.754438e-001	-2.130055e-001
59016984.000	-9.752992e-001	-2.128876e-001
59022978.000	-9.754449e-001	-2.128934e-001
59028972.000	-9.754692e-001	-2.129365e-001
59034966.000	-9.755189e-001	-2.128542e-001
59040960.000	-9.755213e-001	-2.127904e-001
59046954.000	-9.753311e-001	-2.128424e-001
59052948.000	-9.754982e-001	-2.128054e-001
59058942.000	-9.755275e-001	-2.128650e-001
59064936.000	-9.754508e-001	-2.127706e-001
59070930.000	-9.753027e-001	-2.127763e-001
59076924.000	-9.754474e-001	-2.128065e-001
59082918.000	-9.755024e-001	-2.127091e-001
59088912.000	-9.754353e-001	-2.127599e-001
59094906.000	-9.755252e-001	-2.127134e-001
59100900.000	-9.755058e-001	-2.126761e-001
59106894.000	-9.755244e-001	-2.125658e-001
59112888.000	-9.755501e-001	-2.126493e-001
59118882.000	-9.755532e-001	-2.126458e-001
59124876.000	-9.756589e-001	-2.124792e-001
59130870.000	-9.755109e-001	-2.124290e-001
59136864.000	-9.754892e-001	-2.123335e-001
59142858.000	-9.755881e-001	-2.124761e-001
59148852.000	-9.755337e-001	-2.124960e-001
59154846.000	-9.755337e-001	-2.125303e-001
59160840.000	-9.755519e-001	-2.124446e-001
59166834.000	-9.755315e-001	-2.123861e-001
59172828.000	-9.754718e-001	-2.123877e-001
59178822.000	-9.755447e-001	-2.123145e-001
59184816.000	-9.755951e-001	-2.123225e-001
59190810.000	-9.755309e-001	-2.122688e-001
59196804.000	-9.755910e-001	-2.122985e-001
59202798.000	-9.755660e-001	-2.122522e-001
59208792.000	-9.755833e-001	-2.122229e-001
59214786.000	-9.755227e-001	-2.122914e-001
59220780.000	-9.755000e-001	-2.121805e-001
59226774.000	-9.756926e-001	-2.120664e-001
59232768.000	-9.756983e-001	-2.121862e-001
59238762.000	-9.755708e-001	-2.121601e-001
59244756.000	-9.756532e-001	-2.121681e-001
59250750.000	-9.755256e-001	-2.121039e-001
59256744.000	-9.755745e-001	-2.121139e-001
59262738.000	-9.757116e-001	-2.121618e-001
59268732.000	-9.757895e-001	-2.121554e-001
59274726.000	-9.756985e-001	-2.120983e-001
59280720.000	-9.756387e-001	-2.119784e-001
59286714.000	-9.755936e-001	-2.119431e-001
59292708.000	-9.756708e-001	-2.118622e-001
59298702.000	-9.756369e-001	-2.118986e-001
59304696.000	-9.757214e-001	-2.117975e-001
59310690.000	-9.755995e-001	-2.119062e-001
59316684.000	-9.757548e-001	-2.119655e-001
59322678.000	-9.757054e-001	-2.119121e-001
59328672.000	-9.756516e-001	-2.117121e-001
59334666.000	-9.756352e-001	-2.117191e-001
59340660.000	-9.755510e-001	-2.117988e-001
59346654.000	-9.756573e-001	-2.117866e-001
59352648.000	-9.756785e-001	-2.117751e-001
59358642.000	-9.756927e-001	-2.117358e-001
59364636.000	-9.756554e-001	-2.115991e-001
59370630.000	-9.756870e-001	-2.116329e-001
59376624.000	-9.756932e-001	-2.116235e-001
59382618.000	-9.756684e-001	-2.115660e-001
59388612.000	-9.757410e-001	-2.115299e-001
59394606.000	-9.757117e-001	-2.115477e-001
59400600.000	-9.758026e-001	-2.115538e-001
59406594.000	-9.756556e-001	-2.114829e-001
59412588.000	-9.757253e-001	-2.114981e-001
59418582.000	-9.757166e-001	-2.114488e-001
59424576.000	-9.756341e-001	-2.114203e-001
59430570.000	-9.757817e-001	-2.114193e-001
59436564.000	-9.757075e-001	-2.115548e-001
59442558.000	-9.757041e-001	-2.114316e-001
59448552.000	-9.756849e-001	-2.113239e-001
59454546.000	-9.756552e-001	-2.113958e-001
59460540.000	-9.757273e-001	-2.113729e-001
59466534.000	-9.757975e-001	-2.113014e-001
59472528.000	-9.758254e-001	-2.114016e-001
59478522.000	-9.757513e-001	-2.112770e-001
59484516.000	-9.756923e-001	-2.112545e-001
59490510.000	-9.757749e-001	-2.112111e-001
59496504.000	-9.757126e-001	-2.111665e-001
59502498.000	-9.757563e-001	-2.111247e-001
59508492.000	-9.757705e-001	-2.111999e-001
59514486.000	-9.757781e-001	-2.110816e-001
59520480.000	-9.759031e-001	-2.111839e-001
59526474.000	-9.758331e-001	-2.111384e-001
59532468.000	-9.757961e-001	-2.111299e-001
59538462.000	-9.758944e-001	-2.110751e-001
59544456.000	-9.759220e-001	-2.110681e-001
59550450.000	-9.758177e-001	-2.110778e-001
59556444.000	-9.758629e-001	-2.108657e-001
59562438.000	-9.759101e-001	-2.108381e-001
59568432.000	-9.758693e-001	-2.109105e-001
59574426.000	-9.757927e-001	-2.108908e-001
59580420.000	-9.758728e-001	-2.109573e-001
59586414.000	-9.759003e-001	-2.108590e-001
59592408.000	-9.758664e-001	-2.108522e-001
59598402.000	-9.758454e-001	-2.107413e-001
59604396.000	-9.759915e-001	-2.108723e-001
59610390.000	-9.758855e-001	-2.107641e-001
59616384.000	-9.760012e-001	-2.107682e-001
59622378.000	-9.759502e-001	-2.107097e-001
59628372.000	-9.758637e-001	-2.106506e-001
59634366.000	-9.759066e-001	-2.106521e-001
59640360.000	-9.758546e-001	-2.106493e-001
59646354.000	-9.759192e-001	-2.105922e-001
59652348.000	-9.758165e-001	-2.105341e-001
59658342.000	-9.758846e-001	-2.106381e-001
59664336.000	-9.758627e-001	-2.105382e-001
59670330.000	-9.759255e-001	-2.105954e-001
59676324.000	-9.758697e-001	-2.105440e-001
59682318.000	-9.759810e-001	-2.104102e-001
59688312.000	-9.759300e-001	-2.104904e-001
59694306.000	-9.759371e-001	-2.104492e-001
59700300.000	-9.759711e-001	-2.104577e-001
59706294.000	-9.758970e-001	-2.103576e-001
59712288.000	-9.760579e-001	-2.105048e-001
59718282.000	-9.759182e-001	-2.104405e-001
59724276.000	-9.759429e-001	-2.103020e-001
59730270.000	-9.759188e-001	-2.102848e-001
59736264.000	-9.760154e-001	-2.102316e-001
59742258.000	-9.760281e-001	-2.103492e-001
59748252.000	-9.760022e-001	-2.102754e-001
59754246.000	-9.759872e-001	-2.101515e-001
59760240.000	-9.760557e-001	-2.100382e-001
59766234.000	-9.760544e-001	-2.101673e-001
59772228.000	-9.759906e-001	-2.102000e-001
59778222.000	-9.760443e-001	-2.102329e-001
59784216.000	-9.759777e-001	-2.100771e-001
59790210.000	-9.761400e-001	-2.101276e-001
59796204.000	-9.760213e-001	-2.100101e-001
59802198.000	-9.760103e-001	-2.101626e-001
59808192.000	-9.759904e-001	-2.100505e-001
59814186.000	-9.760716e-001	-2.101058e-001
59820180.000	-9.759419e-001	-2.100177e-001
59826174.000	-9.760729e-001	-2.100644e-001
59832168.000	-9.760264e-001	-2.099328e-001
59838162.000	-9.760475e-001	-2.099063e-001
59844156.000	-9.759860e-001	-2.098979e-001
59850150.000	-9.760517e-001	-2.098862e-001
59856144.000	-9.760832e-001	-2.099348e-001
59862138.000	-9.761034e-001	-2.098892e-001
59868132.000	-9.760392e-001	-2.098138e-001
59874126.000	-9.761074e-001	-2.097348e-001
59880120.000	-9.759481e-001	-2.097386e-001
59886114.000	-9.761744e-001	-2.097415e-001
59892108.000	-9.760113e-001	-2.096712e-001
59898102.000	-9.761143e-001	-2.096658e-001
59904096.000	-9.762065e-001	-2.097764e-001
59910090.000	-9.760823e-001	-2.096222e-001
59916084.000	-9.761188e-001	-2.096502e-001
59922078.000	-9.760612e-001	-2.096490e-001
59928072.000	-9.760834e-001	-2.096441e-001
59934066.000	-9.762764e-001	-2.095794e-001
59940060.000	-9.761522e-001	-2.095673e-001
59946054.000	-9.760962e-001	-2.095414e-001
59952048.000	-9.762243e-001	-2.095122e-001
59958042.000	-9.761081e-001	-2.095269e-001
59964036.000	-9.761643e-001	-2.094328e-001
59970030.000	-9.760994e-001	-2.093804e-001
59976024.000	-9.761879e-001	-2.093521e-001
59982018.000	-9.761388e-001	-2.094333e-001
59988012.000	-9.761710e-001	-2.093948e-001
59994006.000	-9.761436e-001	-2.093108e-001
60000000.000	-9.762211e-001	-2.094029e-001
