!Keysight Technologies,E5063A,MY54100949,A.07.30
!Date: Wed Dec 31 03:25:33 2025
!Data & Calibration Information:
!Freq	S11:SOLT1(ON)
# Hz S RI R 50
60000.000	-9.893738e-001	4.583159e-002
65994.000	-9.900776e-001	4.973769e-002
71988.000	-9.895588e-001	5.395198e-002
77982.000	-9.897688e-001	5.746522e-002
83976.000	-9.891422e-001	6.145657e-002
89970.000	-9.885852e-001	6.548720e-002
95964.000	-9.883799e-001	6.945353e-002
101958.000	-9.879243e-001	7.355393e-002
107952.000	-9.875503e-001	7.753544e-002
113946.000	-9.872622e-001	8.142844e-002
119940.000	-9.866399e-001	8.533758e-002
125934.000	-9.864916e-001	8.951574e-002
131928.000	-9.856947e-001	9.356656e-002
137922.000	-9.852557e-001	9.733325e-002
143916.000	-9.848882e-001	1.015141e-001
149910.000	-9.842497e-001	1.055760e-001
155904.000	-9.842732e-001	1.098022e-001
161898.000	-9.834892e-001	1.134758e-001
167892.000	-9.829581e-001	1.175173e-001
173886.000	-9.823343e-001	1.216694e-001
179880.000	-9.816832e-001	1.255719e-001
185874.000	-9.811997e-001	1.298458e-001
191868.000	-9.805255e-001	1.336671e-001
197862.000	-9.800047e-001	1.378835e-001
203856.000	-9.793584e-001	1.415871e-001
209850.000	-9.789605e-001	1.457889e-001
215844.000	-9.781311e-001	1.497185e-001
221838.000	-9.774795e-001	1.540973e-001
227832.000	-9.769126e-001	1.577146e-001
233826.000	-9.758741e-001	1.616780e-001
239820.000	-9.752380e-001	1.655619e-001
245814.000	-9.745604e-001	1.697966e-001
251808.000	-9.739143e-001	1.735638e-001
257802.000	-9.730601e-001	1.775793e-001
263796.000	-9.723635e-001	1.815303e-001
269790.000	-9.712722e-001	1.855180e-001
275784.000	-9.707697e-001	1.896439e-001
281778.000	-9.694341e-001	1.929569e-001
287772.000	-9.690429e-001	1.972326e-001
293766.000	-9.683887e-001	2.014406e-001
299760.000	-9.673029e-001	2.051921e-001
305754.000	-9.663616e-001	2.088410e-001
311748.000	-9.656206e-001	2.130726e-001
317742.000	-9.645167e-001	2.171651e-001
323736.000	-9.638699e-001	2.210585e-001
329730.000	-9.628142e-001	2.247833e-001
335724.000	-9.617965e-001	2.288751e-001
341718.000	-9.608993e-001	2.326110e-001
347712.000	-9.599051e-001	2.367267e-001
353706.000	-9.588637e-001	2.403426e-001
359700.000	-9.578591e-001	2.444703e-001
365694.000	-9.566144e-001	2.477091e-001
371688.000	-9.557861e-001	2.519589e-001
377682.000	-9.548098e-001	2.559477e-001
383676.000	-9.537402e-001	2.597855e-001
389670.000	-9.525521e-001	2.635360e-001
395664.000	-9.515527e-001	2.673949e-001
401658.000	-9.502735e-001	2.713038e-001
407652.000	-9.491628e-001	2.748793e-001
413646.000	-9.481287e-001	2.788735e-001
419640.000	-9.469493e-001	2.826340e-001
425634.000	-9.457497e-001	2.864543e-001
431628.000	-9.445390e-001	2.905939e-001
437622.000	-9.431693e-001	2.938739e-001
443616.000	-9.420731e-001	2.978482e-001
449610.000	-9.409767e-001	3.017798e-001
455604.000	-9.397638e-001	3.054351e-001
461598.000	-9.385500e-001	3.091898e-001
467592.000	-9.370695e-001	3.129521e-001
473586.000	-9.358664e-001	3.164979e-001
479580.000	-9.347163e-001	3.202908e-001
485574.000	-9.332562e-001	3.241135e-001
491568.000	-9.317037e-001	3.278788e-001
497562.000	-9.305751e-001	3.314910e-001
503556.000	-9.292514e-001	3.351504e-001
509550.000	-9.279800e-001	3.389639e-001
515544.000	-9.265586e-001	3.424777e-001
521538.000	-9.252148e-001	3.463678e-001
527532.000	-9.236306e-001	3.501270e-001
533526.000	-9.222435e-001	3.537950e-001
539520.000	-9.209135e-001	3.573164e-001
545514.000	-9.193624e-001	3.609499e-001
551508.000	-9.178347e-001	3.646728e-001
557502.000	-9.165252e-001	3.681965e-001
563496.000	-9.149143e-001	3.717879e-001
569490.000	-9.134667e-001	3.757358e-001
575484.000	-9.122279e-001	3.790676e-001
581478.000	-9.104706e-001	3.827931e-001
587472.000	-9.087747e-001	3.861978e-001
593466.000	-9.072528e-001	3.897690e-001
599460.000	-9.057857e-001	3.931957e-001
605454.000	-9.040931e-001	3.969677e-001
611448.000	-9.025571e-001	4.004643e-001
617442.000	-9.010501e-001	4.041444e-001
623436.000	-8.992499e-001	4.072968e-001
629430.000	-8.977727e-001	4.110768e-001
635424.000	-8.960619e-001	4.146711e-001
641418.000	-8.944057e-001	4.179025e-001
647412.000	-8.926944e-001	4.214040e-001
653406.000	-8.910379e-001	4.250960e-001
659400.000	-8.893108e-001	4.283818e-001
665394.000	-8.875372e-001	4.318599e-001
671388.000	-8.857814e-001	4.355261e-001
677382.000	-8.842586e-001	4.388709e-001
683376.000	-8.825742e-001	4.423198e-001
689370.000	-8.805750e-001	4.455310e-001
695364.000	-8.790891e-001	4.491091e-001
701358.000	-8.772746e-001	4.524511e-001
707352.000	-8.754052e-001	4.559724e-001
713346.000	-8.735610e-001	4.594680e-001
719340.000	-8.717110e-001	4.626196e-001
725334.000	-8.700189e-001	4.653205e-001
731328.000	-8.682166e-001	4.692688e-001
737322.000	-8.663627e-001	4.725918e-001
743316.000	-8.645813e-001	4.759727e-001
749310.000	-8.627167e-001	4.792674e-001
755304.000	-8.605994e-001	4.824224e-001
761298.000	-8.587732e-001	4.858112e-001
767292.000	-8.569156e-001	4.892193e-001
773286.000	-8.550216e-001	4.926105e-001
779280.000	-8.524159e-001	4.959736e-001
785274.000	-8.513809e-001	4.986738e-001
791268.000	-8.493210e-001	5.019671e-001
797262.000	-8.474852e-001	5.054967e-001
803256.000	-8.456353e-001	5.087296e-001
809250.000	-8.434787e-001	5.117587e-001
815244.000	-8.414346e-001	5.150332e-001
821238.000	-8.394590e-001	5.182438e-001
827232.000	-8.376213e-001	5.214755e-001
833226.000	-8.353540e-001	5.245602e-001
839220.000	-8.335233e-001	5.271972e-001
845214.000	-8.315476e-001	5.306920e-001
851208.000	-8.293388e-001	5.339488e-001
857202.000	-8.273302e-001	5.371834e-001
863196.000	-8.253862e-001	5.401913e-001
869190.000	-8.233629e-001	5.433431e-001
875184.000	-8.210806e-001	5.464941e-001
881178.000	-8.193012e-001	5.493738e-001
887172.000	-8.170700e-001	5.522610e-001
893166.000	-8.150622e-001	5.554396e-001
899160.000	-8.131252e-001	5.587525e-001
905154.000	-8.105378e-001	5.618317e-001
911148.000	-8.085694e-001	5.647967e-001
917142.000	-8.066585e-001	5.673970e-001
923136.000	-8.043406e-001	5.704169e-001
929130.000	-8.023424e-001	5.735086e-001
935124.000	-8.001734e-001	5.765376e-001
941118.000	-7.980187e-001	5.795436e-001
947112.000	-7.959364e-001	5.824092e-001
953106.000	-7.936894e-001	5.855184e-001
959100.000	-7.914516e-001	5.885165e-001
965094.000	-7.892266e-001	5.912015e-001
971088.000	-7.866160e-001	5.937611e-001
977082.000	-7.849725e-001	5.970503e-001
983076.000	-7.826068e-001	5.998050e-001
989070.000	-7.800578e-001	6.024410e-001
995064.000	-7.782083e-001	6.054995e-001
1001058.000	-7.758096e-001	6.085544e-001
1007052.000	-7.736411e-001	6.111751e-001
1013046.000	-7.714023e-001	6.141563e-001
1019040.000	-7.692746e-001	6.166679e-001
1025034.000	-7.669143e-001	6.197030e-001
1031028.000	-7.647008e-001	6.221306e-001
1037022.000	-7.623879e-001	6.253372e-001
1043016.000	-7.600004e-001	6.279032e-001
1049010.000	-7.578026e-001	6.306200e-001
1055004.000	-7.555883e-001	6.334686e-001
1060998.000	-7.532208e-001	6.360955e-001
1066992.000	-7.508553e-001	6.389657e-001
1072986.000	-7.486318e-001	6.416599e-001
1078980.000	-7.461162e-001	6.443384e-001
1084974.000	-7.438589e-001	6.469690e-001
1090968.000	-7.415917e-001	6.496020e-001
1096962.000	-7.392363e-001	6.523700e-001
1102956.000	-7.368998e-001	6.548285e-001
1108950.000	-7.343785e-001	6.575519e-001
1114944.000	-7.318801e-001	6.601472e-001
1120938.000	-7.295996e-001	6.626819e-001
1126932.000	-7.270465e-001	6.654022e-001
1132926.000	-7.249407e-001	6.678666e-001
1138920.000	-7.225778e-001	6.703614e-001
1144914.000	-7.203666e-001	6.732147e-001
1150908.000	-7.177388e-001	6.755719e-001
1156902.000	-7.152239e-001	6.779738e-001
1162896.000	-7.128967e-001	6.806807e-001
1168890.000	-7.106341e-001	6.830394e-001
1174884.000	-7.081566e-001	6.856905e-001
1180878.000	-7.058940e-001	6.880907e-001
1186872.000	-7.033942e-001	6.906003e-001
1192866.000	-7.008431e-001	6.929266e-001
1198860.000	-6.983042e-001	6.952000e-001
1204854.000	-6.960526e-001	6.976420e-001
1210848.000	-6.935532e-001	7.003243e-001
1216842.000	-6.911916e-001	7.026606e-001
1222836.000	-6.883084e-001	7.050191e-001
1228830.000	-6.862084e-001	7.073812e-001
1234824.000	-6.838099e-001	7.099432e-001
1240818.000	-6.813386e-001	7.122832e-001
1246812.000	-6.789042e-001	7.144350e-001
1252806.000	-6.763694e-001	7.169542e-001
1258800.000	-6.738656e-001	7.190275e-001
1264794.000	-6.712683e-001	7.216530e-001
1270788.000	-6.689573e-001	7.239592e-001
1276782.000	-6.661931e-001	7.262374e-001
1282776.000	-6.638838e-001	7.284373e-001
1288770.000	-6.612523e-001	7.308247e-001
1294764.000	-6.586130e-001	7.328899e-001
1300758.000	-6.564415e-001	7.352244e-001
1306752.000	-6.536852e-001	7.375166e-001
1312746.000	-6.511504e-001	7.397642e-001
1318740.000	-6.487652e-001	7.419546e-001
1324734.000	-6.459805e-001	7.442355e-001
1330728.000	-6.437498e-001	7.462170e-001
1336722.000	-6.411432e-001	7.485249e-001
1342716.000	-6.384182e-001	7.504577e-001
1348710.000	-6.359461e-001	7.527021e-001
1354704.000	-6.334258e-001	7.547724e-001
1360698.000	-6.310348e-001	7.569670e-001
1366692.000	-6.283298e-001	7.589940e-001
1372686.000	-6.257800e-001	7.613539e-001
1378680.000	-6.232886e-001	7.633809e-001
1384674.000	-6.206284e-001	7.653827e-001
1390668.000	-6.180003e-001	7.676288e-001
1396662.000	-6.155910e-001	7.693147e-001
1402656.000	-6.128090e-001	7.713194e-001
1408650.000	-6.105885e-001	7.733615e-001
1414644.000	-6.078066e-001	7.755548e-001
1420638.000	-6.052999e-001	7.774969e-001
1426632.000	-6.027303e-001	7.794402e-001
1432626.000	-6.002320e-001	7.817152e-001
1438620.000	-5.975234e-001	7.835448e-001
1444614.000	-5.950579e-001	7.854390e-001
1450608.000	-5.923805e-001	7.872213e-001
1456602.000	-5.897297e-001	7.893530e-001
1462596.000	-5.867716e-001	7.910924e-001
1468590.000	-5.847130e-001	7.933433e-001
1474584.000	-5.818992e-001	7.952187e-001
1480578.000	-5.793543e-001	7.968312e-001
1486572.000	-5.767390e-001	7.987089e-001
1492566.000	-5.742434e-001	8.006688e-001
1498560.000	-5.715619e-001	8.025683e-001
1504554.000	-5.689419e-001	8.043121e-001
1510548.000	-5.662763e-001	8.060589e-001
1516542.000	-5.638770e-001	8.076703e-001
1522536.000	-5.612665e-001	8.099718e-001
1528530.000	-5.586001e-001	8.116254e-001
1534524.000	-5.558893e-001	8.131972e-001
1540518.000	-5.533316e-001	8.149477e-001
1546512.000	-5.507170e-001	8.169160e-001
1552506.000	-5.483005e-001	8.187931e-001
1558500.000	-5.454008e-001	8.204628e-001
1564494.000	-5.430259e-001	8.221153e-001
1570488.000	-5.402349e-001	8.237439e-001
1576482.000	-5.379293e-001	8.258233e-001
1582476.000	-5.349707e-001	8.273244e-001
1588470.000	-5.322336e-001	8.289366e-001
1594464.000	-5.297456e-001	8.307783e-001
1600458.000	-5.273166e-001	8.322183e-001
1606452.000	-5.245868e-001	8.340175e-001
1612446.000	-5.220305e-001	8.356139e-001
1618440.000	-5.192704e-001	8.372022e-001
1624434.000	-5.168991e-001	8.391051e-001
1630428.000	-5.140377e-001	8.405600e-001
1636422.000	-5.114314e-001	8.419862e-001
1642416.000	-5.087340e-001	8.437096e-001
1648410.000	-5.060536e-001	8.452573e-001
1654404.000	-5.031830e-001	8.466220e-001
1660398.000	-5.008902e-001	8.484098e-001
1666392.000	-4.983427e-001	8.500719e-001
1672386.000	-4.958274e-001	8.515562e-001
1678380.000	-4.929302e-001	8.530143e-001
1684374.000	-4.904723e-001	8.545496e-001
1690368.000	-4.877869e-001	8.561494e-001
1696362.000	-4.852587e-001	8.574338e-001
1702356.000	-4.825389e-001	8.589640e-001
1708350.000	-4.799099e-001	8.604933e-001
1714344.000	-4.775583e-001	8.619423e-001
1720338.000	-4.746799e-001	8.632011e-001
1726332.000	-4.721687e-001	8.646527e-001
1732326.000	-4.694918e-001	8.662661e-001
1738320.000	-4.668984e-001	8.676190e-001
1744314.000	-4.641928e-001	8.690386e-001
1750308.000	-4.615401e-001	8.704426e-001
1756302.000	-4.590307e-001	8.717487e-001
1762296.000	-4.564708e-001	8.730206e-001
1768290.000	-4.536976e-001	8.744843e-001
1774284.000	-4.510630e-001	8.756449e-001
1780278.000	-4.484682e-001	8.770442e-001
1786272.000	-4.460101e-001	8.784849e-001
1792266.000	-4.432334e-001	8.798742e-001
1798260.000	-4.406384e-001	8.811044e-001
1804254.000	-4.381599e-001	8.824274e-001
1810248.000	-4.353750e-001	8.836786e-001
1816242.000	-4.329564e-001	8.848924e-001
1822236.000	-4.302837e-001	8.863529e-001
1828230.000	-4.273752e-001	8.875495e-001
1834224.000	-4.249620e-001	8.889434e-001
1840218.000	-4.222986e-001	8.901909e-001
1846212.000	-4.196634e-001	8.911063e-001
1852206.000	-4.170711e-001	8.926156e-001
1858200.000	-4.144343e-001	8.938592e-001
1864194.000	-4.119242e-001	8.948677e-001
1870188.000	-4.093559e-001	8.961837e-001
1876182.000	-4.068127e-001	8.973647e-001
1882176.000	-4.039963e-001	8.985159e-001
1888170.000	-4.014718e-001	8.996457e-001
1894164.000	-3.988371e-001	9.006122e-001
1900158.000	-3.962278e-001	9.017427e-001
1906152.000	-3.939240e-001	9.031292e-001
1912146.000	-3.912076e-001	9.042828e-001
1918140.000	-3.885870e-001	9.053140e-001
1924134.000	-3.860676e-001	9.064232e-001
1930128.000	-3.833500e-001	9.075104e-001
1936122.000	-3.808951e-001	9.087053e-001
1942116.000	-3.781851e-001	9.098360e-001
1948110.000	-3.756648e-001	9.107289e-001
1954104.000	-3.729559e-001	9.119432e-001
1960098.000	-3.703931e-001	9.128189e-001
1966092.000	-3.676798e-001	9.139831e-001
1972086.000	-3.651641e-001	9.148624e-001
1978080.000	-3.627012e-001	9.161353e-001
1984074.000	-3.601401e-001	9.171145e-001
1990068.000	-3.577441e-001	9.181547e-001
1996062.000	-3.549710e-001	9.191308e-001
2002056.000	-3.526254e-001	9.199599e-001
2008050.000	-3.498931e-001	9.209979e-001
2014044.000	-3.474172e-001	9.218751e-001
2020038.000	-3.448130e-001	9.230208e-001
2026032.000	-3.419985e-001	9.240415e-001
2032026.000	-3.397527e-001	9.247489e-001
2038020.000	-3.371153e-001	9.257648e-001
2044014.000	-3.347115e-001	9.266638e-001
2050008.000	-3.321491e-001	9.275483e-001
2056002.000	-3.293893e-001	9.286466e-001
2061996.000	-3.270250e-001	9.294023e-001
2067990.000	-3.242891e-001	9.302589e-001
2073984.000	-3.219945e-001	9.310546e-001
2079978.000	-3.193021e-001	9.320978e-001
2085972.000	-3.169724e-001	9.328654e-001
2091966.000	-3.144263e-001	9.338566e-001
2097960.000	-3.118116e-001	9.347117e-001
2103954.000	-3.092737e-001	9.354928e-001
2109948.000	-3.068324e-001	9.364618e-001
2115942.000	-3.041800e-001	9.373098e-001
2121936.000	-3.017157e-001	9.380196e-001
2127930.000	-2.992083e-001	9.386895e-001
2133924.000	-2.965199e-001	9.396913e-001
2139918.000	-2.941127e-001	9.404362e-001
2145912.000	-2.916653e-001	9.413127e-001
2151906.000	-2.893364e-001	9.418857e-001
2157900.000	-2.864385e-001	9.425981e-001
2163894.000	-2.842040e-001	9.435107e-001
2169888.000	-2.818442e-001	9.443153e-001
2175882.000	-2.790917e-001	9.450092e-001
2181876.000	-2.765255e-001	9.457704e-001
2187870.000	-2.742123e-001	9.463004e-001
2193864.000	-2.717872e-001	9.471751e-001
2199858.000	-2.692557e-001	9.478598e-001
2205852.000	-2.668020e-001	9.486855e-001
2211846.000	-2.640916e-001	9.494580e-001
2217840.000	-2.617174e-001	9.498809e-001
2223834.000	-2.593490e-001	9.508361e-001
2229828.000	-2.568391e-001	9.514091e-001
2235822.000	-2.544049e-001	9.520927e-001
2241816.000	-2.520269e-001	9.529371e-001
2247810.000	-2.493550e-001	9.535392e-001
2253804.000	-2.469889e-001	9.542570e-001
2259798.000	-2.444993e-001	9.546154e-001
2265792.000	-2.419842e-001	9.553233e-001
2271786.000	-2.396059e-001	9.560050e-001
2277780.000	-2.370092e-001	9.565191e-001
2283774.000	-2.346421e-001	9.571078e-001
2289768.000	-2.321522e-001	9.577828e-001
2295762.000	-2.296406e-001	9.580868e-001
2301756.000	-2.275377e-001	9.587874e-001
2307750.000	-2.252044e-001	9.593999e-001
2313744.000	-2.226313e-001	9.598470e-001
2319738.000	-2.201866e-001	9.605533e-001
2325732.000	-2.177408e-001	9.612437e-001
2331726.000	-2.153215e-001	9.616074e-001
2337720.000	-2.127491e-001	9.619993e-001
2343714.000	-2.104742e-001	9.625599e-001
2349708.000	-2.084354e-001	9.633699e-001
2355702.000	-2.058874e-001	9.639002e-001
2361696.000	-2.033523e-001	9.644870e-001
2367690.000	-2.011547e-001	9.649489e-001
2373684.000	-1.988356e-001	9.654489e-001
2379678.000	-1.962292e-001	9.660547e-001
2385672.000	-1.938557e-001	9.664684e-001
2391666.000	-1.915749e-001	9.668861e-001
2397660.000	-1.889972e-001	9.673893e-001
2403654.000	-1.867136e-001	9.679175e-001
2409648.000	-1.843379e-001	9.683743e-001
2415642.000	-1.822245e-001	9.687927e-001
2421636.000	-1.797119e-001	9.691889e-001
2427630.000	-1.772597e-001	9.697050e-001
2433624.000	-1.749993e-001	9.702068e-001
2439618.000	-1.726942e-001	9.705661e-001
2445612.000	-1.702683e-001	9.710703e-001
2451606.000	-1.678572e-001	9.714304e-001
2457600.000	-1.656711e-001	9.719204e-001
2463594.000	-1.633148e-001	9.723206e-001
2469588.000	-1.610269e-001	9.726886e-001
2475582.000	-1.587912e-001	9.729262e-001
2481576.000	-1.563990e-001	9.734660e-001
2487570.000	-1.540576e-001	9.737921e-001
2493564.000	-1.518479e-001	9.741517e-001
2499558.000	-1.494392e-001	9.746168e-001
2505552.000	-1.470166e-001	9.748220e-001
2511546.000	-1.446467e-001	9.752347e-001
2517540.000	-1.424632e-001	9.755788e-001
2523534.000	-1.401993e-001	9.760462e-001
2529528.000	-1.380363e-001	9.761792e-001
2535522.000	-1.356883e-001	9.766277e-001
2541516.000	-1.334341e-001	9.768913e-001
2547510.000	-1.310784e-001	9.772910e-001
2553504.000	-1.287105e-001	9.775276e-001
2559498.000	-1.264586e-001	9.778512e-001
2565492.000	-1.244008e-001	9.781891e-001
2571486.000	-1.221482e-001	9.784593e-001
2577480.000	-1.196047e-001	9.788811e-001
2583474.000	-1.174746e-001	9.791410e-001
2589468.000	-1.152750e-001	9.793211e-001
2595462.000	-1.128770e-001	9.793386e-001
2601456.000	-1.106421e-001	9.798102e-001
2607450.000	-1.083776e-001	9.801384e-001
2613444.000	-1.064618e-001	9.801742e-001
2619438.000	-1.039755e-001	9.804279e-001
2625432.000	-1.017198e-001	9.807768e-001
2631426.000	-9.950377e-002	9.808615e-001
2637420.000	-9.747917e-002	9.811599e-001
2643414.000	-9.527735e-002	9.814433e-001
2649408.000	-9.309873e-002	9.817447e-001
2655402.000	-9.093977e-002	9.820309e-001
2661396.000	-8.857186e-002	9.823019e-001
2667390.000	-8.628932e-002	9.824247e-001
2673384.000	-8.401426e-002	9.825876e-001
2679378.000	-8.199184e-002	9.827193e-001
2685372.000	-7.991870e-002	9.830336e-001
2691366.000	-7.770249e-002	9.832794e-001
2697360.000	-7.541318e-002	9.834597e-001
2703354.000	-7.349854e-002	9.834630e-001
2709348.000	-7.121545e-002	9.838260e-001
2715342.000	-6.909239e-002	9.838074e-001
2721336.000	-6.675083e-002	9.840908e-001
2727330.000	-6.458917e-002	9.843097e-001
2733324.000	-6.259296e-002	9.844753e-001
2739318.000	-6.020424e-002	9.845692e-001
2745312.000	-5.811791e-002	9.846706e-001
2751306.000	-5.587830e-002	9.847993e-001
2757300.000	-5.372299e-002	9.849285e-001
2763294.000	-5.153738e-002	9.849957e-001
2769288.000	-4.934439e-002	9.852476e-001
2775282.000	-4.759915e-002	9.853129e-001
2781276.000	-4.542626e-002	9.855584e-001
2787270.000	-4.328081e-002	9.856483e-001
2793264.000	-4.101060e-002	9.857645e-001
2799258.000	-3.902128e-002	9.856575e-001
2805252.000	-3.678722e-002	9.858924e-001
2811246.000	-3.451863e-002	9.859146e-001
2817240.000	-3.244686e-002	9.859931e-001
2823234.000	-3.042578e-002	9.861217e-001
2829228.000	-2.838301e-002	9.859628e-001
2835222.000	-2.634879e-002	9.861667e-001
2841216.000	-2.426073e-002	9.862517e-001
2847210.000	-2.231402e-002	9.861933e-001
2853204.000	-2.018006e-002	9.863964e-001
2859198.000	-1.817474e-002	9.863868e-001
2865192.000	-1.612044e-002	9.865124e-001
2871186.000	-1.405243e-002	9.864615e-001
2877180.000	-1.186115e-002	9.865818e-001
2883174.000	-9.842762e-003	9.863363e-001
2889168.000	-7.572110e-003	9.863058e-001
2895162.000	-5.880582e-003	9.865888e-001
2901156.000	-3.512755e-003	9.865824e-001
2907150.000	-1.724254e-003	9.866451e-001
2913144.000	3.500262e-004	9.868135e-001
2919138.000	2.210487e-003	9.865470e-001
2925132.000	4.268245e-003	9.865547e-001
2931126.000	6.291519e-003	9.866863e-001
2937120.000	8.493583e-003	9.865136e-001
2943114.000	1.034850e-002	9.867253e-001
2949108.000	1.231660e-002	9.865457e-001
2955102.000	1.438437e-002	9.864424e-001
2961096.000	1.628547e-002	9.863898e-001
2967090.000	1.826672e-002	9.864606e-001
2973084.000	2.062943e-002	9.866038e-001
2979078.000	2.223539e-002	9.864349e-001
2985072.000	2.435927e-002	9.866093e-001
2991066.000	2.634580e-002	9.866127e-001
2997060.000	2.824230e-002	9.863999e-001
3003054.000	3.030528e-002	9.865855e-001
3009048.000	3.221582e-002	9.863729e-001
3015042.000	3.423032e-002	9.864504e-001
3021036.000	3.632593e-002	9.862328e-001
3027030.000	3.815508e-002	9.862165e-001
3033024.000	4.015573e-002	9.860605e-001
3039018.000	4.211017e-002	9.861784e-001
3045012.000	4.405492e-002	9.860528e-001
3051006.000	4.594617e-002	9.859493e-001
3057000.000	4.794733e-002	9.859274e-001
3062994.000	4.986219e-002	9.859948e-001
3068988.000	5.174853e-002	9.857072e-001
3074982.000	5.364880e-002	9.856244e-001
3080976.000	5.575481e-002	9.853892e-001
3086970.000	5.757381e-002	9.856144e-001
3092964.000	5.956080e-002	9.853333e-001
3098958.000	6.141547e-002	9.852221e-001
3104952.000	6.314926e-002	9.851669e-001
3110946.000	6.518346e-002	9.851024e-001
3116940.000	6.722786e-002	9.847973e-001
3122934.000	6.886704e-002	9.846156e-001
3128928.000	7.065584e-002	9.845194e-001
3134922.000	7.262633e-002	9.843545e-001
3140916.000	7.464401e-002	9.844961e-001
3146910.000	7.668036e-002	9.843726e-001
3152904.000	7.820789e-002	9.841606e-001
3158898.000	8.030257e-002	9.839754e-001
3164892.000	8.205050e-002	9.836762e-001
3170886.000	8.390414e-002	9.836061e-001
3176880.000	8.586079e-002	9.836002e-001
3182874.000	8.771376e-002	9.834911e-001
3188868.000	8.970425e-002	9.831904e-001
3194862.000	9.147460e-002	9.831968e-001
3200856.000	9.318044e-002	9.830511e-001
3206850.000	9.509608e-002	9.828281e-001
3212844.000	9.667647e-002	9.824406e-001
3218838.000	9.872958e-002	9.823950e-001
3224832.000	1.007238e-001	9.823519e-001
3230826.000	1.023446e-001	9.820989e-001
3236820.000	1.043644e-001	9.819937e-001
3242814.000	1.060310e-001	9.818087e-001
3248808.000	1.078397e-001	9.815077e-001
3254802.000	1.097375e-001	9.813123e-001
3260796.000	1.113942e-001	9.812260e-001
3266790.000	1.132761e-001	9.809727e-001
3272784.000	1.149584e-001	9.808445e-001
3278778.000	1.167365e-001	9.805489e-001
3284772.000	1.186418e-001	9.803967e-001
3290766.000	1.203777e-001	9.800497e-001
3296760.000	1.221056e-001	9.799411e-001
3302754.000	1.240194e-001	9.798461e-001
3308748.000	1.256694e-001	9.795041e-001
3314742.000	1.272776e-001	9.793278e-001
3320736.000	1.291075e-001	9.790583e-001
3326730.000	1.308890e-001	9.789100e-001
3332724.000	1.326176e-001	9.787502e-001
3338718.000	1.345159e-001	9.784694e-001
3344712.000	1.362803e-001	9.781111e-001
3350706.000	1.379383e-001	9.779987e-001
3356700.000	1.396223e-001	9.777921e-001
3362694.000	1.414473e-001	9.776410e-001
3368688.000	1.432394e-001	9.771992e-001
3374682.000	1.448350e-001	9.771287e-001
3380676.000	1.468187e-001	9.769304e-001
3386670.000	1.485966e-001	9.764849e-001
3392664.000	1.501103e-001	9.762282e-001
3398658.000	1.517517e-001	9.759897e-001
3404652.000	1.532015e-001	9.755669e-001
3410646.000	1.551458e-001	9.756215e-001
3416640.000	1.568593e-001	9.752908e-001
3422634.000	1.582664e-001	9.750685e-001
3428628.000	1.600940e-001	9.747237e-001
3434622.000	1.618485e-001	9.745514e-001
3440616.000	1.636741e-001	9.741418e-001
3446610.000	1.653249e-001	9.739423e-001
3452604.000	1.668183e-001	9.739016e-001
3458598.000	1.685342e-001	9.734218e-001
3464592.000	1.700856e-001	9.732082e-001
3470586.000	1.720159e-001	9.727650e-001
3476580.000	1.735540e-001	9.723744e-001
3482574.000	1.751890e-001	9.722358e-001
3488568.000	1.767663e-001	9.720683e-001
3494562.000	1.785157e-001	9.716145e-001
3500556.000	1.801071e-001	9.714898e-001
3506550.000	1.818195e-001	9.711878e-001
3512544.000	1.834932e-001	9.707214e-001
3518538.000	1.851665e-001	9.705998e-001
3524532.000	1.867728e-001	9.703102e-001
3530526.000	1.882825e-001	9.699732e-001
3536520.000	1.901171e-001	9.696574e-001
3542514.000	1.915710e-001	9.691900e-001
3548508.000	1.933057e-001	9.690996e-001
3554502.000	1.948587e-001	9.685904e-001
3560496.000	1.964519e-001	9.683385e-001
3566490.000	1.981693e-001	9.680865e-001
3572484.000	1.995210e-001	9.676821e-001
3578478.000	2.012599e-001	9.673957e-001
3584472.000	2.029345e-001	9.671064e-001
3590466.000	2.043876e-001	9.668385e-001
3596460.000	2.059140e-001	9.666307e-001
3602454.000	2.074360e-001	9.661885e-001
3608448.000	2.089857e-001	9.656825e-001
3614442.000	2.108103e-001	9.655635e-001
3620436.000	2.124173e-001	9.650332e-001
3626430.000	2.138852e-001	9.649844e-001
3632424.000	2.155087e-001	9.645135e-001
3638418.000	2.170455e-001	9.641016e-001
3644412.000	2.185617e-001	9.639500e-001
3650406.000	2.202833e-001	9.635409e-001
3656400.000	2.217729e-001	9.631286e-001
3662394.000	2.233686e-001	9.628582e-001
3668388.000	2.249676e-001	9.623498e-001
3674382.000	2.263362e-001	9.620372e-001
3680376.000	2.280808e-001	9.617916e-001
3686370.000	2.295004e-001	9.615213e-001
3692364.000	2.312544e-001	9.610474e-001
3698358.000	2.326309e-001	9.607602e-001
3704352.000	2.340714e-001	9.603141e-001
3710346.000	2.356651e-001	9.600421e-001
3716340.000	2.371662e-001	9.595417e-001
3722334.000	2.384541e-001	9.592392e-001
3728328.000	2.400649e-001	9.587790e-001
3734322.000	2.416142e-001	9.586339e-001
3740316.000	2.431376e-001	9.583402e-001
3746310.000	2.445451e-001	9.579935e-001
3752304.000	2.461116e-001	9.575196e-001
3758298.000	2.476089e-001	9.571501e-001
3764292.000	2.489675e-001	9.565633e-001
3770286.000	2.506088e-001	9.562886e-001
3776280.000	2.520161e-001	9.559775e-001
3782274.000	2.535484e-001	9.555123e-001
3788268.000	2.551204e-001	9.552583e-001
3794262.000	2.566447e-001	9.547814e-001
3800256.000	2.577830e-001	9.544629e-001
3806250.000	2.595310e-001	9.539906e-001
3812244.000	2.609778e-001	9.535916e-001
3818238.000	2.623772e-001	9.533140e-001
3824232.000	2.638929e-001	9.528121e-001
3830226.000	2.653271e-001	9.525454e-001
3836220.000	2.667401e-001	9.521224e-001
3842214.000	2.680843e-001	9.516981e-001
3848208.000	2.695810e-001	9.512352e-001
3854202.000	2.708014e-001	9.509696e-001
3860196.000	2.723871e-001	9.505205e-001
3866190.000	2.738107e-001	9.500494e-001
3872184.000	2.753004e-001	9.496901e-001
3878178.000	2.767081e-001	9.493023e-001
3884172.000	2.781633e-001	9.489665e-001
3890166.000	2.794932e-001	9.483603e-001
3896160.000	2.808722e-001	9.480575e-001
3902154.000	2.823476e-001	9.477315e-001
3908148.000	2.836934e-001	9.471694e-001
3914142.000	2.851837e-001	9.467608e-001
3920136.000	2.866053e-001	9.463643e-001
3926130.000	2.877872e-001	9.458505e-001
3932124.000	2.893116e-001	9.455405e-001
3938118.000	2.906672e-001	9.451862e-001
3944112.000	2.919493e-001	9.447698e-001
3950106.000	2.934396e-001	9.444030e-001
3956100.000	2.948812e-001	9.439933e-001
3962094.000	2.962071e-001	9.435254e-001
3968088.000	2.976022e-001	9.431879e-001
3974082.000	2.989768e-001	9.428199e-001
3980076.000	3.003067e-001	9.422152e-001
3986070.000	3.016070e-001	9.419586e-001
3992064.000	3.030563e-001	9.415793e-001
3998058.000	3.041834e-001	9.410398e-001
4004052.000	3.057586e-001	9.406452e-001
4010046.000	3.071563e-001	9.403578e-001
4016040.000	3.085950e-001	9.397094e-001
4022034.000	3.097462e-001	9.392961e-001
4028028.000	3.110572e-001	9.388947e-001
4034022.000	3.125747e-001	9.383853e-001
4040016.000	3.139272e-001	9.379401e-001
4046010.000	3.152853e-001	9.375181e-001
4052004.000	3.166733e-001	9.370083e-001
4057998.000	3.179046e-001	9.367429e-001
4063992.000	3.190663e-001	9.361337e-001
4069986.000	3.204359e-001	9.358406e-001
4075980.000	3.216126e-001	9.353990e-001
4081974.000	3.230593e-001	9.349915e-001
4087968.000	3.244490e-001	9.345163e-001
4093962.000	3.257261e-001	9.340574e-001
4099956.000	3.270375e-001	9.335873e-001
4105950.000	3.284302e-001	9.332671e-001
4111944.000	3.296253e-001	9.328149e-001
4117938.000	3.309984e-001	9.322948e-001
4123932.000	3.321957e-001	9.318403e-001
4129926.000	3.335312e-001	9.313776e-001
4135920.000	3.348107e-001	9.308676e-001
4141914.000	3.360869e-001	9.305803e-001
4147908.000	3.372937e-001	9.302336e-001
4153902.000	3.386138e-001	9.295770e-001
4159896.000	3.399401e-001	9.291312e-001
4165890.000	3.413167e-001	9.286839e-001
4171884.000	3.424990e-001	9.283041e-001
4177878.000	3.435384e-001	9.276152e-001
4183872.000	3.448472e-001	9.273055e-001
4189866.000	3.463498e-001	9.270176e-001
4195860.000	3.476041e-001	9.264318e-001
4201854.000	3.486384e-001	9.259116e-001
4207848.000	3.500125e-001	9.254792e-001
4213842.000	3.511351e-001	9.250726e-001
4219836.000	3.524398e-001	9.245833e-001
4225830.000	3.536359e-001	9.241095e-001
4231824.000	3.550336e-001	9.236805e-001
4237818.000	3.560120e-001	9.233393e-001
4243812.000	3.572416e-001	9.229211e-001
4249806.000	3.586304e-001	9.222339e-001
4255800.000	3.599176e-001	9.217801e-001
4261794.000	3.612148e-001	9.212043e-001
4267788.000	3.624882e-001	9.208675e-001
4273782.000	3.635243e-001	9.202247e-001
4279776.000	3.649233e-001	9.199104e-001
4285770.000	3.659385e-001	9.194270e-001
4291764.000	3.672608e-001	9.189272e-001
4297758.000	3.685707e-001	9.184816e-001
4303752.000	3.697354e-001	9.179030e-001
4309746.000	3.708238e-001	9.175713e-001
4315740.000	3.719516e-001	9.168906e-001
4321734.000	3.733213e-001	9.165968e-001
4327728.000	3.746522e-001	9.160869e-001
4333722.000	3.755892e-001	9.156607e-001
4339716.000	3.768393e-001	9.153046e-001
4345710.000	3.780922e-001	9.147469e-001
4351704.000	3.791913e-001	9.142343e-001
4357698.000	3.803579e-001	9.138134e-001
4363692.000	3.813906e-001	9.132225e-001
4369686.000	3.827681e-001	9.127074e-001
4375680.000	3.838057e-001	9.122744e-001
4381674.000	3.851199e-001	9.118944e-001
4387668.000	3.862659e-001	9.113201e-001
4393662.000	3.873684e-001	9.109151e-001
4399656.000	3.885968e-001	9.104946e-001
4405650.000	3.897383e-001	9.100264e-001
4411644.000	3.907948e-001	9.095676e-001
4417638.000	3.920319e-001	9.090763e-001
4423632.000	3.932837e-001	9.083835e-001
4429626.000	3.943066e-001	9.080727e-001
4435620.000	3.955289e-001	9.074255e-001
4441614.000	3.965855e-001	9.069423e-001
4447608.000	3.977643e-001	9.065997e-001
4453602.000	3.986239e-001	9.059532e-001
4459596.000	3.999706e-001	9.055764e-001
4465590.000	4.009681e-001	9.050501e-001
4471584.000	4.021932e-001	9.046032e-001
4477578.000	4.033953e-001	9.041345e-001
4483572.000	4.044510e-001	9.034833e-001
4489566.000	4.055454e-001	9.032043e-001
4495560.000	4.066762e-001	9.027232e-001
4501554.000	4.078641e-001	9.020290e-001
4507548.000	4.091126e-001	9.017257e-001
4513542.000	4.099572e-001	9.011679e-001
4519536.000	4.111967e-001	9.007279e-001
4525530.000	4.122164e-001	9.001138e-001
4531524.000	4.132998e-001	8.995818e-001
4537518.000	4.144934e-001	8.991514e-001
4543512.000	4.155612e-001	8.987991e-001
4549506.000	4.164778e-001	8.981768e-001
4555500.000	4.176729e-001	8.976735e-001
4561494.000	4.188083e-001	8.970851e-001
4567488.000	4.198863e-001	8.967949e-001
4573482.000	4.211994e-001	8.962190e-001
4579476.000	4.220279e-001	8.956977e-001
4585470.000	4.231863e-001	8.951750e-001
4591464.000	4.241299e-001	8.947778e-001
4597458.000	4.254829e-001	8.943052e-001
4603452.000	4.263237e-001	8.938282e-001
4609446.000	4.273536e-001	8.932202e-001
4615440.000	4.283960e-001	8.925647e-001
4621434.000	4.295392e-001	8.922253e-001
4627428.000	4.305152e-001	8.916924e-001
4633422.000	4.316606e-001	8.911294e-001
4639416.000	4.325913e-001	8.908399e-001
4645410.000	4.338409e-001	8.901818e-001
4651404.000	4.350579e-001	8.897119e-001
4657398.000	4.361225e-001	8.892869e-001
4663392.000	4.371098e-001	8.887664e-001
4669386.000	4.381108e-001	8.882632e-001
4675380.000	4.389731e-001	8.876432e-001
4681374.000	4.399493e-001	8.871295e-001
4687368.000	4.411364e-001	8.867271e-001
4693362.000	4.421944e-001	8.863141e-001
4699356.000	4.432651e-001	8.856511e-001
4705350.000	4.442155e-001	8.851806e-001
4711344.000	4.450865e-001	8.847027e-001
4717338.000	4.461564e-001	8.840238e-001
4723332.000	4.471743e-001	8.836425e-001
4729326.000	4.483851e-001	8.831875e-001
4735320.000	4.491965e-001	8.825811e-001
4741314.000	4.502109e-001	8.821157e-001
4747308.000	4.512005e-001	8.817147e-001
4753302.000	4.523722e-001	8.811695e-001
4759296.000	4.534107e-001	8.806917e-001
4765290.000	4.541871e-001	8.802016e-001
4771284.000	4.553970e-001	8.796291e-001
4777278.000	4.564086e-001	8.791014e-001
4783272.000	4.572211e-001	8.787731e-001
4789266.000	4.583104e-001	8.780900e-001
4795260.000	4.592806e-001	8.776050e-001
4801254.000	4.601559e-001	8.771131e-001
4807248.000	4.612738e-001	8.765842e-001
4813242.000	4.623031e-001	8.760786e-001
4819236.000	4.632003e-001	8.757153e-001
4825230.000	4.640231e-001	8.751055e-001
4831224.000	4.651819e-001	8.746620e-001
4837218.000	4.661795e-001	8.741932e-001
4843212.000	4.672025e-001	8.737163e-001
4849206.000	4.680384e-001	8.730568e-001
4855200.000	4.688947e-001	8.724723e-001
4861194.000	4.699906e-001	8.722085e-001
4867188.000	4.710120e-001	8.716550e-001
4873182.000	4.721077e-001	8.711490e-001
4879176.000	4.729076e-001	8.706381e-001
4885170.000	4.737791e-001	8.700014e-001
4891164.000	4.747663e-001	8.694909e-001
4897158.000	4.758726e-001	8.691063e-001
4903152.000	4.767425e-001	8.685338e-001
4909146.000	4.777165e-001	8.679615e-001
4915140.000	4.785552e-001	8.674551e-001
4921134.000	4.796079e-001	8.669701e-001
4927128.000	4.805503e-001	8.664927e-001
4933122.000	4.814385e-001	8.659012e-001
4939116.000	4.824559e-001	8.654310e-001
4945110.000	4.833401e-001	8.649274e-001
4951104.000	4.842539e-001	8.643620e-001
4957098.000	4.850997e-001	8.639359e-001
4963092.000	4.861275e-001	8.635594e-001
4969086.000	4.869807e-001	8.630638e-001
4975080.000	4.881529e-001	8.623156e-001
4981074.000	4.886917e-001	8.619293e-001
4987068.000	4.898102e-001	8.613587e-001
4993062.000	4.906788e-001	8.611000e-001
4999056.000	4.916313e-001	8.604325e-001
5005050.000	4.926367e-001	8.598896e-001
5011044.000	4.933835e-001	8.593737e-001
5017038.000	4.944082e-001	8.587667e-001
5023032.000	4.955416e-001	8.582613e-001
5029026.000	4.963015e-001	8.577250e-001
5035020.000	4.969594e-001	8.571929e-001
5041014.000	4.981744e-001	8.567409e-001
5047008.000	4.989954e-001	8.562515e-001
5053002.000	4.998634e-001	8.556625e-001
5058996.000	5.007711e-001	8.551061e-001
5064990.000	5.017077e-001	8.546834e-001
5070984.000	5.024581e-001	8.540927e-001
5076978.000	5.034122e-001	8.537624e-001
5082972.000	5.042979e-001	8.531620e-001
5088966.000	5.051759e-001	8.526189e-001
5094960.000	5.059822e-001	8.522017e-001
5100954.000	5.069200e-001	8.515782e-001
5106948.000	5.078510e-001	8.511610e-001
5112942.000	5.087119e-001	8.505594e-001
5118936.000	5.095667e-001	8.501850e-001
5124930.000	5.105486e-001	8.496283e-001
5130924.000	5.111873e-001	8.491366e-001
5136918.000	5.120581e-001	8.485323e-001
5142912.000	5.127452e-001	8.480545e-001
5148906.000	5.137340e-001	8.476065e-001
5154900.000	5.145778e-001	8.471386e-001
5160894.000	5.154405e-001	8.465183e-001
5166888.000	5.164298e-001	8.459998e-001
5172882.000	5.171633e-001	8.456246e-001
5178876.000	5.181006e-001	8.450426e-001
5184870.000	5.189186e-001	8.445785e-001
5190864.000	5.198557e-001	8.439657e-001
5196858.000	5.206667e-001	8.434479e-001
5202852.000	5.214274e-001	8.430003e-001
5208846.000	5.222858e-001	8.425244e-001
5214840.000	5.232886e-001	8.419809e-001
5220834.000	5.241028e-001	8.414042e-001
5226828.000	5.248689e-001	8.409200e-001
5232822.000	5.257313e-001	8.403945e-001
5238816.000	5.264971e-001	8.399800e-001
5244810.000	5.274734e-001	8.394996e-001
5250804.000	5.282635e-001	8.387316e-001
5256798.000	5.291481e-001	8.384575e-001
5262792.000	5.299221e-001	8.379463e-001
5268786.000	5.306996e-001	8.373682e-001
5274780.000	5.315769e-001	8.368529e-001
5280774.000	5.325161e-001	8.363498e-001
5286768.000	5.333107e-001	8.357695e-001
5292762.000	5.340169e-001	8.352817e-001
5298756.000	5.345815e-001	8.348157e-001
5304750.000	5.356361e-001	8.342271e-001
5310744.000	5.363696e-001	8.337599e-001
5316738.000	5.371623e-001	8.331356e-001
5322732.000	5.380536e-001	8.326793e-001
5328726.000	5.387490e-001	8.321964e-001
5334720.000	5.397465e-001	8.316927e-001
5340714.000	5.403873e-001	8.311806e-001
5346708.000	5.412767e-001	8.305852e-001
5352702.000	5.419626e-001	8.300292e-001
5358696.000	5.428864e-001	8.295595e-001
5364690.000	5.435949e-001	8.291988e-001
5370684.000	5.445125e-001	8.286686e-001
5376678.000	5.453078e-001	8.282031e-001
5382672.000	5.461684e-001	8.276263e-001
5388666.000	5.467805e-001	8.271483e-001
5394660.000	5.475661e-001	8.265763e-001
5400654.000	5.483163e-001	8.261150e-001
5406648.000	5.491213e-001	8.255747e-001
5412642.000	5.500624e-001	8.250413e-001
5418636.000	5.506678e-001	8.246561e-001
5424630.000	5.514353e-001	8.240397e-001
5430624.000	5.523032e-001	8.237013e-001
5436618.000	5.530610e-001	8.230813e-001
5442612.000	5.538860e-001	8.226801e-001
5448606.000	5.547621e-001	8.218867e-001
5454600.000	5.554668e-001	8.214559e-001
5460594.000	5.562211e-001	8.210416e-001
5466588.000	5.568834e-001	8.204974e-001
5472582.000	5.575795e-001	8.199916e-001
5478576.000	5.583836e-001	8.194325e-001
5484570.000	5.590683e-001	8.188942e-001
5490564.000	5.599976e-001	8.183782e-001
5496558.000	5.606459e-001	8.179217e-001
5502552.000	5.614253e-001	8.175119e-001
5508546.000	5.620911e-001	8.170311e-001
5514540.000	5.629329e-001	8.163957e-001
5520534.000	5.637321e-001	8.159547e-001
5526528.000	5.645249e-001	8.154585e-001
5532522.000	5.652375e-001	8.150131e-001
5538516.000	5.660189e-001	8.144346e-001
5544510.000	5.667686e-001	8.139264e-001
5550504.000	5.674146e-001	8.133785e-001
5556498.000	5.682840e-001	8.128183e-001
5562492.000	5.690344e-001	8.125018e-001
5568486.000	5.695557e-001	8.119050e-001
5574480.000	5.704121e-001	8.113211e-001
5580474.000	5.710828e-001	8.109523e-001
5586468.000	5.718272e-001	8.103247e-001
5592462.000	5.728019e-001	8.099235e-001
5598456.000	5.731975e-001	8.093637e-001
5604450.000	5.740069e-001	8.088036e-001
5610444.000	5.747982e-001	8.084321e-001
5616438.000	5.754223e-001	8.078561e-001
5622432.000	5.762382e-001	8.073382e-001
5628426.000	5.769463e-001	8.069159e-001
5634420.000	5.776248e-001	8.063568e-001
5640414.000	5.783002e-001	8.057805e-001
5646408.000	5.791041e-001	8.053151e-001
5652402.000	5.798281e-001	8.047850e-001
5658396.000	5.806071e-001	8.043928e-001
5664390.000	5.811346e-001	8.038248e-001
5670384.000	5.820265e-001	8.033340e-001
5676378.000	5.825416e-001	8.026957e-001
5682372.000	5.835804e-001	8.022999e-001
5688366.000	5.840665e-001	8.018669e-001
5694360.000	5.848545e-001	8.012238e-001
5700354.000	5.854490e-001	8.007925e-001
5706348.000	5.862195e-001	8.003330e-001
5712342.000	5.869296e-001	7.998747e-001
5718336.000	5.875811e-001	7.992653e-001
5724330.000	5.881730e-001	7.987508e-001
5730324.000	5.889386e-001	7.983048e-001
5736318.000	5.898255e-001	7.976545e-001
5742312.000	5.903732e-001	7.973232e-001
5748306.000	5.909461e-001	7.968020e-001
5754300.000	5.916314e-001	7.964428e-001
5760294.000	5.923449e-001	7.959034e-001
5766288.000	5.931243e-001	7.953798e-001
5772282.000	5.936629e-001	7.948438e-001
5778276.000	5.944410e-001	7.943824e-001
5784270.000	5.950632e-001	7.938393e-001
5790264.000	5.958079e-001	7.934511e-001
5796258.000	5.964323e-001	7.928004e-001
5802252.000	5.972159e-001	7.922425e-001
5808246.000	5.977959e-001	7.918350e-001
5814240.000	5.985719e-001	7.912896e-001
5820234.000	5.990579e-001	7.909324e-001
5826228.000	5.999729e-001	7.904411e-001
5832222.000	6.006076e-001	7.898945e-001
5838216.000	6.011927e-001	7.893257e-001
5844210.000	6.019341e-001	7.887133e-001
5850204.000	6.024438e-001	7.883947e-001
5856198.000	6.031999e-001	7.879971e-001
5862192.000	6.039528e-001	7.873734e-001
5868186.000	6.045695e-001	7.868716e-001
5874180.000	6.051156e-001	7.862931e-001
5880174.000	6.058337e-001	7.857818e-001
5886168.000	6.064582e-001	7.852635e-001
5892162.000	6.071068e-001	7.848781e-001
5898156.000	6.078482e-001	7.843543e-001
5904150.000	6.084746e-001	7.838672e-001
5910144.000	6.090871e-001	7.833856e-001
5916138.000	6.097388e-001	7.828529e-001
5922132.000	6.103443e-001	7.823382e-001
5928126.000	6.111217e-001	7.818302e-001
5934120.000	6.115772e-001	7.814034e-001
5940114.000	6.122334e-001	7.809615e-001
5946108.000	6.130114e-001	7.802572e-001
5952102.000	6.136159e-001	7.799071e-001
5958096.000	6.142824e-001	7.794261e-001
5964090.000	6.149797e-001	7.789757e-001
5970084.000	6.153954e-001	7.784043e-001
5976078.000	6.161799e-001	7.779137e-001
5982072.000	6.167147e-001	7.775670e-001
5988066.000	6.174919e-001	7.769536e-001
5994060.000	6.180973e-001	7.764310e-001
6000054.000	6.186248e-001	7.760709e-001
6006048.000	6.192739e-001	7.756207e-001
6012042.000	6.199107e-001	7.750239e-001
6018036.000	6.205124e-001	7.745485e-001
6024030.000	6.210635e-001	7.740404e-001
6030024.000	6.216260e-001	7.736472e-001
6036018.000	6.224030e-001	7.730266e-001
6042012.000	6.230753e-001	7.725809e-001
6048006.000	6.236363e-001	7.719370e-001
6054000.000	6.241886e-001	7.716352e-001
6059994.000	6.248294e-001	7.710968e-001
6065988.000	6.254940e-001	7.706541e-001
6071982.000	6.259928e-001	7.701876e-001
6077976.000	6.266193e-001	7.696676e-001
6083970.000	6.272156e-001	7.692485e-001
6089964.000	6.278562e-001	7.687254e-001
6095958.000	6.283818e-001	7.682942e-001
6101952.000	6.291163e-001	7.676946e-001
6107946.000	6.297493e-001	7.671844e-001
6113940.000	6.304424e-001	7.667300e-001
6119934.000	6.308932e-001	7.662623e-001
6125928.000	6.315060e-001	7.657878e-001
6131922.000	6.321371e-001	7.651961e-001
6137916.000	6.326610e-001	7.648104e-001
6143910.000	6.332665e-001	7.643099e-001
6149904.000	6.339026e-001	7.637611e-001
6155898.000	6.344196e-001	7.632643e-001
6161892.000	6.348331e-001	7.629397e-001
6167886.000	6.356847e-001	7.624223e-001
6173880.000	6.363170e-001	7.619718e-001
6179874.000	6.367960e-001	7.614718e-001
6185868.000	6.374140e-001	7.609662e-001
6191862.000	6.380011e-001	7.602962e-001
6197856.000	6.386358e-001	7.598857e-001
6203850.000	6.391185e-001	7.594813e-001
6209844.000	6.397333e-001	7.590593e-001
6215838.000	6.404209e-001	7.584748e-001
6221832.000	6.408803e-001	7.579774e-001
6227826.000	6.413824e-001	7.575662e-001
6233820.000	6.421542e-001	7.571684e-001
6239814.000	6.426307e-001	7.565711e-001
6245808.000	6.432768e-001	7.561059e-001
6251802.000	6.439491e-001	7.556336e-001
6257796.000	6.444972e-001	7.550821e-001
6263790.000	6.450081e-001	7.547820e-001
6269784.000	6.454075e-001	7.542089e-001
6275778.000	6.462329e-001	7.537043e-001
6281772.000	6.466721e-001	7.532339e-001
6287766.000	6.473426e-001	7.528206e-001
6293760.000	6.477747e-001	7.523162e-001
6299754.000	6.483555e-001	7.518181e-001
6305748.000	6.488167e-001	7.513622e-001
6311742.000	6.494431e-001	7.509313e-001
6317736.000	6.499848e-001	7.504342e-001
6323730.000	6.505212e-001	7.500334e-001
6329724.000	6.511091e-001	7.494756e-001
6335718.000	6.516066e-001	7.490578e-001
6341712.000	6.521484e-001	7.485037e-001
6347706.000	6.527553e-001	7.480957e-001
6353700.000	6.533237e-001	7.474658e-001
6359694.000	6.539740e-001	7.470636e-001
6365688.000	6.545269e-001	7.467206e-001
6371682.000	6.548860e-001	7.461876e-001
6377676.000	6.553024e-001	7.456799e-001
6383670.000	6.560650e-001	7.451599e-001
6389664.000	6.566799e-001	7.446887e-001
6395658.000	6.571599e-001	7.443748e-001
6401652.000	6.577679e-001	7.437579e-001
6407646.000	6.583300e-001	7.433720e-001
6413640.000	6.589379e-001	7.428633e-001
6419634.000	6.594234e-001	7.425030e-001
6425628.000	6.599199e-001	7.418870e-001
6431622.000	6.604614e-001	7.415201e-001
6437616.000	6.609356e-001	7.410656e-001
6443610.000	6.614582e-001	7.405211e-001
6449604.000	6.619369e-001	7.400766e-001
6455598.000	6.625992e-001	7.395729e-001
6461592.000	6.631341e-001	7.391893e-001
6467586.000	6.636825e-001	7.386212e-001
6473580.000	6.641298e-001	7.380885e-001
6479574.000	6.647128e-001	7.376372e-001
6485568.000	6.652321e-001	7.372446e-001
6491562.000	6.657360e-001	7.368416e-001
6497556.000	6.662496e-001	7.363443e-001
6503550.000	6.667339e-001	7.359805e-001
6509544.000	6.672934e-001	7.353492e-001
6515538.000	6.677742e-001	7.350516e-001
6521532.000	6.682688e-001	7.344617e-001
6527526.000	6.688880e-001	7.339995e-001
6533520.000	6.693597e-001	7.334482e-001
6539514.000	6.698671e-001	7.329762e-001
6545508.000	6.704015e-001	7.325901e-001
6551502.000	6.709130e-001	7.321413e-001
6557496.000	6.714251e-001	7.316958e-001
6563490.000	6.718557e-001	7.312191e-001
6569484.000	6.723643e-001	7.307486e-001
6575478.000	6.729820e-001	7.303066e-001
6581472.000	6.734927e-001	7.298965e-001
6587466.000	6.739924e-001	7.293475e-001
6593460.000	6.744880e-001	7.288535e-001
6599454.000	6.749363e-001	7.283827e-001
6605448.000	6.756367e-001	7.279519e-001
6611442.000	6.760883e-001	7.275439e-001
6617436.000	6.765469e-001	7.270693e-001
6623430.000	6.770480e-001	7.265939e-001
6629424.000	6.774771e-001	7.262005e-001
6635418.000	6.780429e-001	7.257451e-001
6641412.000	6.785230e-001	7.250606e-001
6647406.000	6.788500e-001	7.248108e-001
6653400.000	6.794344e-001	7.242999e-001
6659394.000	6.799515e-001	7.238327e-001
6665388.000	6.804413e-001	7.233864e-001
6671382.000	6.810196e-001	7.229339e-001
6677376.000	6.814800e-001	7.225865e-001
6683370.000	6.820296e-001	7.219979e-001
6689364.000	6.824723e-001	7.215171e-001
6695358.000	6.829681e-001	7.210621e-001
6701352.000	6.834686e-001	7.206301e-001
6707346.000	6.838787e-001	7.202998e-001
6713340.000	6.844726e-001	7.198889e-001
6719334.000	6.850017e-001	7.193740e-001
6725328.000	6.854079e-001	7.188581e-001
6731322.000	6.858678e-001	7.184159e-001
6737316.000	6.864054e-001	7.178931e-001
6743310.000	6.868269e-001	7.175415e-001
6749304.000	6.873701e-001	7.171268e-001
6755298.000	6.879491e-001	7.165639e-001
6761292.000	6.883134e-001	7.161514e-001
6767286.000	6.887483e-001	7.157325e-001
6773280.000	6.891528e-001	7.151948e-001
6779274.000	6.897471e-001	7.148952e-001
6785268.000	6.902433e-001	7.143338e-001
6791262.000	6.906897e-001	7.137935e-001
6797256.000	6.911301e-001	7.134742e-001
6803250.000	6.916005e-001	7.129895e-001
6809244.000	6.920287e-001	7.126611e-001
6815238.000	6.925428e-001	7.120527e-001
6821232.000	6.930688e-001	7.117818e-001
6827226.000	6.936451e-001	7.111474e-001
6833220.000	6.940281e-001	7.108029e-001
6839214.000	6.943719e-001	7.103296e-001
6845208.000	6.948017e-001	7.098242e-001
6851202.000	6.954122e-001	7.095141e-001
6857196.000	6.957955e-001	7.089655e-001
6863190.000	6.962791e-001	7.085862e-001
6869184.000	6.967272e-001	7.080860e-001
6875178.000	6.972422e-001	7.077944e-001
6881172.000	6.977898e-001	7.072364e-001
6887166.000	6.980921e-001	7.066770e-001
6893160.000	6.985115e-001	7.063445e-001
6899154.000	6.989880e-001	7.058385e-001
6905148.000	6.995074e-001	7.054547e-001
6911142.000	6.999112e-001	7.049676e-001
6917136.000	7.003970e-001	7.045000e-001
6923130.000	7.009696e-001	7.040790e-001
6929124.000	7.012421e-001	7.037105e-001
6935118.000	7.017241e-001	7.031765e-001
6941112.000	7.022109e-001	7.027596e-001
6947106.000	7.027103e-001	7.024108e-001
6953100.000	7.030652e-001	7.018979e-001
6959094.000	7.034280e-001	7.013798e-001
6965088.000	7.040657e-001	7.010967e-001
6971082.000	7.045261e-001	7.005984e-001
6977076.000	7.049359e-001	7.001726e-001
6983070.000	7.053914e-001	6.997168e-001
6989064.000	7.057952e-001	6.992985e-001
6995058.000	7.062681e-001	6.988005e-001
7001052.000	7.066089e-001	6.983641e-001
7007046.000	7.070063e-001	6.979864e-001
7013040.000	7.074688e-001	6.975747e-001
7019034.000	7.081070e-001	6.969699e-001
7025028.000	7.083643e-001	6.967131e-001
7031022.000	7.088396e-001	6.962869e-001
7037016.000	7.093036e-001	6.958609e-001
7043010.000	7.097219e-001	6.953124e-001
7049004.000	7.101797e-001	6.947703e-001
7054998.000	7.105308e-001	6.944446e-001
7060992.000	7.109573e-001	6.938335e-001
7066986.000	7.114479e-001	6.935616e-001
7072980.000	7.118454e-001	6.931526e-001
7078974.000	7.123638e-001	6.928041e-001
7084968.000	7.127625e-001	6.922495e-001
7090962.000	7.132399e-001	6.917901e-001
7096956.000	7.136245e-001	6.913688e-001
7102950.000	7.140536e-001	6.910081e-001
7108944.000	7.144564e-001	6.905872e-001
7114938.000	7.149146e-001	6.900688e-001
7120932.000	7.154062e-001	6.897236e-001
7126926.000	7.158271e-001	6.892223e-001
7132920.000	7.161822e-001	6.887693e-001
7138914.000	7.165706e-001	6.884627e-001
7144908.000	7.169391e-001	6.879258e-001
7150902.000	7.174300e-001	6.875069e-001
7156896.000	7.179639e-001	6.870042e-001
7162890.000	7.182953e-001	6.866926e-001
7168884.000	7.186906e-001	6.862422e-001
7174878.000	7.191183e-001	6.859908e-001
7180872.000	7.195104e-001	6.853780e-001
7186866.000	7.199387e-001	6.849537e-001
7192860.000	7.204216e-001	6.845446e-001
7198854.000	7.207193e-001	6.840507e-001
7204848.000	7.212923e-001	6.835888e-001
7210842.000	7.215581e-001	6.832128e-001
7216836.000	7.220376e-001	6.827765e-001
7222830.000	7.224336e-001	6.823411e-001
7228824.000	7.227700e-001	6.819007e-001
7234818.000	7.231585e-001	6.816238e-001
7240812.000	7.235735e-001	6.810856e-001
7246806.000	7.241410e-001	6.807480e-001
7252800.000	7.244724e-001	6.802763e-001
7258794.000	7.248901e-001	6.798249e-001
7264788.000	7.251799e-001	6.794514e-001
7270782.000	7.255735e-001	6.790341e-001
7276776.000	7.259641e-001	6.785978e-001
7282770.000	7.264938e-001	6.781167e-001
7288764.000	7.268770e-001	6.775906e-001
7294758.000	7.272123e-001	6.773818e-001
7300752.000	7.277910e-001	6.768786e-001
7306746.000	7.280918e-001	6.764431e-001
7312740.000	7.284633e-001	6.760506e-001
7318734.000	7.288431e-001	6.756727e-001
7324728.000	7.291815e-001	6.751350e-001
7330722.000	7.296129e-001	6.747840e-001
7336716.000	7.299820e-001	6.744262e-001
7342710.000	7.303393e-001	6.739396e-001
7348704.000	7.308682e-001	6.733938e-001
7354698.000	7.311638e-001	6.730456e-001
7360692.000	7.315284e-001	6.727025e-001
7366686.000	7.319969e-001	6.722635e-001
7372680.000	7.324208e-001	6.717968e-001
7378674.000	7.328118e-001	6.712849e-001
7384668.000	7.332032e-001	6.710230e-001
7390662.000	7.335740e-001	6.707323e-001
7396656.000	7.338861e-001	6.702431e-001
7402650.000	7.342543e-001	6.698371e-001
7408644.000	7.346840e-001	6.694554e-001
7414638.000	7.349798e-001	6.689792e-001
7420632.000	7.354909e-001	6.686954e-001
7426626.000	7.359270e-001	6.681102e-001
7432620.000	7.362703e-001	6.676799e-001
7438614.000	7.365831e-001	6.671628e-001
7444608.000	7.370620e-001	6.668301e-001
7450602.000	7.373491e-001	6.664502e-001
7456596.000	7.377615e-001	6.659560e-001
7462590.000	7.381097e-001	6.654782e-001
7468584.000	7.386323e-001	6.651368e-001
7474578.000	7.388103e-001	6.647353e-001
7480572.000	7.392829e-001	6.643116e-001
7486566.000	7.396470e-001	6.638225e-001
7492560.000	7.399621e-001	6.635899e-001
7498554.000	7.403698e-001	6.630357e-001
7504548.000	7.407425e-001	6.627472e-001
7510542.000	7.411840e-001	6.623186e-001
7516536.000	7.416075e-001	6.619242e-001
7522530.000	7.420134e-001	6.615684e-001
7528524.000	7.423520e-001	6.611269e-001
7534518.000	7.425547e-001	6.606054e-001
7540512.000	7.429750e-001	6.602559e-001
7546506.000	7.433465e-001	6.598150e-001
7552500.000	7.437808e-001	6.594186e-001
7558494.000	7.440897e-001	6.591116e-001
7564488.000	7.445013e-001	6.585552e-001
7570482.000	7.448941e-001	6.582786e-001
7576476.000	7.451984e-001	6.578263e-001
7582470.000	7.456271e-001	6.574799e-001
7588464.000	7.458524e-001	6.569397e-001
7594458.000	7.462998e-001	6.566181e-001
7600452.000	7.466308e-001	6.561439e-001
7606446.000	7.470195e-001	6.558836e-001
7612440.000	7.473520e-001	6.553901e-001
7618434.000	7.477395e-001	6.549040e-001
7624428.000	7.480906e-001	6.546061e-001
7630422.000	7.483453e-001	6.542702e-001
7636416.000	7.489363e-001	6.537237e-001
7642410.000	7.489700e-001	6.533849e-001
7648404.000	7.495054e-001	6.529097e-001
7654398.000	7.498844e-001	6.525571e-001
7660392.000	7.502741e-001	6.521661e-001
7666386.000	7.505688e-001	6.516640e-001
7672380.000	7.508790e-001	6.512919e-001
7678374.000	7.514141e-001	6.509393e-001
7684368.000	7.516419e-001	6.505273e-001
7690362.000	7.519456e-001	6.504491e-001
7696356.000	7.522631e-001	6.497262e-001
7702350.000	7.526564e-001	6.494907e-001
7708344.000	7.530097e-001	6.490091e-001
7714338.000	7.533053e-001	6.485678e-001
7720332.000	7.537127e-001	6.481763e-001
7726326.000	7.540770e-001	6.478887e-001
7732320.000	7.543834e-001	6.473826e-001
7738314.000	7.547528e-001	6.470559e-001
7744308.000	7.550824e-001	6.465164e-001
7750302.000	7.555710e-001	6.461710e-001
7756296.000	7.557429e-001	6.458666e-001
7762290.000	7.562801e-001	6.454552e-001
7768284.000	7.564210e-001	6.450890e-001
7774278.000	7.568042e-001	6.445914e-001
7780272.000	7.572052e-001	6.442863e-001
7786266.000	7.575721e-001	6.437980e-001
7792260.000	7.577899e-001	6.435405e-001
7798254.000	7.582747e-001	6.432206e-001
7804248.000	7.586336e-001	6.428324e-001
7810242.000	7.589229e-001	6.422204e-001
7816236.000	7.591899e-001	6.419309e-001
7822230.000	7.594174e-001	6.413750e-001
7828224.000	7.598622e-001	6.411506e-001
7834218.000	7.601261e-001	6.407719e-001
7840212.000	7.603787e-001	6.404558e-001
7846206.000	7.609529e-001	6.399529e-001
7852200.000	7.613151e-001	6.395337e-001
7858194.000	7.615128e-001	6.392011e-001
7864188.000	7.617816e-001	6.388761e-001
7870182.000	7.621914e-001	6.383671e-001
7876176.000	7.625406e-001	6.378871e-001
7882170.000	7.629207e-001	6.376741e-001
7888164.000	7.631899e-001	6.371867e-001
7894158.000	7.636072e-001	6.367279e-001
7900152.000	7.640449e-001	6.362641e-001
7906146.000	7.642069e-001	6.361205e-001
7912140.000	7.644980e-001	6.356044e-001
7918134.000	7.647253e-001	6.352103e-001
7924128.000	7.651395e-001	6.348809e-001
7930122.000	7.655069e-001	6.344181e-001
7936116.000	7.658909e-001	6.340902e-001
7942110.000	7.661330e-001	6.337574e-001
7948104.000	7.665226e-001	6.332935e-001
7954098.000	7.668595e-001	6.329827e-001
7960092.000	7.670377e-001	6.324802e-001
7966086.000	7.674737e-001	6.322177e-001
7972080.000	7.676808e-001	6.318323e-001
7978074.000	7.680626e-001	6.314409e-001
7984068.000	7.684442e-001	6.310618e-001
7990062.000	7.687972e-001	6.306898e-001
7996056.000	7.689142e-001	6.303056e-001
8002050.000	7.693125e-001	6.299280e-001
8008044.000	7.695271e-001	6.296470e-001
8014038.000	7.699757e-001	6.291665e-001
8020032.000	7.703563e-001	6.287852e-001
8026026.000	7.705665e-001	6.283678e-001
8032020.000	7.709300e-001	6.280922e-001
8038014.000	7.712350e-001	6.276239e-001
8044008.000	7.715873e-001	6.272169e-001
8050002.000	7.718455e-001	6.268750e-001
8055996.000	7.722571e-001	6.265191e-001
8061990.000	7.725486e-001	6.260805e-001
8067984.000	7.727963e-001	6.257767e-001
8073978.000	7.730830e-001	6.255267e-001
8079972.000	7.734749e-001	6.249189e-001
8085966.000	7.737919e-001	6.246532e-001
8091960.000	7.739998e-001	6.241966e-001
8097954.000	7.743570e-001	6.239765e-001
8103948.000	7.746515e-001	6.234238e-001
8109942.000	7.750312e-001	6.230230e-001
8115936.000	7.752989e-001	6.226646e-001
8121930.000	7.754966e-001	6.224051e-001
8127924.000	7.759153e-001	6.219690e-001
8133918.000	7.761185e-001	6.216052e-001
8139912.000	7.765598e-001	6.211655e-001
8145906.000	7.767419e-001	6.209126e-001
8151900.000	7.772296e-001	6.203900e-001
8157894.000	7.773657e-001	6.201304e-001
8163888.000	7.776358e-001	6.197926e-001
8169882.000	7.780607e-001	6.193855e-001
8175876.000	7.783524e-001	6.189669e-001
8181870.000	7.786312e-001	6.187213e-001
8187864.000	7.791692e-001	6.183324e-001
8193858.000	7.792744e-001	6.178124e-001
8199852.000	7.794756e-001	6.174331e-001
8205846.000	7.799188e-001	6.172269e-001
8211840.000	7.801141e-001	6.167147e-001
8217834.000	7.804596e-001	6.163547e-001
8223828.000	7.807271e-001	6.160262e-001
8229822.000	7.809879e-001	6.156388e-001
8235816.000	7.812914e-001	6.153027e-001
8241810.000	7.815106e-001	6.149449e-001
8247804.000	7.819241e-001	6.144663e-001
8253798.000	7.821638e-001	6.141308e-001
8259792.000	7.824706e-001	6.137990e-001
8265786.000	7.827572e-001	6.134447e-001
8271780.000	7.830555e-001	6.130038e-001
8277774.000	7.833597e-001	6.126151e-001
8283768.000	7.837290e-001	6.121566e-001
8289762.000	7.839704e-001	6.119222e-001
8295756.000	7.843050e-001	6.116375e-001
8301750.000	7.845445e-001	6.112276e-001
8307744.000	7.848596e-001	6.108686e-001
8313738.000	7.850988e-001	6.105237e-001
8319732.000	7.853267e-001	6.101185e-001
8325726.000	7.856996e-001	6.097792e-001
8331720.000	7.860227e-001	6.094106e-001
8337714.000	7.862632e-001	6.091186e-001
8343708.000	7.867052e-001	6.087352e-001
8349702.000	7.867999e-001	6.083137e-001
8355696.000	7.871504e-001	6.079601e-001
8361690.000	7.874121e-001	6.076743e-001
8367684.000	7.877120e-001	6.071312e-001
8373678.000	7.880178e-001	6.068897e-001
8379672.000	7.883322e-001	6.064148e-001
8385666.000	7.884901e-001	6.061487e-001
8391660.000	7.887796e-001	6.057059e-001
8397654.000	7.891493e-001	6.054553e-001
8403648.000	7.893085e-001	6.051004e-001
8409642.000	7.896963e-001	6.046405e-001
8415636.000	7.899452e-001	6.042642e-001
8421630.000	7.901648e-001	6.039017e-001
8427624.000	7.905214e-001	6.035462e-001
8433618.000	7.908002e-001	6.033006e-001
8439612.000	7.910513e-001	6.028149e-001
8445606.000	7.913136e-001	6.026771e-001
8451600.000	7.916207e-001	6.020896e-001
8457594.000	7.919668e-001	6.018456e-001
8463588.000	7.922760e-001	6.013594e-001
8469582.000	7.924994e-001	6.010663e-001
8475576.000	7.928505e-001	6.007446e-001
8481570.000	7.932971e-001	6.003057e-001
8487564.000	7.935233e-001	5.997274e-001
8493558.000	7.937632e-001	5.994557e-001
8499552.000	7.940426e-001	5.990209e-001
8505546.000	7.943137e-001	5.986722e-001
8511540.000	7.945519e-001	5.983407e-001
8517534.000	7.948713e-001	5.979518e-001
8523528.000	7.951263e-001	5.975944e-001
8529522.000	7.953998e-001	5.972593e-001
8535516.000	7.956125e-001	5.968666e-001
8541510.000	7.959364e-001	5.965286e-001
8547504.000	7.961753e-001	5.961951e-001
8553498.000	7.964679e-001	5.958155e-001
8559492.000	7.967088e-001	5.954515e-001
8565486.000	7.970565e-001	5.950938e-001
8571480.000	7.973055e-001	5.947702e-001
8577474.000	7.975124e-001	5.944278e-001
8583468.000	7.977790e-001	5.940883e-001
8589462.000	7.980461e-001	5.936654e-001
8595456.000	7.982821e-001	5.933887e-001
8601450.000	7.985643e-001	5.929937e-001
8607444.000	7.988218e-001	5.927185e-001
8613438.000	7.990531e-001	5.922679e-001
8619432.000	7.993594e-001	5.919951e-001
8625426.000	7.996262e-001	5.916217e-001
8631420.000	7.999380e-001	5.912424e-001
8637414.000	8.001535e-001	5.908714e-001
8643408.000	8.004733e-001	5.905337e-001
8649402.000	8.006748e-001	5.902131e-001
8655396.000	8.009200e-001	5.898306e-001
8661390.000	8.011984e-001	5.894984e-001
8667384.000	8.014708e-001	5.891250e-001
8673378.000	8.017101e-001	5.888227e-001
8679372.000	8.019987e-001	5.884812e-001
8685366.000	8.022928e-001	5.881295e-001
8691360.000	8.024862e-001	5.877868e-001
8697354.000	8.027245e-001	5.874020e-001
8703348.000	8.030011e-001	5.871054e-001
8709342.000	8.033230e-001	5.867122e-001
8715336.000	8.035372e-001	5.863777e-001
8721330.000	8.037766e-001	5.860698e-001
8727324.000	8.040378e-001	5.857209e-001
8733318.000	8.043072e-001	5.853925e-001
8739312.000	8.045361e-001	5.849759e-001
8745306.000	8.048020e-001	5.845998e-001
8751300.000	8.049759e-001	5.843026e-001
8757294.000	8.052788e-001	5.839277e-001
8763288.000	8.055003e-001	5.836471e-001
8769282.000	8.057544e-001	5.833122e-001
8775276.000	8.059927e-001	5.828881e-001
8781270.000	8.062899e-001	5.825799e-001
8787264.000	8.065295e-001	5.822248e-001
8793258.000	8.068588e-001	5.819452e-001
8799252.000	8.070688e-001	5.816038e-001
8805246.000	8.073044e-001	5.812696e-001
8811240.000	8.075035e-001	5.809468e-001
8817234.000	8.078116e-001	5.806089e-001
8823228.000	8.080342e-001	5.801838e-001
8829222.000	8.082963e-001	5.798839e-001
8835216.000	8.085495e-001	5.795838e-001
8841210.000	8.087998e-001	5.792046e-001
8847204.000	8.090716e-001	5.788618e-001
8853198.000	8.092502e-001	5.785278e-001
8859192.000	8.095705e-001	5.781637e-001
8865186.000	8.097808e-001	5.778396e-001
8871180.000	8.099929e-001	5.775047e-001
8877174.000	8.103077e-001	5.771794e-001
8883168.000	8.105382e-001	5.768264e-001
8889162.000	8.107643e-001	5.764836e-001
8895156.000	8.109940e-001	5.761554e-001
8901150.000	8.112651e-001	5.758068e-001
8907144.000	8.114655e-001	5.754916e-001
8913138.000	8.117416e-001	5.751369e-001
8919132.000	8.119677e-001	5.748225e-001
8925126.000	8.122246e-001	5.744520e-001
8931120.000	8.124100e-001	5.741613e-001
8937114.000	8.126447e-001	5.738553e-001
8943108.000	8.129014e-001	5.734657e-001
8949102.000	8.131277e-001	5.731501e-001
8955096.000	8.133933e-001	5.728035e-001
8961090.000	8.136301e-001	5.724663e-001
8967084.000	8.138988e-001	5.721193e-001
8973078.000	8.141448e-001	5.718570e-001
8979072.000	8.143515e-001	5.715164e-001
8985066.000	8.146273e-001	5.711587e-001
8991060.000	8.148286e-001	5.708278e-001
8997054.000	8.150314e-001	5.704963e-001
9003048.000	8.153190e-001	5.701479e-001
9009042.000	8.155412e-001	5.699008e-001
9015036.000	8.158106e-001	5.694844e-001
9021030.000	8.160247e-001	5.691738e-001
9027024.000	8.161650e-001	5.688379e-001
9033018.000	8.164455e-001	5.685752e-001
9039012.000	8.167087e-001	5.682029e-001
9045006.000	8.169469e-001	5.678936e-001
9051000.000	8.172082e-001	5.675809e-001
9056994.000	8.174283e-001	5.671979e-001
9062988.000	8.176190e-001	5.668288e-001
9068982.000	8.178466e-001	5.665859e-001
9074976.000	8.180903e-001	5.662172e-001
9080970.000	8.183686e-001	5.659292e-001
9086964.000	8.185377e-001	5.655333e-001
9092958.000	8.187541e-001	5.652397e-001
9098952.000	8.190324e-001	5.649111e-001
9104946.000	8.192431e-001	5.646049e-001
9110940.000	8.194826e-001	5.641841e-001
9116934.000	8.196665e-001	5.639134e-001
9122928.000	8.199031e-001	5.636304e-001
9128922.000	8.201565e-001	5.632995e-001
9134916.000	8.203949e-001	5.629373e-001
9140910.000	8.205891e-001	5.626705e-001
9146904.000	8.208104e-001	5.624448e-001
9152898.000	8.210445e-001	5.620440e-001
9158892.000	8.212634e-001	5.616975e-001
9164886.000	8.214874e-001	5.614001e-001
9170880.000	8.217380e-001	5.610521e-001
9176874.000	8.219509e-001	5.607330e-001
9182868.000	8.221613e-001	5.603282e-001
9188862.000	8.223993e-001	5.600540e-001
9194856.000	8.226337e-001	5.597704e-001
9200850.000	8.228645e-001	5.594177e-001
9206844.000	8.230768e-001	5.591099e-001
9212838.000	8.232938e-001	5.587415e-001
9218832.000	8.235080e-001	5.584222e-001
9224826.000	8.237643e-001	5.581152e-001
9230820.000	8.239443e-001	5.577886e-001
9236814.000	8.241585e-001	5.575225e-001
9242808.000	8.243650e-001	5.572140e-001
9248802.000	8.246593e-001	5.567921e-001
9254796.000	8.248373e-001	5.565282e-001
9260790.000	8.251291e-001	5.561954e-001
9266784.000	8.252911e-001	5.558761e-001
9272778.000	8.254931e-001	5.555876e-001
9278772.000	8.257051e-001	5.552665e-001
9284766.000	8.259160e-001	5.549392e-001
9290760.000	8.261373e-001	5.545910e-001
9296754.000	8.263145e-001	5.543077e-001
9302748.000	8.265463e-001	5.539795e-001
9308742.000	8.268076e-001	5.536601e-001
9314736.000	8.270249e-001	5.533756e-001
9320730.000	8.272561e-001	5.530608e-001
9326724.000	8.274662e-001	5.526861e-001
9332718.000	8.276712e-001	5.523878e-001
9338712.000	8.278639e-001	5.520715e-001
9344706.000	8.281178e-001	5.517521e-001
9350700.000	8.282545e-001	5.514501e-001
9356694.000	8.284926e-001	5.511527e-001
9362688.000	8.287261e-001	5.508559e-001
9368682.000	8.289252e-001	5.505033e-001
9374676.000	8.290904e-001	5.501687e-001
9380670.000	8.293649e-001	5.498314e-001
9386664.000	8.295507e-001	5.495729e-001
9392658.000	8.297588e-001	5.492261e-001
9398652.000	8.298994e-001	5.489303e-001
9404646.000	8.301776e-001	5.485987e-001
9410640.000	8.304500e-001	5.483027e-001
9416634.000	8.306226e-001	5.479960e-001
9422628.000	8.308549e-001	5.476922e-001
9428622.000	8.310460e-001	5.473049e-001
9434616.000	8.311779e-001	5.470305e-001
9440610.000	8.314852e-001	5.467777e-001
9446604.000	8.316150e-001	5.464292e-001
9452598.000	8.318560e-001	5.461268e-001
9458592.000	8.320402e-001	5.457969e-001
9464586.000	8.322684e-001	5.454819e-001
9470580.000	8.324832e-001	5.451980e-001
9476574.000	8.326420e-001	5.449086e-001
9482568.000	8.328683e-001	5.445810e-001
9488562.000	8.330559e-001	5.442533e-001
9494556.000	8.332826e-001	5.439514e-001
9500550.000	8.335347e-001	5.436120e-001
9506544.000	8.337284e-001	5.433261e-001
9512538.000	8.338882e-001	5.430424e-001
9518532.000	8.340672e-001	5.427541e-001
9524526.000	8.342822e-001	5.423797e-001
9530520.000	8.344796e-001	5.421399e-001
9536514.000	8.347049e-001	5.418496e-001
9542508.000	8.348880e-001	5.415602e-001
9548502.000	8.350834e-001	5.411957e-001
9554496.000	8.352893e-001	5.408922e-001
9560490.000	8.354790e-001	5.405953e-001
9566484.000	8.357326e-001	5.402496e-001
9572478.000	8.359089e-001	5.399447e-001
9578472.000	8.360601e-001	5.396195e-001
9584466.000	8.362551e-001	5.393255e-001
9590460.000	8.365140e-001	5.390839e-001
9596454.000	8.366421e-001	5.387601e-001
9602448.000	8.369016e-001	5.384610e-001
9608442.000	8.370764e-001	5.381283e-001
9614436.000	8.372857e-001	5.377920e-001
9620430.000	8.375095e-001	5.375404e-001
9626424.000	8.377043e-001	5.372325e-001
9632418.000	8.378583e-001	5.369563e-001
9638412.000	8.381635e-001	5.365746e-001
9644406.000	8.382459e-001	5.362961e-001
9650400.000	8.384350e-001	5.359301e-001
9656394.000	8.386570e-001	5.356519e-001
9662388.000	8.388687e-001	5.353777e-001
9668382.000	8.390227e-001	5.350491e-001
9674376.000	8.392617e-001	5.348079e-001
9680370.000	8.394846e-001	5.345093e-001
9686364.000	8.396848e-001	5.341704e-001
9692358.000	8.398848e-001	5.339080e-001
9698352.000	8.400623e-001	5.335611e-001
9704346.000	8.402509e-001	5.332523e-001
9710340.000	8.404091e-001	5.329990e-001
9716334.000	8.405518e-001	5.327141e-001
9722328.000	8.407529e-001	5.323549e-001
9728322.000	8.410158e-001	5.320464e-001
9734316.000	8.412145e-001	5.318033e-001
9740310.000	8.413741e-001	5.314841e-001
9746304.000	8.415150e-001	5.311439e-001
9752298.000	8.416758e-001	5.309304e-001
9758292.000	8.419119e-001	5.305718e-001
9764286.000	8.421147e-001	5.303020e-001
9770280.000	8.423215e-001	5.300588e-001
9776274.000	8.425195e-001	5.297000e-001
9782268.000	8.426677e-001	5.293998e-001
9788262.000	8.428724e-001	5.291422e-001
9794256.000	8.430936e-001	5.288169e-001
9800250.000	8.432195e-001	5.285427e-001
9806244.000	8.434221e-001	5.282105e-001
9812238.000	8.436578e-001	5.279104e-001
9818232.000	8.438793e-001	5.276084e-001
9824226.000	8.440161e-001	5.273311e-001
9830220.000	8.442147e-001	5.270135e-001
9836214.000	8.443795e-001	5.267168e-001
9842208.000	8.445806e-001	5.264498e-001
9848202.000	8.447620e-001	5.260893e-001
9854196.000	8.449303e-001	5.258195e-001
9860190.000	8.451283e-001	5.255474e-001
9866184.000	8.453527e-001	5.252983e-001
9872178.000	8.454591e-001	5.249643e-001
9878172.000	8.456784e-001	5.246302e-001
9884166.000	8.458551e-001	5.243411e-001
9890160.000	8.460214e-001	5.240073e-001
9896154.000	8.462124e-001	5.237354e-001
9902148.000	8.464105e-001	5.234841e-001
9908142.000	8.465762e-001	5.231693e-001
9914136.000	8.467480e-001	5.229211e-001
9920130.000	8.469354e-001	5.226711e-001
9926124.000	8.471568e-001	5.223140e-001
9932118.000	8.473475e-001	5.219864e-001
9938112.000	8.475165e-001	5.217336e-001
9944106.000	8.476668e-001	5.214440e-001
9950100.000	8.478762e-001	5.211684e-001
9956094.000	8.480183e-001	5.208976e-001
9962088.000	8.482174e-001	5.206258e-001
9968082.000	8.483557e-001	5.202974e-001
9974076.000	8.485926e-001	5.200336e-001
9980070.000	8.487625e-001	5.197324e-001
9986064.000	8.489266e-001	5.194132e-001
9992058.000	8.491210e-001	5.191266e-001
9998052.000	8.493486e-001	5.188597e-001
10004046.000	8.493943e-001	5.185744e-001
10010040.000	8.495899e-001	5.183058e-001
10016034.000	8.498921e-001	5.179711e-001
10022028.000	8.499702e-001	5.176508e-001
10028022.000	8.502314e-001	5.174382e-001
10034016.000	8.503676e-001	5.171266e-001
10040010.000	8.505696e-001	5.168569e-001
10046004.000	8.507186e-001	5.165843e-001
10051998.000	8.509311e-001	5.163113e-001
10057992.000	8.510974e-001	5.159859e-001
10063986.000	8.512450e-001	5.157016e-001
10069980.000	8.514197e-001	5.154002e-001
10075974.000	8.515835e-001	5.151012e-001
10081968.000	8.517749e-001	5.148045e-001
10087962.000	8.519470e-001	5.145329e-001
10093956.000	8.520709e-001	5.142695e-001
10099950.000	8.522610e-001	5.139828e-001
10105944.000	8.524332e-001	5.137100e-001
10111938.000	8.526501e-001	5.134755e-001
10117932.000	8.528207e-001	5.131636e-001
10123926.000	8.529959e-001	5.128983e-001
10129920.000	8.531732e-001	5.125841e-001
10135914.000	8.532999e-001	5.123035e-001
10141908.000	8.534948e-001	5.119673e-001
10147902.000	8.536669e-001	5.117212e-001
10153896.000	8.538262e-001	5.114342e-001
10159890.000	8.540247e-001	5.111480e-001
10165884.000	8.541825e-001	5.108920e-001
10171878.000	8.543683e-001	5.105915e-001
10177872.000	8.544784e-001	5.102792e-001
10183866.000	8.546662e-001	5.100263e-001
10189860.000	8.548312e-001	5.097003e-001
10195854.000	8.550165e-001	5.094922e-001
10201848.000	8.551595e-001	5.091865e-001
10207842.000	8.553352e-001	5.089191e-001
10213836.000	8.555414e-001	5.086747e-001
10219830.000	8.557119e-001	5.083445e-001
10225824.000	8.559183e-001	5.080850e-001
10231818.000	8.559822e-001	5.077491e-001
10237812.000	8.561901e-001	5.075002e-001
10243806.000	8.563635e-001	5.072415e-001
10249800.000	8.565356e-001	5.069165e-001
10255794.000	8.567754e-001	5.068840e-001
10261788.000	8.568584e-001	5.064147e-001
10267782.000	8.570630e-001	5.061435e-001
10273776.000	8.572074e-001	5.058576e-001
10279770.000	8.573162e-001	5.055497e-001
10285764.000	8.575137e-001	5.053004e-001
10291758.000	8.577123e-001	5.050000e-001
10297752.000	8.578465e-001	5.046648e-001
10303746.000	8.579510e-001	5.044210e-001
10309740.000	8.581721e-001	5.041419e-001
10315734.000	8.583403e-001	5.038789e-001
10321728.000	8.585298e-001	5.036323e-001
10327722.000	8.586284e-001	5.033461e-001
10333716.000	8.588614e-001	5.030089e-001
10339710.000	8.590133e-001	5.027854e-001
10345704.000	8.591606e-001	5.025081e-001
10351698.000	8.593190e-001	5.022358e-001
10357692.000	8.594458e-001	5.019840e-001
10363686.000	8.596503e-001	5.016990e-001
10369680.000	8.597825e-001	5.013925e-001
10375674.000	8.599243e-001	5.010937e-001
10381668.000	8.600728e-001	5.008828e-001
10387662.000	8.602474e-001	5.006333e-001
10393656.000	8.604412e-001	5.003214e-001
10399650.000	8.606084e-001	5.000470e-001
10405644.000	8.607147e-001	4.997914e-001
10411638.000	8.609289e-001	4.994682e-001
10417632.000	8.610523e-001	4.991564e-001
10423626.000	8.612204e-001	4.989783e-001
10429620.000	8.614091e-001	4.987053e-001
10435614.000	8.615446e-001	4.984157e-001
10441608.000	8.616973e-001	4.981344e-001
10447602.000	8.618452e-001	4.978789e-001
10453596.000	8.619826e-001	4.975726e-001
10459590.000	8.622246e-001	4.973218e-001
10465584.000	8.623366e-001	4.970127e-001
10471578.000	8.625202e-001	4.967253e-001
10477572.000	8.626632e-001	4.964873e-001
10483566.000	8.627732e-001	4.962164e-001
10489560.000	8.628894e-001	4.959809e-001
10495554.000	8.630379e-001	4.956468e-001
10501548.000	8.632212e-001	4.954256e-001
10507542.000	8.634272e-001	4.951417e-001
10513536.000	8.635074e-001	4.948562e-001
10519530.000	8.637033e-001	4.945925e-001
10525524.000	8.638410e-001	4.943313e-001
10531518.000	8.639892e-001	4.940100e-001
10537512.000	8.641792e-001	4.938194e-001
10543506.000	8.642688e-001	4.935228e-001
10549500.000	8.644324e-001	4.932404e-001
10555494.000	8.645682e-001	4.930097e-001
10561488.000	8.647745e-001	4.927295e-001
10567482.000	8.649511e-001	4.924557e-001
10573476.000	8.650924e-001	4.921541e-001
10579470.000	8.652094e-001	4.919791e-001
10585464.000	8.653778e-001	4.916749e-001
10591458.000	8.655166e-001	4.913884e-001
10597452.000	8.657388e-001	4.911597e-001
10603446.000	8.658077e-001	4.908999e-001
10609440.000	8.659901e-001	4.906468e-001
10615434.000	8.660993e-001	4.904386e-001
10621428.000	8.662685e-001	4.900805e-001
10627422.000	8.664100e-001	4.897466e-001
10633416.000	8.665984e-001	4.895761e-001
10639410.000	8.666822e-001	4.892535e-001
10645404.000	8.669378e-001	4.890140e-001
10651398.000	8.670422e-001	4.887927e-001
10657392.000	8.671676e-001	4.884770e-001
10663386.000	8.673770e-001	4.882381e-001
10669380.000	8.674818e-001	4.879674e-001
10675374.000	8.676989e-001	4.877122e-001
10681368.000	8.677809e-001	4.874133e-001
10687362.000	8.679194e-001	4.871985e-001
10693356.000	8.681144e-001	4.869414e-001
10699350.000	8.682798e-001	4.866202e-001
10705344.000	8.683932e-001	4.863962e-001
10711338.000	8.685456e-001	4.861269e-001
10717332.000	8.686906e-001	4.858858e-001
10723326.000	8.688228e-001	4.856259e-001
10729320.000	8.690197e-001	4.853484e-001
10735314.000	8.691152e-001	4.850841e-001
10741308.000	8.692937e-001	4.848396e-001
10747302.000	8.693944e-001	4.845874e-001
10753296.000	8.695538e-001	4.842734e-001
10759290.000	8.697192e-001	4.840477e-001
10765284.000	8.698609e-001	4.838164e-001
10771278.000	8.700151e-001	4.835613e-001
10777272.000	8.702022e-001	4.833186e-001
10783266.000	8.703133e-001	4.829987e-001
10789260.000	8.704818e-001	4.827255e-001
10795254.000	8.706306e-001	4.824900e-001
10801248.000	8.707312e-001	4.822148e-001
10807242.000	8.708053e-001	4.818977e-001
10813236.000	8.710127e-001	4.816416e-001
10819230.000	8.711435e-001	4.814458e-001
10825224.000	8.713269e-001	4.811592e-001
10831218.000	8.714887e-001	4.809571e-001
10837212.000	8.716119e-001	4.806675e-001
10843206.000	8.717705e-001	4.804458e-001
10849200.000	8.719000e-001	4.801591e-001
10855194.000	8.719928e-001	4.798840e-001
10861188.000	8.721106e-001	4.796456e-001
10867182.000	8.723139e-001	4.793872e-001
10873176.000	8.724489e-001	4.791152e-001
10879170.000	8.725739e-001	4.788923e-001
10885164.000	8.726965e-001	4.786080e-001
10891158.000	8.727840e-001	4.783541e-001
10897152.000	8.729956e-001	4.780774e-001
10903146.000	8.731394e-001	4.778316e-001
10909140.000	8.732597e-001	4.775525e-001
10915134.000	8.733764e-001	4.773472e-001
10921128.000	8.735191e-001	4.770513e-001
10927122.000	8.736512e-001	4.768277e-001
10933116.000	8.738347e-001	4.764818e-001
10939110.000	8.739872e-001	4.763274e-001
10945104.000	8.741121e-001	4.760092e-001
10951098.000	8.742258e-001	4.758070e-001
10957092.000	8.744012e-001	4.755561e-001
10963086.000	8.745826e-001	4.753165e-001
10969080.000	8.746853e-001	4.750576e-001
10975074.000	8.748546e-001	4.747947e-001
10981068.000	8.749417e-001	4.745184e-001
10987062.000	8.750926e-001	4.742865e-001
10993056.000	8.751534e-001	4.740053e-001
10999050.000	8.753210e-001	4.737640e-001
11005044.000	8.754581e-001	4.735776e-001
11011038.000	8.755783e-001	4.732955e-001
11017032.000	8.757756e-001	4.730199e-001
11023026.000	8.758631e-001	4.727319e-001
11029020.000	8.759797e-001	4.725374e-001
11035014.000	8.761564e-001	4.722165e-001
11041008.000	8.763026e-001	4.719839e-001
11047002.000	8.763691e-001	4.717013e-001
11052996.000	8.765646e-001	4.715065e-001
11058990.000	8.767028e-001	4.712601e-001
11064984.000	8.767727e-001	4.710001e-001
11070978.000	8.769420e-001	4.707693e-001
11076972.000	8.770836e-001	4.704937e-001
11082966.000	8.771456e-001	4.702713e-001
11088960.000	8.773231e-001	4.700149e-001
11094954.000	8.774772e-001	4.697731e-001
11100948.000	8.775680e-001	4.695077e-001
11106942.000	8.777210e-001	4.692524e-001
11112936.000	8.778853e-001	4.690324e-001
11118930.000	8.780151e-001	4.687755e-001
11124924.000	8.780972e-001	4.685213e-001
11130918.000	8.782871e-001	4.682672e-001
11136912.000	8.784334e-001	4.680820e-001
11142906.000	8.785277e-001	4.677583e-001
11148900.000	8.786813e-001	4.675434e-001
11154894.000	8.787883e-001	4.672855e-001
11160888.000	8.789911e-001	4.670323e-001
11166882.000	8.790549e-001	4.667499e-001
11172876.000	8.791127e-001	4.664728e-001
11178870.000	8.792650e-001	4.662377e-001
11184864.000	8.794795e-001	4.660608e-001
11190858.000	8.795490e-001	4.657724e-001
11196852.000	8.796582e-001	4.655082e-001
11202846.000	8.797981e-001	4.652346e-001
11208840.000	8.799912e-001	4.650404e-001
11214834.000	8.801434e-001	4.647820e-001
11220828.000	8.802575e-001	4.645952e-001
11226822.000	8.803905e-001	4.643266e-001
11232816.000	8.804952e-001	4.640552e-001
11238810.000	8.806642e-001	4.638331e-001
11244804.000	8.808053e-001	4.635861e-001
11250798.000	8.808775e-001	4.633173e-001
11256792.000	8.809840e-001	4.630974e-001
11262786.000	8.811344e-001	4.628495e-001
11268780.000	8.812569e-001	4.626183e-001
11274774.000	8.813910e-001	4.623552e-001
11280768.000	8.814849e-001	4.621026e-001
11286762.000	8.816849e-001	4.618569e-001
11292756.000	8.817839e-001	4.616547e-001
11298750.000	8.818561e-001	4.613716e-001
11304744.000	8.820416e-001	4.612191e-001
11310738.000	8.821311e-001	4.609111e-001
11316732.000	8.822765e-001	4.606628e-001
11322726.000	8.823979e-001	4.604296e-001
11328720.000	8.824871e-001	4.601765e-001
11334714.000	8.826353e-001	4.598891e-001
11340708.000	8.828195e-001	4.597043e-001
11346702.000	8.828954e-001	4.593976e-001
11352696.000	8.829743e-001	4.592030e-001
11358690.000	8.831218e-001	4.589934e-001
11364684.000	8.831977e-001	4.587228e-001
11370678.000	8.833608e-001	4.584570e-001
11376672.000	8.834894e-001	4.581926e-001
11382666.000	8.836193e-001	4.579993e-001
11388660.000	8.837232e-001	4.577718e-001
11394654.000	8.839090e-001	4.575122e-001
11400648.000	8.840219e-001	4.572882e-001
11406642.000	8.840946e-001	4.571079e-001
11412636.000	8.841862e-001	4.568118e-001
11418630.000	8.843700e-001	4.565349e-001
11424624.000	8.844875e-001	4.563444e-001
11430618.000	8.846096e-001	4.560829e-001
11436612.000	8.847265e-001	4.558767e-001
11442606.000	8.848591e-001	4.556072e-001
11448600.000	8.849471e-001	4.553711e-001
11454594.000	8.851145e-001	4.551331e-001
11460588.000	8.851354e-001	4.548263e-001
11466582.000	8.853139e-001	4.546884e-001
11472576.000	8.854310e-001	4.544096e-001
11478570.000	8.855854e-001	4.542106e-001
11484564.000	8.856490e-001	4.538823e-001
11490558.000	8.858306e-001	4.537143e-001
11496552.000	8.859477e-001	4.534628e-001
11502546.000	8.860380e-001	4.532193e-001
11508540.000	8.862122e-001	4.529929e-001
11514534.000	8.863069e-001	4.527389e-001
11520528.000	8.864174e-001	4.524899e-001
11526522.000	8.865397e-001	4.523033e-001
11532516.000	8.866357e-001	4.520741e-001
11538510.000	8.867346e-001	4.518384e-001
11544504.000	8.868752e-001	4.515645e-001
11550498.000	8.869936e-001	4.512965e-001
11556492.000	8.870896e-001	4.511285e-001
11562486.000	8.872497e-001	4.508898e-001
11568480.000	8.873470e-001	4.506389e-001
11574474.000	8.874409e-001	4.504119e-001
11580468.000	8.875536e-001	4.501298e-001
11586462.000	8.877067e-001	4.498966e-001
11592456.000	8.878275e-001	4.496674e-001
11598450.000	8.878929e-001	4.494176e-001
11604444.000	8.880579e-001	4.492239e-001
11610438.000	8.881671e-001	4.489950e-001
11616432.000	8.883093e-001	4.487650e-001
11622426.000	8.883739e-001	4.485310e-001
11628420.000	8.884578e-001	4.482963e-001
11634414.000	8.886544e-001	4.481237e-001
11640408.000	8.887708e-001	4.479230e-001
11646402.000	8.889224e-001	4.475744e-001
11652396.000	8.889845e-001	4.473799e-001
11658390.000	8.890819e-001	4.471284e-001
11664384.000	8.891861e-001	4.469599e-001
11670378.000	8.892778e-001	4.467190e-001
11676372.000	8.894657e-001	4.464254e-001
11682366.000	8.895805e-001	4.461953e-001
11688360.000	8.896214e-001	4.459778e-001
11694354.000	8.897943e-001	4.456958e-001
11700348.000	8.898953e-001	4.455464e-001
11706342.000	8.899997e-001	4.452137e-001
11712336.000	8.901236e-001	4.450558e-001
11718330.000	8.902030e-001	4.448253e-001
11724324.000	8.903824e-001	4.445569e-001
11730318.000	8.904682e-001	4.443448e-001
11736312.000	8.905793e-001	4.440921e-001
11742306.000	8.906452e-001	4.438659e-001
11748300.000	8.908143e-001	4.437105e-001
11754294.000	8.909582e-001	4.434845e-001
11760288.000	8.910561e-001	4.432762e-001
11766282.000	8.911472e-001	4.430055e-001
11772276.000	8.912749e-001	4.427886e-001
11778270.000	8.914067e-001	4.425652e-001
11784264.000	8.915240e-001	4.423593e-001
11790258.000	8.915875e-001	4.420406e-001
11796252.000	8.917307e-001	4.418786e-001
11802246.000	8.918494e-001	4.416369e-001
11808240.000	8.919356e-001	4.414247e-001
11814234.000	8.920399e-001	4.412179e-001
11820228.000	8.921766e-001	4.409815e-001
11826222.000	8.922370e-001	4.407216e-001
11832216.000	8.923363e-001	4.404864e-001
11838210.000	8.924814e-001	4.402658e-001
11844204.000	8.926099e-001	4.400427e-001
11850198.000	8.927379e-001	4.398173e-001
11856192.000	8.927758e-001	4.395577e-001
11862186.000	8.929222e-001	4.393861e-001
11868180.000	8.930577e-001	4.391277e-001
11874174.000	8.931124e-001	4.389029e-001
11880168.000	8.932472e-001	4.387051e-001
11886162.000	8.933554e-001	4.384779e-001
11892156.000	8.934994e-001	4.382696e-001
11898150.000	8.935291e-001	4.380236e-001
11904144.000	8.936873e-001	4.377602e-001
11910138.000	8.938249e-001	4.375620e-001
11916132.000	8.939078e-001	4.373572e-001
11922126.000	8.939774e-001	4.370977e-001
11928120.000	8.941201e-001	4.369126e-001
11934114.000	8.942430e-001	4.367003e-001
11940108.000	8.943353e-001	4.364445e-001
11946102.000	8.944221e-001	4.362198e-001
11952096.000	8.945011e-001	4.360115e-001
11958090.000	8.946280e-001	4.357822e-001
11964084.000	8.947449e-001	4.355806e-001
11970078.000	8.948842e-001	4.353086e-001
11976072.000	8.949844e-001	4.351250e-001
11982066.000	8.951019e-001	4.348312e-001
11988060.000	8.952226e-001	4.346532e-001
11994054.000	8.953337e-001	4.344410e-001
12000048.000	8.954078e-001	4.342367e-001
12006042.000	8.955390e-001	4.340084e-001
12012036.000	8.956397e-001	4.338301e-001
12018030.000	8.957346e-001	4.334916e-001
12024024.000	8.958185e-001	4.333195e-001
12030018.000	8.959613e-001	4.330980e-001
12036012.000	8.960606e-001	4.328507e-001
12042006.000	8.961950e-001	4.327038e-001
12048000.000	8.962820e-001	4.324713e-001
12053994.000	8.963565e-001	4.322113e-001
12059988.000	8.964832e-001	4.319962e-001
12065982.000	8.965970e-001	4.318088e-001
12071976.000	8.967010e-001	4.315397e-001
12077970.000	8.967641e-001	4.313288e-001
12083964.000	8.968866e-001	4.311219e-001
12089958.000	8.970362e-001	4.309504e-001
12095952.000	8.971387e-001	4.307268e-001
12101946.000	8.972233e-001	4.304980e-001
12107940.000	8.973193e-001	4.302594e-001
12113934.000	8.974491e-001	4.300613e-001
12119928.000	8.975370e-001	4.298426e-001
12125922.000	8.976558e-001	4.296074e-001
12131916.000	8.977723e-001	4.294003e-001
12137910.000	8.978326e-001	4.291443e-001
12143904.000	8.978803e-001	4.288947e-001
12149898.000	8.980331e-001	4.287006e-001
12155892.000	8.981428e-001	4.284865e-001
12161886.000	8.982796e-001	4.282896e-001
12167880.000	8.983610e-001	4.280070e-001
12173874.000	8.984675e-001	4.278289e-001
12179868.000	8.985173e-001	4.275884e-001
12185862.000	8.986537e-001	4.273936e-001
12191856.000	8.988261e-001	4.272548e-001
12197850.000	8.988548e-001	4.269633e-001
12203844.000	8.989177e-001	4.267708e-001
12209838.000	8.990310e-001	4.265221e-001
12215832.000	8.991573e-001	4.263449e-001
12221826.000	8.992672e-001	4.261225e-001
12227820.000	8.993618e-001	4.259417e-001
12233814.000	8.994465e-001	4.257159e-001
12239808.000	8.995374e-001	4.254793e-001
12245802.000	8.996610e-001	4.252168e-001
12251796.000	8.997964e-001	4.250669e-001
12257790.000	8.998642e-001	4.248406e-001
12263784.000	8.999928e-001	4.246617e-001
12269778.000	9.001101e-001	4.244275e-001
12275772.000	9.002204e-001	4.242257e-001
12281766.000	9.002389e-001	4.239342e-001
12287760.000	9.003645e-001	4.238244e-001
12293754.000	9.004259e-001	4.235517e-001
12299748.000	9.005449e-001	4.233416e-001
12305742.000	9.006865e-001	4.231408e-001
12311736.000	9.007594e-001	4.229210e-001
12317730.000	9.008695e-001	4.226888e-001
12323724.000	9.009388e-001	4.224811e-001
12329718.000	9.010246e-001	4.222173e-001
12335712.000	9.011485e-001	4.220826e-001
12341706.000	9.012345e-001	4.217991e-001
12347700.000	9.012987e-001	4.216194e-001
12353694.000	9.014629e-001	4.214648e-001
12359688.000	9.015602e-001	4.211840e-001
12365682.000	9.016198e-001	4.210097e-001
12371676.000	9.016888e-001	4.208405e-001
12377670.000	9.018772e-001	4.205798e-001
12383664.000	9.019309e-001	4.204229e-001
12389658.000	9.019717e-001	4.202089e-001
12395652.000	9.020383e-001	4.199367e-001
12401646.000	9.021598e-001	4.197219e-001
12407640.000	9.022566e-001	4.194870e-001
12413634.000	9.023570e-001	4.192949e-001
12419628.000	9.024884e-001	4.190568e-001
12425622.000	9.025232e-001	4.189001e-001
12431616.000	9.026844e-001	4.187321e-001
12437610.000	9.028746e-001	4.184542e-001
12443604.000	9.028890e-001	4.182498e-001
12449598.000	9.029703e-001	4.180539e-001
12455592.000	9.030883e-001	4.178454e-001
12461586.000	9.031804e-001	4.176067e-001
12467580.000	9.032778e-001	4.173772e-001
12473574.000	9.033764e-001	4.172082e-001
12479568.000	9.034891e-001	4.169705e-001
12485562.000	9.035238e-001	4.167370e-001
12491556.000	9.036460e-001	4.165943e-001
12497550.000	9.037274e-001	4.163556e-001
12503544.000	9.038448e-001	4.161674e-001
12509538.000	9.039271e-001	4.159194e-001
12515532.000	9.040286e-001	4.157117e-001
12521526.000	9.041001e-001	4.155173e-001
12527520.000	9.042233e-001	4.153535e-001
12533514.000	9.042926e-001	4.151343e-001
12539508.000	9.043877e-001	4.149268e-001
12545502.000	9.045089e-001	4.147109e-001
12551496.000	9.045398e-001	4.144952e-001
12557490.000	9.046269e-001	4.143063e-001
12563484.000	9.047529e-001	4.140809e-001
12569478.000	9.048621e-001	4.139129e-001
12575472.000	9.049001e-001	4.136573e-001
12581466.000	9.050156e-001	4.134561e-001
12587460.000	9.051215e-001	4.132769e-001
12593454.000	9.052165e-001	4.130490e-001
12599448.000	9.052968e-001	4.128734e-001
12605442.000	9.053298e-001	4.126734e-001
12611436.000	9.054076e-001	4.125112e-001
12617430.000	9.055900e-001	4.122395e-001
12623424.000	9.056412e-001	4.120435e-001
12629418.000	9.057831e-001	4.118495e-001
12635412.000	9.058176e-001	4.116198e-001
12641406.000	9.059197e-001	4.114043e-001
12647400.000	9.059819e-001	4.112455e-001
12653394.000	9.061202e-001	4.110323e-001
12659388.000	9.062276e-001	4.107925e-001
12665382.000	9.062653e-001	4.106116e-001
12671376.000	9.063774e-001	4.103942e-001
12677370.000	9.064460e-001	4.101756e-001
12683364.000	9.065431e-001	4.099832e-001
12689358.000	9.066136e-001	4.098081e-001
12695352.000	9.067457e-001	4.096031e-001
12701346.000	9.068281e-001	4.093801e-001
12707340.000	9.069076e-001	4.091785e-001
12713334.000	9.069883e-001	4.089946e-001
12719328.000	9.070194e-001	4.087764e-001
12725322.000	9.071594e-001	4.085219e-001
12731316.000	9.071888e-001	4.083576e-001
12737310.000	9.072682e-001	4.080849e-001
12743304.000	9.074037e-001	4.079224e-001
12749298.000	9.074646e-001	4.077019e-001
12755292.000	9.075465e-001	4.075355e-001
12761286.000	9.076768e-001	4.073241e-001
12767280.000	9.077645e-001	4.071245e-001
12773274.000	9.078224e-001	4.068995e-001
12779268.000	9.079426e-001	4.067172e-001
12785262.000	9.080414e-001	4.064960e-001
12791256.000	9.080907e-001	4.063259e-001
12797250.000	9.082462e-001	4.060965e-001
12803244.000	9.083759e-001	4.060488e-001
12809238.000	9.084330e-001	4.057895e-001
12815232.000	9.084806e-001	4.055162e-001
12821226.000	9.085368e-001	4.053107e-001
12827220.000	9.086521e-001	4.050857e-001
12833214.000	9.086969e-001	4.048994e-001
12839208.000	9.088060e-001	4.046722e-001
12845202.000	9.088688e-001	4.044835e-001
12851196.000	9.090176e-001	4.042170e-001
12857190.000	9.091135e-001	4.040966e-001
12863184.000	9.091383e-001	4.038807e-001
12869178.000	9.092385e-001	4.036864e-001
12875172.000	9.093007e-001	4.034537e-001
12881166.000	9.094565e-001	4.032690e-001
12887160.000	9.094684e-001	4.031347e-001
12893154.000	9.096407e-001	4.028469e-001
12899148.000	9.096592e-001	4.027095e-001
12905142.000	9.097490e-001	4.024658e-001
12911136.000	9.098203e-001	4.022867e-001
12917130.000	9.099538e-001	4.020958e-001
12923124.000	9.099839e-001	4.019056e-001
12929118.000	9.100773e-001	4.016734e-001
12935112.000	9.102055e-001	4.015012e-001
12941106.000	9.102129e-001	4.012918e-001
12947100.000	9.103195e-001	4.010948e-001
12953094.000	9.104163e-001	4.009123e-001
12959088.000	9.105844e-001	4.007118e-001
12965082.000	9.106147e-001	4.005030e-001
12971076.000	9.106797e-001	4.003122e-001
12977070.000	9.108031e-001	4.001270e-001
12983064.000	9.109078e-001	3.999428e-001
12989058.000	9.109779e-001	3.997615e-001
12995052.000	9.110294e-001	3.995456e-001
13001046.000	9.111609e-001	3.993548e-001
13007040.000	9.112743e-001	3.991907e-001
13013034.000	9.113334e-001	3.989647e-001
13019028.000	9.114231e-001	3.988310e-001
13025022.000	9.114573e-001	3.985889e-001
13031016.000	9.114924e-001	3.983839e-001
13037010.000	9.116578e-001	3.981318e-001
13043004.000	9.117232e-001	3.979665e-001
13048998.000	9.117571e-001	3.977133e-001
13054992.000	9.118530e-001	3.976113e-001
13060986.000	9.119547e-001	3.973959e-001
13066980.000	9.120318e-001	3.971887e-001
13072974.000	9.121671e-001	3.970036e-001
13078968.000	9.122041e-001	3.967629e-001
13084962.000	9.122563e-001	3.966557e-001
13090956.000	9.123445e-001	3.964490e-001
13096950.000	9.124543e-001	3.962624e-001
13102944.000	9.125309e-001	3.960739e-001
13108938.000	9.126015e-001	3.958654e-001
13114932.000	9.127198e-001	3.956495e-001
13120926.000	9.127469e-001	3.954616e-001
13126920.000	9.128567e-001	3.953380e-001
13132914.000	9.129552e-001	3.951030e-001
13138908.000	9.130243e-001	3.948855e-001
13144902.000	9.131016e-001	3.947352e-001
13150896.000	9.131998e-001	3.945200e-001
13156890.000	9.132939e-001	3.943256e-001
13162884.000	9.133637e-001	3.941259e-001
13168878.000	9.134269e-001	3.939089e-001
13174872.000	9.135188e-001	3.937461e-001
13180866.000	9.135649e-001	3.935821e-001
13186860.000	9.136049e-001	3.933346e-001
13192854.000	9.137266e-001	3.931550e-001
13198848.000	9.138131e-001	3.929265e-001
13204842.000	9.139348e-001	3.927306e-001
13210836.000	9.139607e-001	3.925965e-001
13216830.000	9.140461e-001	3.924191e-001
13222824.000	9.141209e-001	3.921654e-001
13228818.000	9.142622e-001	3.920190e-001
13234812.000	9.143008e-001	3.918616e-001
13240806.000	9.143718e-001	3.916278e-001
13246800.000	9.144863e-001	3.914060e-001
13252794.000	9.145392e-001	3.912495e-001
13258788.000	9.146165e-001	3.910728e-001
13264782.000	9.146873e-001	3.909349e-001
13270776.000	9.147525e-001	3.906866e-001
13276770.000	9.148136e-001	3.904613e-001
13282764.000	9.148962e-001	3.902634e-001
13288758.000	9.149572e-001	3.900959e-001
13294752.000	9.150485e-001	3.899405e-001
13300746.000	9.150965e-001	3.896934e-001
13306740.000	9.152228e-001	3.895032e-001
13312734.000	9.152687e-001	3.893551e-001
13318728.000	9.153056e-001	3.891059e-001
13324722.000	9.153877e-001	3.889574e-001
13330716.000	9.155070e-001	3.887641e-001
13336710.000	9.156320e-001	3.886283e-001
13342704.000	9.156759e-001	3.884220e-001
13348698.000	9.157454e-001	3.881921e-001
13354692.000	9.158408e-001	3.879961e-001
13360686.000	9.159101e-001	3.878295e-001
13366680.000	9.160138e-001	3.876890e-001
13372674.000	9.160573e-001	3.874061e-001
13378668.000	9.161039e-001	3.872862e-001
13384662.000	9.162364e-001	3.871624e-001
13390656.000	9.162379e-001	3.869134e-001
13396650.000	9.162956e-001	3.867015e-001
13402644.000	9.164199e-001	3.865070e-001
13408638.000	9.165028e-001	3.863658e-001
13414632.000	9.165924e-001	3.861262e-001
13420626.000	9.166800e-001	3.859321e-001
13426620.000	9.167404e-001	3.857382e-001
13432614.000	9.168451e-001	3.855620e-001
13438608.000	9.169543e-001	3.854275e-001
13444602.000	9.169644e-001	3.852347e-001
13450596.000	9.170688e-001	3.850172e-001
13456590.000	9.171166e-001	3.848314e-001
13462584.000	9.171767e-001	3.846287e-001
13468578.000	9.172403e-001	3.844961e-001
13474572.000	9.173621e-001	3.842734e-001
13480566.000	9.174043e-001	3.840988e-001
13486560.000	9.175104e-001	3.839107e-001
13492554.000	9.175978e-001	3.837287e-001
13498548.000	9.176670e-001	3.835553e-001
13504542.000	9.177164e-001	3.834058e-001
13510536.000	9.177916e-001	3.831961e-001
13516530.000	9.178770e-001	3.830172e-001
13522524.000	9.179371e-001	3.828142e-001
13528518.000	9.180300e-001	3.826780e-001
13534512.000	9.181124e-001	3.824295e-001
13540506.000	9.181599e-001	3.822378e-001
13546500.000	9.183020e-001	3.820923e-001
13552494.000	9.183808e-001	3.819513e-001
13558488.000	9.184121e-001	3.817550e-001
13564482.000	9.185227e-001	3.815280e-001
13570476.000	9.185746e-001	3.813896e-001
13576470.000	9.186407e-001	3.811716e-001
13582464.000	9.186873e-001	3.809720e-001
13588458.000	9.187485e-001	3.807979e-001
13594452.000	9.188344e-001	3.805923e-001
13600446.000	9.189120e-001	3.804680e-001
13606440.000	9.190497e-001	3.802594e-001
13612434.000	9.190973e-001	3.800841e-001
13618428.000	9.191225e-001	3.798392e-001
13624422.000	9.192498e-001	3.796819e-001
13630416.000	9.192627e-001	3.795086e-001
13636410.000	9.193136e-001	3.793392e-001
13642404.000	9.194673e-001	3.791441e-001
13648398.000	9.194662e-001	3.789383e-001
13654392.000	9.195597e-001	3.787306e-001
13660386.000	9.196529e-001	3.786006e-001
13666380.000	9.197016e-001	3.784584e-001
13672374.000	9.197676e-001	3.782401e-001
13678368.000	9.198397e-001	3.780778e-001
13684362.000	9.198851e-001	3.779280e-001
13690356.000	9.199742e-001	3.777156e-001
13696350.000	9.200500e-001	3.775363e-001
13702344.000	9.200984e-001	3.773285e-001
13708338.000	9.201402e-001	3.771458e-001
13714332.000	9.202723e-001	3.770115e-001
13720326.000	9.203816e-001	3.768154e-001
13726320.000	9.203945e-001	3.766325e-001
13732314.000	9.204746e-001	3.764449e-001
13738308.000	9.205248e-001	3.762533e-001
13744302.000	9.206274e-001	3.761195e-001
13750296.000	9.206788e-001	3.759006e-001
13756290.000	9.207945e-001	3.757358e-001
13762284.000	9.208429e-001	3.755345e-001
13768278.000	9.208903e-001	3.753623e-001
13774272.000	9.209716e-001	3.751851e-001
13780266.000	9.210336e-001	3.749267e-001
13786260.000	9.211254e-001	3.748328e-001
13792254.000	9.211671e-001	3.746469e-001
13798248.000	9.212637e-001	3.744557e-001
13804242.000	9.213033e-001	3.743141e-001
13810236.000	9.213722e-001	3.741462e-001
13816230.000	9.214676e-001	3.739464e-001
13822224.000	9.215154e-001	3.737471e-001
13828218.000	9.216107e-001	3.735509e-001
13834212.000	9.217137e-001	3.733470e-001
13840206.000	9.217143e-001	3.731877e-001
13846200.000	9.217846e-001	3.730488e-001
13852194.000	9.218844e-001	3.728286e-001
13858188.000	9.219171e-001	3.726688e-001
13864182.000	9.219861e-001	3.724736e-001
13870176.000	9.220738e-001	3.723179e-001
13876170.000	9.221458e-001	3.721383e-001
13882164.000	9.222259e-001	3.719917e-001
13888158.000	9.222390e-001	3.717988e-001
13894152.000	9.223316e-001	3.715968e-001
13900146.000	9.223816e-001	3.714344e-001
13906140.000	9.225163e-001	3.712549e-001
13912134.000	9.225148e-001	3.710862e-001
13918128.000	9.225794e-001	3.709259e-001
13924122.000	9.226490e-001	3.707729e-001
13930116.000	9.227400e-001	3.706097e-001
13936110.000	9.227250e-001	3.703786e-001
13942104.000	9.228336e-001	3.702147e-001
13948098.000	9.229216e-001	3.700171e-001
13954092.000	9.229731e-001	3.698198e-001
13960086.000	9.230059e-001	3.696503e-001
13966080.000	9.231316e-001	3.694995e-001
13972074.000	9.232191e-001	3.693133e-001
13978068.000	9.232646e-001	3.691488e-001
13984062.000	9.233535e-001	3.689382e-001
13990056.000	9.233841e-001	3.688092e-001
13996050.000	9.235022e-001	3.686442e-001
14002044.000	9.235360e-001	3.684507e-001
14008038.000	9.236360e-001	3.682690e-001
14014032.000	9.237054e-001	3.681148e-001
14020026.000	9.237487e-001	3.679325e-001
14026020.000	9.238026e-001	3.677846e-001
14032014.000	9.239127e-001	3.676204e-001
14038008.000	9.239410e-001	3.674369e-001
14044002.000	9.239836e-001	3.672364e-001
14049996.000	9.240386e-001	3.671091e-001
14055990.000	9.241140e-001	3.669282e-001
14061984.000	9.241801e-001	3.667476e-001
14067978.000	9.242248e-001	3.665675e-001
14073972.000	9.243014e-001	3.664223e-001
14079966.000	9.243921e-001	3.661738e-001
14085960.000	9.244275e-001	3.660661e-001
14091954.000	9.244958e-001	3.658552e-001
14097948.000	9.245871e-001	3.656785e-001
14103942.000	9.245949e-001	3.655013e-001
14109936.000	9.246392e-001	3.653372e-001
14115930.000	9.247360e-001	3.651394e-001
14121924.000	9.247704e-001	3.650038e-001
14127918.000	9.248650e-001	3.648532e-001
14133912.000	9.249518e-001	3.646126e-001
14139906.000	9.249467e-001	3.644599e-001
14145900.000	9.249809e-001	3.642951e-001
14151894.000	9.250785e-001	3.641031e-001
14157888.000	9.251687e-001	3.639175e-001
14163882.000	9.252315e-001	3.637648e-001
14169876.000	9.253294e-001	3.636471e-001
14175870.000	9.254092e-001	3.634390e-001
14181864.000	9.254429e-001	3.632601e-001
14187858.000	9.254865e-001	3.631076e-001
14193852.000	9.255328e-001	3.629338e-001
14199846.000	9.256290e-001	3.627996e-001
14205840.000	9.257190e-001	3.625962e-001
14211834.000	9.257273e-001	3.624566e-001
14217828.000	9.258003e-001	3.623325e-001
14223822.000	9.258938e-001	3.621409e-001
14229816.000	9.259378e-001	3.619675e-001
14235810.000	9.259624e-001	3.617774e-001
14241804.000	9.260329e-001	3.615903e-001
14247798.000	9.260875e-001	3.614203e-001
14253792.000	9.261437e-001	3.612243e-001
14259786.000	9.262412e-001	3.610870e-001
14265780.000	9.262996e-001	3.609375e-001
14271774.000	9.264087e-001	3.607145e-001
14277768.000	9.264498e-001	3.605872e-001
14283762.000	9.264717e-001	3.604184e-001
14289756.000	9.265935e-001	3.602457e-001
14295750.000	9.267152e-001	3.601130e-001
14301744.000	9.268636e-001	3.600568e-001
14307738.000	9.268585e-001	3.598198e-001
14313732.000	9.268672e-001	3.595866e-001
14319726.000	9.269144e-001	3.594411e-001
14325720.000	9.269491e-001	3.592089e-001
14331714.000	9.270409e-001	3.590922e-001
14337708.000	9.271035e-001	3.589321e-001
14343702.000	9.271387e-001	3.587257e-001
14349696.000	9.271925e-001	3.585865e-001
14355690.000	9.272706e-001	3.583837e-001
14361684.000	9.273283e-001	3.582633e-001
14367678.000	9.274055e-001	3.581068e-001
14373672.000	9.274773e-001	3.579425e-001
14379666.000	9.274913e-001	3.577320e-001
14385660.000	9.275571e-001	3.575653e-001
14391654.000	9.276585e-001	3.573467e-001
14397648.000	9.277335e-001	3.572367e-001
14403642.000	9.277641e-001	3.570974e-001
14409636.000	9.277504e-001	3.568864e-001
14415630.000	9.278653e-001	3.567454e-001
14421624.000	9.279094e-001	3.565769e-001
14427618.000	9.279271e-001	3.563772e-001
14433612.000	9.280257e-001	3.562335e-001
14439606.000	9.280169e-001	3.560672e-001
14445600.000	9.281222e-001	3.558512e-001
14451594.000	9.281613e-001	3.557077e-001
14457588.000	9.282515e-001	3.555465e-001
14463582.000	9.283429e-001	3.553947e-001
14469576.000	9.284014e-001	3.552748e-001
14475570.000	9.284464e-001	3.550800e-001
14481564.000	9.285189e-001	3.548995e-001
14487558.000	9.286348e-001	3.547519e-001
14493552.000	9.286211e-001	3.545962e-001
14499546.000	9.286835e-001	3.544536e-001
14505540.000	9.287648e-001	3.543155e-001
14511534.000	9.288301e-001	3.540948e-001
14517528.000	9.288411e-001	3.539292e-001
14523522.000	9.289387e-001	3.538075e-001
14529516.000	9.289360e-001	3.536004e-001
14535510.000	9.289900e-001	3.534552e-001
14541504.000	9.290659e-001	3.532524e-001
14547498.000	9.290922e-001	3.531327e-001
14553492.000	9.291844e-001	3.529688e-001
14559486.000	9.292678e-001	3.527746e-001
14565480.000	9.293016e-001	3.525782e-001
14571474.000	9.294094e-001	3.524425e-001
14577468.000	9.294151e-001	3.522618e-001
14583462.000	9.294755e-001	3.520891e-001
14589456.000	9.295233e-001	3.519525e-001
14595450.000	9.296021e-001	3.517928e-001
14601444.000	9.296498e-001	3.516090e-001
14607438.000	9.297192e-001	3.514086e-001
14613432.000	9.297944e-001	3.513384e-001
14619426.000	9.298583e-001	3.511355e-001
14625420.000	9.298983e-001	3.509818e-001
14631414.000	9.299352e-001	3.507867e-001
14637408.000	9.300258e-001	3.506231e-001
14643402.000	9.300911e-001	3.505290e-001
14649396.000	9.301400e-001	3.503467e-001
14655390.000	9.301911e-001	3.502080e-001
14661384.000	9.302496e-001	3.499459e-001
14667378.000	9.303279e-001	3.499186e-001
14673372.000	9.303599e-001	3.496725e-001
14679366.000	9.303908e-001	3.494740e-001
14685360.000	9.304702e-001	3.494035e-001
14691354.000	9.305203e-001	3.491904e-001
14697348.000	9.305877e-001	3.490166e-001
14703342.000	9.306598e-001	3.488956e-001
14709336.000	9.307131e-001	3.486614e-001
14715330.000	9.308009e-001	3.485627e-001
14721324.000	9.308442e-001	3.483598e-001
14727318.000	9.309090e-001	3.482450e-001
14733312.000	9.308806e-001	3.480989e-001
14739306.000	9.309743e-001	3.479494e-001
14745300.000	9.309828e-001	3.477470e-001
14751294.000	9.311166e-001	3.476061e-001
14757288.000	9.311799e-001	3.474384e-001
14763282.000	9.312228e-001	3.472885e-001
14769276.000	9.312607e-001	3.471140e-001
14775270.000	9.313226e-001	3.469703e-001
14781264.000	9.313323e-001	3.468371e-001
14787258.000	9.314466e-001	3.466484e-001
14793252.000	9.314419e-001	3.464957e-001
14799246.000	9.315215e-001	3.463188e-001
14805240.000	9.316823e-001	3.462772e-001
14811234.000	9.316326e-001	3.460002e-001
14817228.000	9.317157e-001	3.458257e-001
14823222.000	9.317286e-001	3.456550e-001
14829216.000	9.317737e-001	3.454673e-001
14835210.000	9.318611e-001	3.453464e-001
14841204.000	9.318997e-001	3.451956e-001
14847198.000	9.319081e-001	3.450245e-001
14853192.000	9.320133e-001	3.448540e-001
14859186.000	9.320470e-001	3.447628e-001
14865180.000	9.321190e-001	3.445946e-001
14871174.000	9.321846e-001	3.444304e-001
14877168.000	9.322364e-001	3.442644e-001
14883162.000	9.323070e-001	3.440332e-001
14889156.000	9.323496e-001	3.439129e-001
14895150.000	9.323464e-001	3.437791e-001
14901144.000	9.323728e-001	3.436085e-001
14907138.000	9.324619e-001	3.434589e-001
14913132.000	9.325228e-001	3.433310e-001
14919126.000	9.325588e-001	3.431506e-001
14925120.000	9.326761e-001	3.429977e-001
14931114.000	9.326595e-001	3.427966e-001
14937108.000	9.327579e-001	3.426267e-001
14943102.000	9.327683e-001	3.424973e-001
14949096.000	9.328356e-001	3.423030e-001
14955090.000	9.329056e-001	3.421810e-001
14961084.000	9.329315e-001	3.420068e-001
14967078.000	9.330052e-001	3.418423e-001
14973072.000	9.330548e-001	3.417071e-001
14979066.000	9.330843e-001	3.415369e-001
14985060.000	9.330795e-001	3.413660e-001
14991054.000	9.332392e-001	3.412431e-001
14997048.000	9.332797e-001	3.411004e-001
15003042.000	9.333613e-001	3.409356e-001
15009036.000	9.333452e-001	3.407510e-001
15015030.000	9.334129e-001	3.406255e-001
15021024.000	9.334703e-001	3.404723e-001
15027018.000	9.335397e-001	3.403196e-001
15033012.000	9.335993e-001	3.401632e-001
15039006.000	9.336652e-001	3.400232e-001
15045000.000	9.337537e-001	3.399047e-001
15050994.000	9.338136e-001	3.397412e-001
15056988.000	9.338310e-001	3.396076e-001
15062982.000	9.338496e-001	3.393575e-001
15068976.000	9.339186e-001	3.392414e-001
15074970.000	9.339308e-001	3.390606e-001
15080964.000	9.339803e-001	3.389362e-001
15086958.000	9.340649e-001	3.387608e-001
15092952.000	9.340974e-001	3.386230e-001
15098946.000	9.341774e-001	3.384720e-001
15104940.000	9.342340e-001	3.383245e-001
15110934.000	9.342796e-001	3.381676e-001
15116928.000	9.343097e-001	3.379987e-001
15122922.000	9.343586e-001	3.378526e-001
15128916.000	9.343936e-001	3.376568e-001
15134910.000	9.344640e-001	3.375944e-001
15140904.000	9.345749e-001	3.373853e-001
15146898.000	9.345748e-001	3.372711e-001
15152892.000	9.346160e-001	3.370730e-001
15158886.000	9.346954e-001	3.369555e-001
15164880.000	9.347314e-001	3.367928e-001
15170874.000	9.347583e-001	3.366030e-001
15176868.000	9.348388e-001	3.364515e-001
15182862.000	9.349268e-001	3.363346e-001
15188856.000	9.349360e-001	3.361975e-001
15194850.000	9.349787e-001	3.360424e-001
15200844.000	9.350369e-001	3.358627e-001
15206838.000	9.351248e-001	3.357383e-001
15212832.000	9.351454e-001	3.355902e-001
15218826.000	9.351920e-001	3.354117e-001
15224820.000	9.352133e-001	3.352746e-001
15230814.000	9.352255e-001	3.351403e-001
15236808.000	9.353328e-001	3.349680e-001
15242802.000	9.354011e-001	3.348531e-001
15248796.000	9.354454e-001	3.347038e-001
15254790.000	9.355461e-001	3.345478e-001
15260784.000	9.355928e-001	3.343710e-001
15266778.000	9.355997e-001	3.342424e-001
15272772.000	9.356282e-001	3.340972e-001
15278766.000	9.356847e-001	3.338910e-001
15284760.000	9.357478e-001	3.337370e-001
15290754.000	9.358192e-001	3.336271e-001
15296748.000	9.358518e-001	3.334590e-001
15302742.000	9.359193e-001	3.332658e-001
15308736.000	9.359719e-001	3.331386e-001
15314730.000	9.360301e-001	3.330108e-001
15320724.000	9.360297e-001	3.328457e-001
15326718.000	9.360873e-001	3.327022e-001
15332712.000	9.360881e-001	3.325593e-001
15338706.000	9.361856e-001	3.324159e-001
15344700.000	9.362277e-001	3.322459e-001
15350694.000	9.362547e-001	3.321460e-001
15356688.000	9.363275e-001	3.318998e-001
15362682.000	9.363691e-001	3.318136e-001
15368676.000	9.364281e-001	3.316530e-001
15374670.000	9.364508e-001	3.315047e-001
15380664.000	9.367342e-001	3.315245e-001
15386658.000	9.366363e-001	3.312639e-001
15392652.000	9.366108e-001	3.311331e-001
15398646.000	9.366950e-001	3.309204e-001
15404640.000	9.367116e-001	3.307658e-001
15410634.000	9.367991e-001	3.306360e-001
15416628.000	9.368456e-001	3.304642e-001
15422622.000	9.368949e-001	3.303397e-001
15428616.000	9.369193e-001	3.302243e-001
15434610.000	9.369604e-001	3.300564e-001
15440604.000	9.370360e-001	3.298823e-001
15446598.000	9.370673e-001	3.297816e-001
15452592.000	9.371114e-001	3.295732e-001
15458586.000	9.371220e-001	3.294992e-001
15464580.000	9.371990e-001	3.293329e-001
15470574.000	9.372644e-001	3.291125e-001
15476568.000	9.373149e-001	3.289856e-001
15482562.000	9.373047e-001	3.288376e-001
15488556.000	9.373944e-001	3.286920e-001
15494550.000	9.374497e-001	3.285510e-001
15500544.000	9.375191e-001	3.284185e-001
15506538.000	9.375505e-001	3.282560e-001
15512532.000	9.376317e-001	3.281011e-001
15518526.000	9.376516e-001	3.279452e-001
15524520.000	9.377112e-001	3.277992e-001
15530514.000	9.377724e-001	3.276485e-001
15536508.000	9.378121e-001	3.274791e-001
15542502.000	9.377791e-001	3.273444e-001
15548496.000	9.378728e-001	3.272165e-001
15554490.000	9.379023e-001	3.270842e-001
15560484.000	9.379267e-001	3.269279e-001
15566478.000	9.380047e-001	3.267771e-001
15572472.000	9.380290e-001	3.266450e-001
15578466.000	9.380765e-001	3.265238e-001
15584460.000	9.381176e-001	3.263418e-001
15590454.000	9.381619e-001	3.261769e-001
15596448.000	9.382697e-001	3.260656e-001
15602442.000	9.382701e-001	3.259410e-001
15608436.000	9.383661e-001	3.257752e-001
15614430.000	9.383630e-001	3.255926e-001
15620424.000	9.384378e-001	3.254594e-001
15626418.000	9.384740e-001	3.253373e-001
15632412.000	9.385546e-001	3.252022e-001
15638406.000	9.386011e-001	3.250965e-001
15644400.000	9.385995e-001	3.249278e-001
15650394.000	9.386378e-001	3.247853e-001
15656388.000	9.386487e-001	3.246378e-001
15662382.000	9.387425e-001	3.244422e-001
15668376.000	9.387234e-001	3.242912e-001
15674370.000	9.387960e-001	3.241066e-001
15680364.000	9.388165e-001	3.240022e-001
15686358.000	9.388506e-001	3.238256e-001
15692352.000	9.389151e-001	3.237465e-001
15698346.000	9.390251e-001	3.235911e-001
15704340.000	9.390200e-001	3.234331e-001
15710334.000	9.390715e-001	3.232846e-001
15716328.000	9.390751e-001	3.230679e-001
15722322.000	9.391639e-001	3.229750e-001
15728316.000	9.392240e-001	3.228509e-001
15734310.000	9.392452e-001	3.226550e-001
15740304.000	9.392438e-001	3.225462e-001
15746298.000	9.393475e-001	3.224610e-001
15752292.000	9.393845e-001	3.222620e-001
15758286.000	9.394187e-001	3.221261e-001
15764280.000	9.394760e-001	3.220042e-001
15770274.000	9.395073e-001	3.218802e-001
15776268.000	9.395219e-001	3.216592e-001
15782262.000	9.396079e-001	3.216002e-001
15788256.000	9.397688e-001	3.214571e-001
15794250.000	9.397291e-001	3.213190e-001
15800244.000	9.397096e-001	3.211192e-001
15806238.000	9.397963e-001	3.210114e-001
15812232.000	9.398641e-001	3.208372e-001
15818226.000	9.399076e-001	3.207519e-001
15824220.000	9.399153e-001	3.205567e-001
15830214.000	9.399880e-001	3.204441e-001
15836208.000	9.399778e-001	3.203163e-001
15842202.000	9.401219e-001	3.201290e-001
15848196.000	9.401541e-001	3.200791e-001
15854190.000	9.401591e-001	3.198818e-001
15860184.000	9.402299e-001	3.197245e-001
15866178.000	9.402318e-001	3.195870e-001
15872172.000	9.403073e-001	3.194579e-001
15878166.000	9.403421e-001	3.192896e-001
15884160.000	9.403440e-001	3.191422e-001
15890154.000	9.404279e-001	3.190338e-001
15896148.000	9.404669e-001	3.188897e-001
15902142.000	9.405056e-001	3.187646e-001
15908136.000	9.405781e-001	3.185864e-001
15914130.000	9.406474e-001	3.185043e-001
15920124.000	9.406251e-001	3.183328e-001
15926118.000	9.406657e-001	3.181941e-001
15932112.000	9.407527e-001	3.180357e-001
15938106.000	9.407859e-001	3.179022e-001
15944100.000	9.408302e-001	3.177150e-001
15950094.000	9.408456e-001	3.176462e-001
15956088.000	9.409191e-001	3.174645e-001
15962082.000	9.409571e-001	3.173798e-001
15968076.000	9.410304e-001	3.172105e-001
15974070.000	9.410501e-001	3.170719e-001
15980064.000	9.411229e-001	3.169380e-001
15986058.000	9.411215e-001	3.167836e-001
15992052.000	9.411608e-001	3.166344e-001
15998046.000	9.411835e-001	3.165401e-001
16004040.000	9.412351e-001	3.163707e-001
16010034.000	9.412973e-001	3.162066e-001
16016028.000	9.413003e-001	3.160973e-001
16022022.000	9.413511e-001	3.159726e-001
16028016.000	9.414766e-001	3.158004e-001
16034010.000	9.414854e-001	3.156741e-001
16040004.000	9.414842e-001	3.155201e-001
16045998.000	9.415409e-001	3.154069e-001
16051992.000	9.416243e-001	3.152182e-001
16057986.000	9.416457e-001	3.151078e-001
16063980.000	9.416801e-001	3.149568e-001
16069974.000	9.417503e-001	3.148499e-001
16075968.000	9.417518e-001	3.146918e-001
16081962.000	9.418164e-001	3.145721e-001
16087956.000	9.418484e-001	3.144398e-001
16093950.000	9.419245e-001	3.142734e-001
16099944.000	9.419461e-001	3.141372e-001
16105938.000	9.419784e-001	3.140111e-001
16111932.000	9.419849e-001	3.138035e-001
16117926.000	9.420819e-001	3.137299e-001
16123920.000	9.420631e-001	3.135779e-001
16129914.000	9.421130e-001	3.134432e-001
16135908.000	9.421320e-001	3.132952e-001
16141902.000	9.421850e-001	3.131309e-001
16147896.000	9.423162e-001	3.130575e-001
16153890.000	9.422806e-001	3.128802e-001
16159884.000	9.423637e-001	3.127710e-001
16165878.000	9.423465e-001	3.126235e-001
16171872.000	9.424134e-001	3.125053e-001
16177866.000	9.424338e-001	3.122993e-001
16183860.000	9.424992e-001	3.122293e-001
16189854.000	9.426228e-001	3.120959e-001
16195848.000	9.425525e-001	3.119262e-001
16201842.000	9.425833e-001	3.118013e-001
16207836.000	9.426338e-001	3.116208e-001
16213830.000	9.426595e-001	3.115125e-001
16219824.000	9.428338e-001	3.113839e-001
16225818.000	9.428053e-001	3.112441e-001
16231812.000	9.428327e-001	3.110930e-001
16237806.000	9.429268e-001	3.109810e-001
16243800.000	9.429244e-001	3.108063e-001
16249794.000	9.429412e-001	3.106960e-001
16255788.000	9.429759e-001	3.105762e-001
16261782.000	9.430005e-001	3.104821e-001
16267776.000	9.430665e-001	3.103036e-001
16273770.000	9.431376e-001	3.101810e-001
16279764.000	9.431445e-001	3.100190e-001
16285758.000	9.431468e-001	3.099190e-001
16291752.000	9.432012e-001	3.097467e-001
16297746.000	9.432423e-001	3.096286e-001
16303740.000	9.432988e-001	3.094717e-001
16309734.000	9.433336e-001	3.093227e-001
16315728.000	9.433957e-001	3.092273e-001
16321722.000	9.434310e-001	3.091185e-001
16327716.000	9.434399e-001	3.089463e-001
16333710.000	9.434939e-001	3.088280e-001
16339704.000	9.435868e-001	3.086795e-001
16345698.000	9.436182e-001	3.085365e-001
16351692.000	9.436211e-001	3.084111e-001
16357686.000	9.436623e-001	3.083077e-001
16363680.000	9.436916e-001	3.081488e-001
16369674.000	9.436942e-001	3.080118e-001
16375668.000	9.437366e-001	3.078256e-001
16381662.000	9.438053e-001	3.077253e-001
16387656.000	9.438353e-001	3.076167e-001
16393650.000	9.438708e-001	3.074646e-001
16399644.000	9.439324e-001	3.073361e-001
16405638.000	9.439546e-001	3.071794e-001
16411632.000	9.440146e-001	3.070567e-001
16417626.000	9.440124e-001	3.069312e-001
16423620.000	9.441022e-001	3.068038e-001
16429614.000	9.441182e-001	3.066245e-001
16435608.000	9.441394e-001	3.065223e-001
16441602.000	9.441890e-001	3.063906e-001
16447596.000	9.442624e-001	3.062638e-001
16453590.000	9.442480e-001	3.061603e-001
16459584.000	9.442870e-001	3.059751e-001
16465578.000	9.443141e-001	3.059012e-001
16471572.000	9.443250e-001	3.056669e-001
16477566.000	9.443842e-001	3.055879e-001
16483560.000	9.443530e-001	3.054532e-001
16489554.000	9.445115e-001	3.053765e-001
16495548.000	9.445447e-001	3.052076e-001
16501542.000	9.445390e-001	3.050741e-001
16507536.000	9.446082e-001	3.048937e-001
16513530.000	9.445692e-001	3.047782e-001
16519524.000	9.446360e-001	3.046832e-001
16525518.000	9.446678e-001	3.045637e-001
16531512.000	9.447014e-001	3.044075e-001
16537506.000	9.447752e-001	3.042944e-001
16543500.000	9.447647e-001	3.041414e-001
16549494.000	9.448303e-001	3.039952e-001
16555488.000	9.449373e-001	3.039221e-001
16561482.000	9.449130e-001	3.037727e-001
16567476.000	9.449443e-001	3.036180e-001
16573470.000	9.449616e-001	3.034759e-001
16579464.000	9.450403e-001	3.034136e-001
16585458.000	9.450839e-001	3.032320e-001
16591452.000	9.451027e-001	3.030682e-001
16597446.000	9.451526e-001	3.029282e-001
16603440.000	9.451840e-001	3.028463e-001
16609434.000	9.451884e-001	3.026804e-001
16615428.000	9.452652e-001	3.026105e-001
16621422.000	9.453460e-001	3.024634e-001
16627416.000	9.453963e-001	3.022909e-001
16633410.000	9.454003e-001	3.021464e-001
16639404.000	9.454638e-001	3.020663e-001
16645398.000	9.455021e-001	3.019414e-001
16651392.000	9.455014e-001	3.017664e-001
16657386.000	9.455398e-001	3.016379e-001
16663380.000	9.455874e-001	3.015311e-001
16669374.000	9.456187e-001	3.013590e-001
16675368.000	9.457008e-001	3.013169e-001
16681362.000	9.456638e-001	3.011659e-001
16687356.000	9.457527e-001	3.010069e-001
16693350.000	9.458216e-001	3.009017e-001
16699344.000	9.458173e-001	3.007360e-001
16705338.000	9.458380e-001	3.006163e-001
16711332.000	9.459518e-001	3.005099e-001
16717326.000	9.459727e-001	3.003728e-001
16723320.000	9.459382e-001	3.002560e-001
16729314.000	9.460363e-001	3.001202e-001
16735308.000	9.460668e-001	2.999760e-001
16741302.000	9.461113e-001	2.998676e-001
16747296.000	9.461031e-001	2.997004e-001
16753290.000	9.461330e-001	2.996114e-001
16759284.000	9.461980e-001	2.994795e-001
16765278.000	9.462132e-001	2.993364e-001
16771272.000	9.462983e-001	2.992032e-001
16777266.000	9.462771e-001	2.990790e-001
16783260.000	9.463309e-001	2.989763e-001
16789254.000	9.463801e-001	2.987394e-001
16795248.000	9.464645e-001	2.987508e-001
16801242.000	9.464232e-001	2.985537e-001
16807236.000	9.464734e-001	2.984063e-001
16813230.000	9.465606e-001	2.983390e-001
16819224.000	9.465231e-001	2.981701e-001
16825218.000	9.465901e-001	2.980459e-001
16831212.000	9.466071e-001	2.979333e-001
16837206.000	9.466469e-001	2.978113e-001
16843200.000	9.466822e-001	2.976309e-001
16849194.000	9.466810e-001	2.974991e-001
16855188.000	9.467419e-001	2.974011e-001
16861182.000	9.467721e-001	2.972803e-001
16867176.000	9.468604e-001	2.971489e-001
16873170.000	9.468782e-001	2.970098e-001
16879164.000	9.469089e-001	2.969017e-001
16885158.000	9.469148e-001	2.967590e-001
16891152.000	9.469363e-001	2.966570e-001
16897146.000	9.469522e-001	2.964569e-001
16903140.000	9.471658e-001	2.964964e-001
16909134.000	9.470791e-001	2.962599e-001
16915128.000	9.470644e-001	2.961124e-001
16921122.000	9.471559e-001	2.960042e-001
16927116.000	9.471309e-001	2.958591e-001
16933110.000	9.471931e-001	2.957786e-001
16939104.000	9.472214e-001	2.956103e-001
16945098.000	9.472455e-001	2.954954e-001
16951092.000	9.472967e-001	2.953193e-001
16957086.000	9.473673e-001	2.952039e-001
16963080.000	9.473628e-001	2.950905e-001
16969074.000	9.474267e-001	2.950050e-001
16975068.000	9.473895e-001	2.948199e-001
16981062.000	9.474493e-001	2.947321e-001
16987056.000	9.475278e-001	2.946103e-001
16993050.000	9.475845e-001	2.944879e-001
16999044.000	9.476216e-001	2.943783e-001
17005038.000	9.476686e-001	2.942233e-001
17011032.000	9.477343e-001	2.940948e-001
17017026.000	9.477460e-001	2.940490e-001
17023020.000	9.477636e-001	2.938784e-001
17029014.000	9.478254e-001	2.937421e-001
17035008.000	9.478301e-001	2.936245e-001
17041002.000	9.478452e-001	2.934720e-001
17046996.000	9.478876e-001	2.933682e-001
17052990.000	9.479512e-001	2.932876e-001
17058984.000	9.479931e-001	2.931331e-001
17064978.000	9.479606e-001	2.929377e-001
17070972.000	9.480488e-001	2.928913e-001
17076966.000	9.480363e-001	2.927542e-001
17082960.000	9.480578e-001	2.925835e-001
17088954.000	9.481222e-001	2.924862e-001
17094948.000	9.481193e-001	2.923679e-001
17100942.000	9.481940e-001	2.922331e-001
17106936.000	9.481879e-001	2.921033e-001
17112930.000	9.482086e-001	2.919513e-001
17118924.000	9.483028e-001	2.918621e-001
17124918.000	9.482178e-001	2.917711e-001
17130912.000	9.483684e-001	2.916106e-001
17136906.000	9.484043e-001	2.915133e-001
17142900.000	9.484106e-001	2.913706e-001
17148894.000	9.484654e-001	2.912406e-001
17154888.000	9.484860e-001	2.910736e-001
17160882.000	9.485347e-001	2.910162e-001
17166876.000	9.485275e-001	2.908595e-001
17172870.000	9.485867e-001	2.907427e-001
17178864.000	9.486396e-001	2.906620e-001
17184858.000	9.486315e-001	2.905166e-001
17190852.000	9.487250e-001	2.904047e-001
17196846.000	9.487521e-001	2.903070e-001
17202840.000	9.487704e-001	2.901612e-001
17208834.000	9.487409e-001	2.900003e-001
17214828.000	9.487843e-001	2.898650e-001
17220822.000	9.488580e-001	2.897823e-001
17226816.000	9.488718e-001	2.896160e-001
17232810.000	9.489539e-001	2.894850e-001
17238804.000	9.489003e-001	2.893913e-001
17244798.000	9.489582e-001	2.892483e-001
17250792.000	9.489685e-001	2.891045e-001
17256786.000	9.490111e-001	2.890075e-001
17262780.000	9.490194e-001	2.888497e-001
17268774.000	9.490295e-001	2.887713e-001
17274768.000	9.490887e-001	2.886284e-001
17280762.000	9.491655e-001	2.885468e-001
17286756.000	9.491866e-001	2.884185e-001
17292750.000	9.492007e-001	2.883140e-001
17298744.000	9.492843e-001	2.882034e-001
17304738.000	9.492937e-001	2.880569e-001
17310732.000	9.493353e-001	2.879310e-001
17316726.000	9.493395e-001	2.878213e-001
17322720.000	9.493747e-001	2.876749e-001
17328714.000	9.493999e-001	2.875389e-001
17334708.000	9.493759e-001	2.874206e-001
17340702.000	9.494501e-001	2.873032e-001
17346696.000	9.494785e-001	2.872123e-001
17352690.000	9.495218e-001	2.870600e-001
17358684.000	9.496051e-001	2.869548e-001
17364678.000	9.496040e-001	2.868174e-001
17370672.000	9.496316e-001	2.867158e-001
17376666.000	9.497088e-001	2.866045e-001
17382660.000	9.497313e-001	2.864699e-001
17388654.000	9.497493e-001	2.863154e-001
17394648.000	9.498081e-001	2.862261e-001
17400642.000	9.498127e-001	2.861223e-001
17406636.000	9.498433e-001	2.859280e-001
17412630.000	9.498760e-001	2.858540e-001
17418624.000	9.498893e-001	2.857441e-001
17424618.000	9.499446e-001	2.856188e-001
17430612.000	9.499732e-001	2.855272e-001
17436606.000	9.500046e-001	2.854118e-001
17442600.000	9.500676e-001	2.852768e-001
17448594.000	9.500887e-001	2.851673e-001
17454588.000	9.501025e-001	2.850027e-001
17460582.000	9.501285e-001	2.848972e-001
17466576.000	9.501863e-001	2.847761e-001
17472570.000	9.502452e-001	2.846623e-001
17478564.000	9.502445e-001	2.845506e-001
17484558.000	9.502648e-001	2.844190e-001
17490552.000	9.502764e-001	2.842815e-001
17496546.000	9.503276e-001	2.842025e-001
17502540.000	9.504094e-001	2.840428e-001
17508534.000	9.503739e-001	2.839667e-001
17514528.000	9.504256e-001	2.838335e-001
17520522.000	9.504200e-001	2.836757e-001
17526516.000	9.504491e-001	2.835835e-001
17532510.000	9.504835e-001	2.834580e-001
17538504.000	9.505494e-001	2.832967e-001
17544498.000	9.506023e-001	2.832401e-001
17550492.000	9.505875e-001	2.830701e-001
17556486.000	9.505794e-001	2.829319e-001
17562480.000	9.506513e-001	2.828798e-001
17568474.000	9.506836e-001	2.827434e-001
17574468.000	9.506961e-001	2.825943e-001
17580462.000	9.507512e-001	2.825126e-001
17586456.000	9.508006e-001	2.824048e-001
17592450.000	9.508020e-001	2.822848e-001
17598444.000	9.507990e-001	2.821571e-001
17604438.000	9.508631e-001	2.820679e-001
17610432.000	9.508441e-001	2.819281e-001
17616426.000	9.508940e-001	2.817679e-001
17622420.000	9.509500e-001	2.816837e-001
17628414.000	9.509769e-001	2.815413e-001
17634408.000	9.510024e-001	2.814555e-001
17640402.000	9.511061e-001	2.813039e-001
17646396.000	9.511076e-001	2.812093e-001
17652390.000	9.511372e-001	2.810810e-001
17658384.000	9.511229e-001	2.809579e-001
17664378.000	9.512169e-001	2.808674e-001
17670372.000	9.512050e-001	2.807405e-001
17676366.000	9.512727e-001	2.806528e-001
17682360.000	9.512833e-001	2.804713e-001
17688354.000	9.513332e-001	2.803774e-001
17694348.000	9.512850e-001	2.802279e-001
17700342.000	9.513322e-001	2.801021e-001
17706336.000	9.513886e-001	2.800148e-001
17712330.000	9.513439e-001	2.798783e-001
17718324.000	9.514481e-001	2.797725e-001
17724318.000	9.514944e-001	2.796890e-001
17730312.000	9.514923e-001	2.795361e-001
17736306.000	9.515600e-001	2.794629e-001
17742300.000	9.515479e-001	2.793097e-001
17748294.000	9.515899e-001	2.792213e-001
17754288.000	9.515899e-001	2.790728e-001
17760282.000	9.516382e-001	2.789972e-001
17766276.000	9.516348e-001	2.788639e-001
17772270.000	9.516890e-001	2.787166e-001
17778264.000	9.516945e-001	2.786202e-001
17784258.000	9.516897e-001	2.784412e-001
17790252.000	9.517529e-001	2.784006e-001
17796246.000	9.517864e-001	2.782696e-001
17802240.000	9.518816e-001	2.781545e-001
17808234.000	9.518751e-001	2.779980e-001
17814228.000	9.518705e-001	2.779606e-001
17820222.000	9.519118e-001	2.778367e-001
17826216.000	9.519660e-001	2.776823e-001
17832210.000	9.520170e-001	2.776078e-001
17838204.000	9.519753e-001	2.774576e-001
17844198.000	9.519916e-001	2.773256e-001
17850192.000	9.521339e-001	2.772433e-001
17856186.000	9.521042e-001	2.770575e-001
17862180.000	9.521594e-001	2.770009e-001
17868174.000	9.521703e-001	2.768466e-001
17874168.000	9.521884e-001	2.767708e-001
17880162.000	9.522138e-001	2.766612e-001
17886156.000	9.522789e-001	2.765782e-001
17892150.000	9.522613e-001	2.764350e-001
17898144.000	9.522705e-001	2.762946e-001
17904138.000	9.524213e-001	2.762125e-001
17910132.000	9.523594e-001	2.760661e-001
17916126.000	9.524023e-001	2.760173e-001
17922120.000	9.523987e-001	2.758588e-001
17928114.000	9.523968e-001	2.757684e-001
17934108.000	9.525047e-001	2.756570e-001
17940102.000	9.525364e-001	2.755193e-001
17946096.000	9.525627e-001	2.754017e-001
17952090.000	9.525569e-001	2.752659e-001
17958084.000	9.526125e-001	2.751755e-001
17964078.000	9.526665e-001	2.751052e-001
17970072.000	9.526788e-001	2.749631e-001
17976066.000	9.526428e-001	2.748239e-001
17982060.000	9.527061e-001	2.747054e-001
17988054.000	9.528002e-001	2.746291e-001
17994048.000	9.526817e-001	2.744628e-001
18000042.000	9.527921e-001	2.744125e-001
18006036.000	9.528321e-001	2.743027e-001
18012030.000	9.528293e-001	2.741646e-001
18018024.000	9.528811e-001	2.740209e-001
18024018.000	9.529010e-001	2.739267e-001
18030012.000	9.528829e-001	2.738102e-001
18036006.000	9.528833e-001	2.736904e-001
18042000.000	9.529845e-001	2.735795e-001
18047994.000	9.529333e-001	2.734581e-001
18053988.000	9.530253e-001	2.733258e-001
18059982.000	9.530870e-001	2.732385e-001
18065976.000	9.531353e-001	2.731489e-001
18071970.000	9.530916e-001	2.729900e-001
18077964.000	9.531484e-001	2.728996e-001
18083958.000	9.531775e-001	2.728158e-001
18089952.000	9.532155e-001	2.726797e-001
18095946.000	9.532364e-001	2.725329e-001
18101940.000	9.532133e-001	2.724603e-001
18107934.000	9.532725e-001	2.723581e-001
18113928.000	9.533125e-001	2.722273e-001
18119922.000	9.532648e-001	2.721053e-001
18125916.000	9.533311e-001	2.719710e-001
18131910.000	9.533769e-001	2.718756e-001
18137904.000	9.533837e-001	2.717307e-001
18143898.000	9.534759e-001	2.716182e-001
18149892.000	9.535118e-001	2.715433e-001
18155886.000	9.534685e-001	2.714021e-001
18161880.000	9.535151e-001	2.713089e-001
18167874.000	9.535295e-001	2.712473e-001
18173868.000	9.535541e-001	2.710652e-001
18179862.000	9.536000e-001	2.710003e-001
18185856.000	9.536046e-001	2.708510e-001
18191850.000	9.537033e-001	2.707636e-001
18197844.000	9.536817e-001	2.706201e-001
18203838.000	9.536833e-001	2.704973e-001
18209832.000	9.538151e-001	2.704101e-001
18215826.000	9.537710e-001	2.703183e-001
18221820.000	9.538055e-001	2.702066e-001
18227814.000	9.538488e-001	2.700886e-001
18233808.000	9.537996e-001	2.699274e-001
18239802.000	9.538630e-001	2.698184e-001
18245796.000	9.538685e-001	2.697275e-001
18251790.000	9.539208e-001	2.696608e-001
18257784.000	9.539371e-001	2.694987e-001
18263778.000	9.538891e-001	2.693668e-001
18269772.000	9.539817e-001	2.692916e-001
18275766.000	9.539527e-001	2.691821e-001
18281760.000	9.540206e-001	2.691146e-001
18287754.000	9.540369e-001	2.689367e-001
18293748.000	9.540795e-001	2.688531e-001
18299742.000	9.541468e-001	2.687722e-001
18305736.000	9.541853e-001	2.686630e-001
18311730.000	9.542375e-001	2.685521e-001
18317724.000	9.541706e-001	2.684711e-001
18323718.000	9.542784e-001	2.683429e-001
18329712.000	9.542895e-001	2.681637e-001
18335706.000	9.542894e-001	2.681398e-001
18341700.000	9.542994e-001	2.679941e-001
18347694.000	9.543220e-001	2.678784e-001
18353688.000	9.543642e-001	2.677563e-001
18359682.000	9.544265e-001	2.676560e-001
18365676.000	9.543904e-001	2.675262e-001
18371670.000	9.544587e-001	2.674119e-001
18377664.000	9.545017e-001	2.672936e-001
18383658.000	9.545397e-001	2.672177e-001
18389652.000	9.545045e-001	2.670775e-001
18395646.000	9.545485e-001	2.669954e-001
18401640.000	9.545639e-001	2.668295e-001
18407634.000	9.545935e-001	2.667576e-001
18413628.000	9.546483e-001	2.666309e-001
18419622.000	9.547033e-001	2.665202e-001
18425616.000	9.546881e-001	2.664260e-001
18431610.000	9.546747e-001	2.663236e-001
18437604.000	9.547069e-001	2.662319e-001
18443598.000	9.547764e-001	2.660989e-001
18449592.000	9.547676e-001	2.659849e-001
18455586.000	9.548304e-001	2.658947e-001
18461580.000	9.548126e-001	2.657811e-001
18467574.000	9.548941e-001	2.656943e-001
18473568.000	9.549541e-001	2.655631e-001
18479562.000	9.548968e-001	2.654412e-001
18485556.000	9.549361e-001	2.653770e-001
18491550.000	9.549628e-001	2.652176e-001
18497544.000	9.549616e-001	2.651370e-001
18503538.000	9.550387e-001	2.650574e-001
18509532.000	9.550859e-001	2.649240e-001
18515526.000	9.550877e-001	2.648607e-001
18521520.000	9.551515e-001	2.647234e-001
18527514.000	9.551683e-001	2.645981e-001
18533508.000	9.551839e-001	2.644850e-001
18539502.000	9.551511e-001	2.643326e-001
18545496.000	9.551490e-001	2.642397e-001
18551490.000	9.552119e-001	2.641648e-001
18557484.000	9.552710e-001	2.639936e-001
18563478.000	9.552654e-001	2.639005e-001
18569472.000	9.552997e-001	2.637791e-001
18575466.000	9.553240e-001	2.637082e-001
18581460.000	9.553677e-001	2.636077e-001
18587454.000	9.553768e-001	2.635402e-001
18593448.000	9.553760e-001	2.634320e-001
18599442.000	9.554227e-001	2.633176e-001
18605436.000	9.554244e-001	2.631549e-001
18611430.000	9.554826e-001	2.630431e-001
18617424.000	9.554241e-001	2.629089e-001
18623418.000	9.555004e-001	2.628406e-001
18629412.000	9.555326e-001	2.627726e-001
18635406.000	9.555681e-001	2.626375e-001
18641400.000	9.555912e-001	2.625244e-001
18647394.000	9.556117e-001	2.624364e-001
18653388.000	9.556758e-001	2.623223e-001
18659382.000	9.556823e-001	2.622344e-001
18665376.000	9.557357e-001	2.621057e-001
18671370.000	9.557105e-001	2.619946e-001
18677364.000	9.557464e-001	2.619103e-001
18683358.000	9.557859e-001	2.617534e-001
18689352.000	9.558220e-001	2.616478e-001
18695346.000	9.558063e-001	2.615844e-001
18701340.000	9.558233e-001	2.614788e-001
18707334.000	9.558277e-001	2.613775e-001
18713328.000	9.559056e-001	2.612750e-001
18719322.000	9.559367e-001	2.611672e-001
18725316.000	9.559489e-001	2.610251e-001
18731310.000	9.559655e-001	2.608970e-001
18737304.000	9.559993e-001	2.608216e-001
18743298.000	9.560180e-001	2.606854e-001
18749292.000	9.560754e-001	2.606621e-001
18755286.000	9.560797e-001	2.605716e-001
18761280.000	9.560524e-001	2.604055e-001
18767274.000	9.561578e-001	2.603036e-001
18773268.000	9.560920e-001	2.601722e-001
18779262.000	9.561485e-001	2.600897e-001
18785256.000	9.561512e-001	2.599823e-001
18791250.000	9.561418e-001	2.598413e-001
18797244.000	9.561838e-001	2.597685e-001
18803238.000	9.562107e-001	2.596529e-001
18809232.000	9.562509e-001	2.595774e-001
18815226.000	9.562782e-001	2.594547e-001
18821220.000	9.562924e-001	2.593315e-001
18827214.000	9.562884e-001	2.592213e-001
18833208.000	9.563343e-001	2.591067e-001
18839202.000	9.563235e-001	2.590308e-001
18845196.000	9.563824e-001	2.589244e-001
18851190.000	9.564448e-001	2.587672e-001
18857184.000	9.564618e-001	2.587258e-001
18863178.000	9.565064e-001	2.586266e-001
18869172.000	9.564728e-001	2.584717e-001
18875166.000	9.565451e-001	2.583953e-001
18881160.000	9.565279e-001	2.582921e-001
18887154.000	9.565611e-001	2.581893e-001
18893148.000	9.566101e-001	2.581151e-001
18899142.000	9.566578e-001	2.579714e-001
18905136.000	9.566960e-001	2.578896e-001
18911130.000	9.566743e-001	2.577495e-001
18917124.000	9.567267e-001	2.577109e-001
18923118.000	9.567476e-001	2.575681e-001
18929112.000	9.567128e-001	2.574366e-001
18935106.000	9.567680e-001	2.573742e-001
18941100.000	9.568096e-001	2.572666e-001
18947094.000	9.568097e-001	2.571694e-001
18953088.000	9.568325e-001	2.570581e-001
18959082.000	9.568903e-001	2.569625e-001
18965076.000	9.568993e-001	2.568914e-001
18971070.000	9.568995e-001	2.567523e-001
18977064.000	9.569665e-001	2.566424e-001
18983058.000	9.569815e-001	2.565303e-001
18989052.000	9.570058e-001	2.564507e-001
18995046.000	9.570745e-001	2.563434e-001
19001040.000	9.570910e-001	2.562423e-001
19007034.000	9.571072e-001	2.561596e-001
19013028.000	9.570995e-001	2.560226e-001
19019022.000	9.570980e-001	2.559030e-001
19025016.000	9.571117e-001	2.557838e-001
19031010.000	9.571505e-001	2.556779e-001
19037004.000	9.571130e-001	2.555782e-001
19042998.000	9.571783e-001	2.555061e-001
19048992.000	9.572365e-001	2.554044e-001
19054986.000	9.572344e-001	2.552633e-001
19060980.000	9.572618e-001	2.551886e-001
19066974.000	9.573049e-001	2.550743e-001
19072968.000	9.572781e-001	2.549669e-001
19078962.000	9.573737e-001	2.548883e-001
19084956.000	9.573724e-001	2.548161e-001
19090950.000	9.573683e-001	2.546707e-001
19096944.000	9.574145e-001	2.545458e-001
19102938.000	9.573979e-001	2.544661e-001
19108932.000	9.573988e-001	2.543745e-001
19114926.000	9.574688e-001	2.542759e-001
19120920.000	9.574598e-001	2.541801e-001
19126914.000	9.575011e-001	2.540075e-001
19132908.000	9.575729e-001	2.539510e-001
19138902.000	9.575282e-001	2.538341e-001
19144896.000	9.576135e-001	2.537579e-001
19150890.000	9.575953e-001	2.536192e-001
19156884.000	9.576293e-001	2.535701e-001
19162878.000	9.576942e-001	2.534182e-001
19168872.000	9.576285e-001	2.533409e-001
19174866.000	9.576888e-001	2.532347e-001
19180860.000	9.577200e-001	2.532078e-001
19186854.000	9.576863e-001	2.530341e-001
19192848.000	9.577808e-001	2.529517e-001
19198842.000	9.577742e-001	2.528296e-001
19204836.000	9.577902e-001	2.527155e-001
19210830.000	9.578262e-001	2.526084e-001
19216824.000	9.578475e-001	2.525639e-001
19222818.000	9.578408e-001	2.524728e-001
19228812.000	9.578554e-001	2.523156e-001
19234806.000	9.579088e-001	2.522385e-001
19240800.000	9.579608e-001	2.521136e-001
19246794.000	9.579427e-001	2.519896e-001
19252788.000	9.580045e-001	2.519233e-001
19258782.000	9.580324e-001	2.518542e-001
19264776.000	9.579832e-001	2.517376e-001
19270770.000	9.580120e-001	2.516251e-001
19276764.000	9.580643e-001	2.514610e-001
19282758.000	9.580706e-001	2.514295e-001
19288752.000	9.580675e-001	2.513307e-001
19294746.000	9.581280e-001	2.512321e-001
19300740.000	9.581726e-001	2.511215e-001
19306734.000	9.581929e-001	2.510282e-001
19312728.000	9.581749e-001	2.508528e-001
19318722.000	9.582128e-001	2.508217e-001
19324716.000	9.582148e-001	2.507210e-001
19330710.000	9.582484e-001	2.505642e-001
19336704.000	9.582751e-001	2.504989e-001
19342698.000	9.582926e-001	2.504090e-001
19348692.000	9.583518e-001	2.503262e-001
19354686.000	9.583379e-001	2.502078e-001
19360680.000	9.583077e-001	2.501208e-001
19366674.000	9.584048e-001	2.500065e-001
19372668.000	9.583825e-001	2.498905e-001
19378662.000	9.584245e-001	2.498046e-001
19384656.000	9.584809e-001	2.496943e-001
19390650.000	9.584432e-001	2.496014e-001
19396644.000	9.584803e-001	2.495065e-001
19402638.000	9.585167e-001	2.494021e-001
19408632.000	9.585558e-001	2.492919e-001
19414626.000	9.585274e-001	2.491789e-001
19420620.000	9.585877e-001	2.491233e-001
19426614.000	9.585912e-001	2.490107e-001
19432608.000	9.586307e-001	2.488538e-001
19438602.000	9.586510e-001	2.488094e-001
19444596.000	9.586328e-001	2.486954e-001
19450590.000	9.587174e-001	2.486178e-001
19456584.000	9.587150e-001	2.485427e-001
19462578.000	9.587099e-001	2.484534e-001
19468572.000	9.588545e-001	2.483533e-001
19474566.000	9.588263e-001	2.482009e-001
19480560.000	9.588557e-001	2.481432e-001
19486554.000	9.588300e-001	2.480319e-001
19492548.000	9.588406e-001	2.478988e-001
19498542.000	9.589195e-001	2.478215e-001
19504536.000	9.589577e-001	2.477187e-001
19510530.000	9.589323e-001	2.476068e-001
19516524.000	9.589668e-001	2.475240e-001
19522518.000	9.589663e-001	2.474148e-001
19528512.000	9.590250e-001	2.473239e-001
19534506.000	9.589631e-001	2.471727e-001
19540500.000	9.590013e-001	2.470772e-001
19546494.000	9.590610e-001	2.470381e-001
19552488.000	9.590689e-001	2.469308e-001
19558482.000	9.590515e-001	2.468098e-001
19564476.000	9.590943e-001	2.467104e-001
19570470.000	9.590932e-001	2.466076e-001
19576464.000	9.591517e-001	2.465416e-001
19582458.000	9.592445e-001	2.464518e-001
19588452.000	9.592121e-001	2.463249e-001
19594446.000	9.592508e-001	2.462563e-001
19600440.000	9.592570e-001	2.461468e-001
19606434.000	9.593201e-001	2.460564e-001
19612428.000	9.593398e-001	2.459645e-001
19618422.000	9.593604e-001	2.458861e-001
19624416.000	9.593757e-001	2.457804e-001
19630410.000	9.593874e-001	2.456522e-001
19636404.000	9.593401e-001	2.455492e-001
19642398.000	9.593902e-001	2.454817e-001
19648392.000	9.594036e-001	2.453343e-001
19654386.000	9.594534e-001	2.452830e-001
19660380.000	9.594371e-001	2.451780e-001
19666374.000	9.594099e-001	2.450999e-001
19672368.000	9.594891e-001	2.449784e-001
19678362.000	9.595239e-001	2.449255e-001
19684356.000	9.595569e-001	2.448054e-001
19690350.000	9.595330e-001	2.446841e-001
19696344.000	9.595691e-001	2.446017e-001
19702338.000	9.595680e-001	2.445148e-001
19708332.000	9.595700e-001	2.443969e-001
19714326.000	9.595808e-001	2.442898e-001
19720320.000	9.596227e-001	2.442210e-001
19726314.000	9.596593e-001	2.440934e-001
19732308.000	9.596838e-001	2.440345e-001
19738302.000	9.596875e-001	2.439075e-001
19744296.000	9.597817e-001	2.438180e-001
19750290.000	9.597515e-001	2.437064e-001
19756284.000	9.597725e-001	2.436201e-001
19762278.000	9.597912e-001	2.435139e-001
19768272.000	9.598129e-001	2.434569e-001
19774266.000	9.598747e-001	2.433351e-001
19780260.000	9.598416e-001	2.432358e-001
19786254.000	9.598705e-001	2.431501e-001
19792248.000	9.599102e-001	2.430181e-001
19798242.000	9.599192e-001	2.429680e-001
19804236.000	9.599536e-001	2.428644e-001
19810230.000	9.599541e-001	2.427532e-001
19816224.000	9.599875e-001	2.426489e-001
19822218.000	9.599634e-001	2.425208e-001
19828212.000	9.599917e-001	2.424543e-001
19834206.000	9.600158e-001	2.423406e-001
19840200.000	9.600785e-001	2.422714e-001
19846194.000	9.600677e-001	2.422041e-001
19852188.000	9.601036e-001	2.421097e-001
19858182.000	9.600798e-001	2.419805e-001
19864176.000	9.601501e-001	2.419084e-001
19870170.000	9.601190e-001	2.417974e-001
19876164.000	9.602001e-001	2.417102e-001
19882158.000	9.601836e-001	2.416363e-001
19888152.000	9.602321e-001	2.414282e-001
19894146.000	9.602215e-001	2.414246e-001
19900140.000	9.602624e-001	2.413061e-001
19906134.000	9.602310e-001	2.412048e-001
19912128.000	9.602346e-001	2.411225e-001
19918122.000	9.603215e-001	2.409858e-001
19924116.000	9.603218e-001	2.409083e-001
19930110.000	9.602932e-001	2.408539e-001
19936104.000	9.603792e-001	2.407490e-001
19942098.000	9.603514e-001	2.406782e-001
19948092.000	9.604005e-001	2.405660e-001
19954086.000	9.604562e-001	2.404507e-001
19960080.000	9.604349e-001	2.404237e-001
19966074.000	9.604528e-001	2.402969e-001
19972068.000	9.604472e-001	2.401553e-001
19978062.000	9.604454e-001	2.400787e-001
19984056.000	9.604925e-001	2.399810e-001
19990050.000	9.605498e-001	2.398940e-001
19996044.000	9.605583e-001	2.397577e-001
20002038.000	9.606225e-001	2.396795e-001
20008032.000	9.606049e-001	2.395988e-001
20014026.000	9.606180e-001	2.395044e-001
20020020.000	9.606112e-001	2.393895e-001
20026014.000	9.606405e-001	2.393181e-001
20032008.000	9.606495e-001	2.392551e-001
20038002.000	9.606580e-001	2.391474e-001
20043996.000	9.607225e-001	2.390502e-001
20049990.000	9.607337e-001	2.389143e-001
20055984.000	9.606545e-001	2.388623e-001
20061978.000	9.607644e-001	2.387390e-001
20067972.000	9.607695e-001	2.386894e-001
20073966.000	9.608246e-001	2.385916e-001
20079960.000	9.607513e-001	2.384923e-001
20085954.000	9.607661e-001	2.383944e-001
20091948.000	9.608324e-001	2.382526e-001
20097942.000	9.608401e-001	2.382240e-001
20103936.000	9.608719e-001	2.380811e-001
20109930.000	9.608714e-001	2.380015e-001
20115924.000	9.609002e-001	2.379453e-001
20121918.000	9.609447e-001	2.378528e-001
20127912.000	9.609615e-001	2.377297e-001
20133906.000	9.610191e-001	2.376396e-001
20139900.000	9.610327e-001	2.375378e-001
20145894.000	9.610377e-001	2.374629e-001
20151888.000	9.610655e-001	2.373564e-001
20157882.000	9.610772e-001	2.372957e-001
20163876.000	9.611306e-001	2.371880e-001
20169870.000	9.610824e-001	2.370976e-001
20175864.000	9.611451e-001	2.369924e-001
20181858.000	9.611261e-001	2.368912e-001
20187852.000	9.611529e-001	2.368273e-001
20193846.000	9.611599e-001	2.366850e-001
20199840.000	9.611651e-001	2.365642e-001
20205834.000	9.611985e-001	2.364740e-001
20211828.000	9.612325e-001	2.364233e-001
20217822.000	9.612555e-001	2.363431e-001
20223816.000	9.612913e-001	2.362517e-001
20229810.000	9.612814e-001	2.361716e-001
20235804.000	9.613230e-001	2.360837e-001
20241798.000	9.613732e-001	2.359833e-001
20247792.000	9.613530e-001	2.359103e-001
20253786.000	9.613991e-001	2.357935e-001
20259780.000	9.614244e-001	2.357024e-001
20265774.000	9.614198e-001	2.356379e-001
20271768.000	9.614829e-001	2.355390e-001
20277762.000	9.614293e-001	2.354319e-001
20283756.000	9.614691e-001	2.353177e-001
20289750.000	9.614624e-001	2.352203e-001
20295744.000	9.615294e-001	2.351280e-001
20301738.000	9.615096e-001	2.350691e-001
20307732.000	9.615755e-001	2.349900e-001
20313726.000	9.616281e-001	2.348835e-001
20319720.000	9.615870e-001	2.347413e-001
20325714.000	9.615904e-001	2.346767e-001
20331708.000	9.616112e-001	2.346037e-001
20337702.000	9.616329e-001	2.344941e-001
20343696.000	9.616805e-001	2.344336e-001
20349690.000	9.616733e-001	2.343359e-001
20355684.000	9.616921e-001	2.341977e-001
20361678.000	9.617014e-001	2.341582e-001
20367672.000	9.617303e-001	2.340426e-001
20373666.000	9.617396e-001	2.339463e-001
20379660.000	9.617903e-001	2.338192e-001
20385654.000	9.617795e-001	2.337597e-001
20391648.000	9.617908e-001	2.336503e-001
20397642.000	9.618209e-001	2.335487e-001
20403636.000	9.618719e-001	2.334915e-001
20409630.000	9.618453e-001	2.333642e-001
20415624.000	9.618152e-001	2.332859e-001
20421618.000	9.618985e-001	2.332017e-001
20427612.000	9.619224e-001	2.331000e-001
20433606.000	9.618849e-001	2.330136e-001
20439600.000	9.619361e-001	2.329244e-001
20445594.000	9.619143e-001	2.328511e-001
20451588.000	9.619742e-001	2.327533e-001
20457582.000	9.619630e-001	2.326525e-001
20463576.000	9.619919e-001	2.325756e-001
20469570.000	9.620196e-001	2.325311e-001
20475564.000	9.620795e-001	2.323924e-001
20481558.000	9.620765e-001	2.322772e-001
20487552.000	9.620703e-001	2.322420e-001
20493546.000	9.620657e-001	2.321318e-001
20499540.000	9.621267e-001	2.320363e-001
20505534.000	9.621171e-001	2.319742e-001
20511528.000	9.621374e-001	2.318142e-001
20517522.000	9.621600e-001	2.317770e-001
20523516.000	9.622123e-001	2.316618e-001
20529510.000	9.622156e-001	2.315828e-001
20535504.000	9.622084e-001	2.314568e-001
20541498.000	9.622704e-001	2.313770e-001
20547492.000	9.622811e-001	2.312934e-001
20553486.000	9.622497e-001	2.311760e-001
20559480.000	9.622980e-001	2.310886e-001
20565474.000	9.623277e-001	2.310094e-001
20571468.000	9.623157e-001	2.309196e-001
20577462.000	9.623238e-001	2.308531e-001
20583456.000	9.622885e-001	2.307078e-001
20589450.000	9.623696e-001	2.307018e-001
20595444.000	9.623616e-001	2.305442e-001
20601438.000	9.623729e-001	2.304863e-001
20607432.000	9.623871e-001	2.303721e-001
20613426.000	9.623886e-001	2.302998e-001
20619420.000	9.624632e-001	2.301933e-001
20625414.000	9.624730e-001	2.301171e-001
20631408.000	9.625112e-001	2.300728e-001
20637402.000	9.625072e-001	2.299553e-001
20643396.000	9.625231e-001	2.298594e-001
20649390.000	9.625700e-001	2.297763e-001
20655384.000	9.625590e-001	2.296860e-001
20661378.000	9.625697e-001	2.295953e-001
20667372.000	9.626142e-001	2.294979e-001
20673366.000	9.626345e-001	2.293907e-001
20679360.000	9.625942e-001	2.292954e-001
20685354.000	9.626431e-001	2.292410e-001
20691348.000	9.627062e-001	2.291756e-001
20697342.000	9.626852e-001	2.290554e-001
20703336.000	9.627082e-001	2.289742e-001
20709330.000	9.627462e-001	2.288748e-001
20715324.000	9.627875e-001	2.287832e-001
20721318.000	9.627383e-001	2.286922e-001
20727312.000	9.628290e-001	2.286288e-001
20733306.000	9.628080e-001	2.285138e-001
20739300.000	9.628599e-001	2.284091e-001
20745294.000	9.628212e-001	2.283172e-001
20751288.000	9.628284e-001	2.282708e-001
20757282.000	9.628904e-001	2.282259e-001
20763276.000	9.629233e-001	2.280973e-001
20769270.000	9.629111e-001	2.280233e-001
20775264.000	9.628897e-001	2.279574e-001
20781258.000	9.629596e-001	2.277914e-001
20787252.000	9.629290e-001	2.277436e-001
20793246.000	9.629478e-001	2.276548e-001
20799240.000	9.629822e-001	2.275856e-001
20805234.000	9.630242e-001	2.274470e-001
20811228.000	9.629770e-001	2.273908e-001
20817222.000	9.630126e-001	2.272596e-001
20823216.000	9.630201e-001	2.271963e-001
20829210.000	9.630331e-001	2.270553e-001
20835204.000	9.630568e-001	2.269902e-001
20841198.000	9.630637e-001	2.269138e-001
20847192.000	9.630541e-001	2.268375e-001
20853186.000	9.631381e-001	2.267582e-001
20859180.000	9.631680e-001	2.266443e-001
20865174.000	9.631287e-001	2.265795e-001
20871168.000	9.631137e-001	2.264742e-001
20877162.000	9.631953e-001	2.263974e-001
20883156.000	9.632123e-001	2.262976e-001
20889150.000	9.631801e-001	2.262283e-001
20895144.000	9.632113e-001	2.261428e-001
20901138.000	9.632748e-001	2.260723e-001
20907132.000	9.632813e-001	2.259608e-001
20913126.000	9.632630e-001	2.258821e-001
20919120.000	9.633264e-001	2.257933e-001
20925114.000	9.633517e-001	2.257188e-001
20931108.000	9.633628e-001	2.256108e-001
20937102.000	9.633646e-001	2.255479e-001
20943096.000	9.633369e-001	2.254180e-001
20949090.000	9.633487e-001	2.253424e-001
20955084.000	9.633972e-001	2.252226e-001
20961078.000	9.633721e-001	2.251533e-001
20967072.000	9.633778e-001	2.251095e-001
20973066.000	9.634819e-001	2.250171e-001
20979060.000	9.634464e-001	2.249120e-001
20985054.000	9.635118e-001	2.248363e-001
20991048.000	9.635274e-001	2.247448e-001
20997042.000	9.634853e-001	2.246723e-001
21003036.000	9.635540e-001	2.245503e-001
21009030.000	9.635552e-001	2.244686e-001
21015024.000	9.635311e-001	2.244129e-001
21021018.000	9.636085e-001	2.242967e-001
21027012.000	9.636290e-001	2.242329e-001
21033006.000	9.636136e-001	2.241220e-001
21039000.000	9.635863e-001	2.240043e-001
21044994.000	9.636074e-001	2.239520e-001
21050988.000	9.636362e-001	2.238719e-001
21056982.000	9.636907e-001	2.238070e-001
21062976.000	9.636968e-001	2.237113e-001
21068970.000	9.636987e-001	2.235873e-001
21074964.000	9.636871e-001	2.235234e-001
21080958.000	9.637673e-001	2.234436e-001
21086952.000	9.637316e-001	2.232997e-001
21092946.000	9.637583e-001	2.232639e-001
21098940.000	9.637602e-001	2.231762e-001
21104934.000	9.638281e-001	2.230704e-001
21110928.000	9.638326e-001	2.230076e-001
21116922.000	9.638189e-001	2.228944e-001
21122916.000	9.638167e-001	2.228127e-001
21128910.000	9.638640e-001	2.227260e-001
21134904.000	9.638681e-001	2.227034e-001
21140898.000	9.638235e-001	2.225618e-001
21146892.000	9.638742e-001	2.224901e-001
21152886.000	9.639510e-001	2.224058e-001
21158880.000	9.639507e-001	2.223133e-001
21164874.000	9.639312e-001	2.222094e-001
21170868.000	9.639575e-001	2.221267e-001
21176862.000	9.639813e-001	2.220264e-001
21182856.000	9.639968e-001	2.219696e-001
21188850.000	9.640141e-001	2.219004e-001
21194844.000	9.640597e-001	2.218391e-001
21200838.000	9.640343e-001	2.217248e-001
21206832.000	9.641367e-001	2.216567e-001
21212826.000	9.641292e-001	2.215377e-001
21218820.000	9.641139e-001	2.214809e-001
21224814.000	9.640777e-001	2.213888e-001
21230808.000	9.641801e-001	2.212545e-001
21236802.000	9.641531e-001	2.212091e-001
21242796.000	9.641788e-001	2.211719e-001
21248790.000	9.642265e-001	2.210483e-001
21254784.000	9.642118e-001	2.209477e-001
21260778.000	9.642842e-001	2.208772e-001
21266772.000	9.642493e-001	2.207657e-001
21272766.000	9.642621e-001	2.207178e-001
21278760.000	9.642970e-001	2.206209e-001
21284754.000	9.642803e-001	2.204821e-001
21290748.000	9.642744e-001	2.204363e-001
21296742.000	9.643582e-001	2.203591e-001
21302736.000	9.643340e-001	2.202841e-001
21308730.000	9.643732e-001	2.202126e-001
21314724.000	9.643451e-001	2.200727e-001
21320718.000	9.643398e-001	2.200291e-001
21326712.000	9.644049e-001	2.199209e-001
21332706.000	9.643883e-001	2.198489e-001
21338700.000	9.644141e-001	2.197644e-001
21344694.000	9.644493e-001	2.196410e-001
21350688.000	9.644627e-001	2.196067e-001
21356682.000	9.644761e-001	2.195068e-001
21362676.000	9.645252e-001	2.194241e-001
21368670.000	9.644764e-001	2.193852e-001
21374664.000	9.644944e-001	2.192460e-001
21380658.000	9.645295e-001	2.191853e-001
21386652.000	9.645417e-001	2.190775e-001
21392646.000	9.646326e-001	2.190295e-001
21398640.000	9.645602e-001	2.189284e-001
21404634.000	9.645723e-001	2.188423e-001
21410628.000	9.646438e-001	2.187577e-001
21416622.000	9.646389e-001	2.187103e-001
21422616.000	9.645961e-001	2.185681e-001
21428610.000	9.646512e-001	2.185112e-001
21434604.000	9.646196e-001	2.184023e-001
21440598.000	9.646525e-001	2.183465e-001
21446592.000	9.647019e-001	2.182375e-001
21452586.000	9.646736e-001	2.181518e-001
21458580.000	9.647257e-001	2.180594e-001
21464574.000	9.646920e-001	2.180070e-001
21470568.000	9.647571e-001	2.179087e-001
21476562.000	9.647448e-001	2.178511e-001
21482556.000	9.647691e-001	2.177554e-001
21488550.000	9.648008e-001	2.176271e-001
21494544.000	9.647817e-001	2.175335e-001
21500538.000	9.648362e-001	2.174845e-001
21506532.000	9.648162e-001	2.173697e-001
21512526.000	9.648284e-001	2.173128e-001
21518520.000	9.648603e-001	2.172266e-001
21524514.000	9.648582e-001	2.171770e-001
21530508.000	9.648604e-001	2.170738e-001
21536502.000	9.648553e-001	2.170163e-001
21542496.000	9.649150e-001	2.169479e-001
21548490.000	9.649423e-001	2.168334e-001
21554484.000	9.649414e-001	2.167617e-001
21560478.000	9.649645e-001	2.166472e-001
21566472.000	9.650115e-001	2.166069e-001
21572466.000	9.649690e-001	2.165136e-001
21578460.000	9.649909e-001	2.164358e-001
21584454.000	9.650402e-001	2.163642e-001
21590448.000	9.650259e-001	2.162343e-001
21596442.000	9.650549e-001	2.161734e-001
21602436.000	9.650555e-001	2.161007e-001
21608430.000	9.650798e-001	2.159913e-001
21614424.000	9.651008e-001	2.159213e-001
21620418.000	9.650913e-001	2.158315e-001
21626412.000	9.651092e-001	2.157642e-001
21632406.000	9.651217e-001	2.156634e-001
21638400.000	9.651780e-001	2.155473e-001
21644394.000	9.651549e-001	2.154649e-001
21650388.000	9.652122e-001	2.154284e-001
21656382.000	9.652012e-001	2.153374e-001
21662376.000	9.651830e-001	2.152445e-001
21668370.000	9.652838e-001	2.151902e-001
21674364.000	9.652467e-001	2.150862e-001
21680358.000	9.652262e-001	2.149932e-001
21686352.000	9.652700e-001	2.149216e-001
21692346.000	9.652353e-001	2.148400e-001
21698340.000	9.653246e-001	2.147526e-001
21704334.000	9.653247e-001	2.146350e-001
21710328.000	9.653282e-001	2.145610e-001
21716322.000	9.652898e-001	2.144957e-001
21722316.000	9.653250e-001	2.144289e-001
21728310.000	9.653167e-001	2.143356e-001
21734304.000	9.653215e-001	2.142414e-001
21740298.000	9.653676e-001	2.141859e-001
21746292.000	9.654253e-001	2.141136e-001
21752286.000	9.654268e-001	2.140131e-001
21758280.000	9.654443e-001	2.139147e-001
21764274.000	9.654544e-001	2.138490e-001
21770268.000	9.654014e-001	2.137495e-001
21776262.000	9.654461e-001	2.136656e-001
21782256.000	9.654884e-001	2.136408e-001
21788250.000	9.655037e-001	2.135106e-001
21794244.000	9.655100e-001	2.134379e-001
21800238.000	9.654844e-001	2.133307e-001
21806232.000	9.655343e-001	2.132767e-001
21812226.000	9.656022e-001	2.132011e-001
21818220.000	9.655630e-001	2.131017e-001
21824214.000	9.655334e-001	2.130285e-001
21830208.000	9.655665e-001	2.129184e-001
21836202.000	9.656179e-001	2.129038e-001
21842196.000	9.656626e-001	2.127967e-001
21848190.000	9.656313e-001	2.126997e-001
21854184.000	9.656191e-001	2.126024e-001
21860178.000	9.656750e-001	2.125391e-001
21866172.000	9.656854e-001	2.124482e-001
21872166.000	9.656745e-001	2.123925e-001
21878160.000	9.657006e-001	2.123037e-001
21884154.000	9.656814e-001	2.122287e-001
21890148.000	9.657398e-001	2.121379e-001
21896142.000	9.657252e-001	2.120514e-001
21902136.000	9.657501e-001	2.119653e-001
21908130.000	9.657589e-001	2.118820e-001
21914124.000	9.657838e-001	2.118260e-001
21920118.000	9.658176e-001	2.117598e-001
21926112.000	9.658133e-001	2.116720e-001
21932106.000	9.658553e-001	2.115750e-001
21938100.000	9.658705e-001	2.115129e-001
21944094.000	9.658435e-001	2.114258e-001
21950088.000	9.659498e-001	2.113336e-001
21956082.000	9.659491e-001	2.112953e-001
21962076.000	9.659253e-001	2.112054e-001
21968070.000	9.659385e-001	2.110799e-001
21974064.000	9.659515e-001	2.110210e-001
21980058.000	9.659187e-001	2.109331e-001
21986052.000	9.660414e-001	2.108736e-001
21992046.000	9.660385e-001	2.108142e-001
21998040.000	9.660163e-001	2.107172e-001
22004034.000	9.660051e-001	2.106608e-001
22010028.000	9.660345e-001	2.105887e-001
22016022.000	9.660812e-001	2.104956e-001
22022016.000	9.660540e-001	2.103797e-001
22028010.000	9.660626e-001	2.103458e-001
22034004.000	9.661199e-001	2.102466e-001
22039998.000	9.661267e-001	2.101555e-001
22045992.000	9.661333e-001	2.100778e-001
22051986.000	9.661594e-001	2.099897e-001
22057980.000	9.661637e-001	2.098895e-001
22063974.000	9.661935e-001	2.098288e-001
22069968.000	9.661319e-001	2.097022e-001
22075962.000	9.662004e-001	2.096492e-001
22081956.000	9.661898e-001	2.096029e-001
22087950.000	9.662518e-001	2.095009e-001
22093944.000	9.662031e-001	2.094335e-001
22099938.000	9.662496e-001	2.093834e-001
22105932.000	9.662894e-001	2.092690e-001
22111926.000	9.663030e-001	2.092035e-001
22117920.000	9.662860e-001	2.091573e-001
22123914.000	9.663073e-001	2.090463e-001
22129908.000	9.663365e-001	2.089443e-001
22135902.000	9.663108e-001	2.089396e-001
22141896.000	9.663578e-001	2.088053e-001
22147890.000	9.663300e-001	2.087147e-001
22153884.000	9.663379e-001	2.087111e-001
22159878.000	9.663990e-001	2.086098e-001
22165872.000	9.664005e-001	2.085050e-001
22171866.000	9.663965e-001	2.084463e-001
22177860.000	9.663857e-001	2.083778e-001
22183854.000	9.663875e-001	2.083174e-001
22189848.000	9.664960e-001	2.081730e-001
22195842.000	9.664386e-001	2.080948e-001
22201836.000	9.664569e-001	2.080053e-001
22207830.000	9.664480e-001	2.079619e-001
22213824.000	9.664914e-001	2.078475e-001
22219818.000	9.665012e-001	2.077650e-001
22225812.000	9.664733e-001	2.076814e-001
22231806.000	9.665025e-001	2.076565e-001
22237800.000	9.665772e-001	2.075291e-001
22243794.000	9.665562e-001	2.074735e-001
22249788.000	9.665553e-001	2.073757e-001
22255782.000	9.665531e-001	2.073025e-001
22261776.000	9.666254e-001	2.072252e-001
22267770.000	9.665645e-001	2.071644e-001
22273764.000	9.666386e-001	2.071017e-001
22279758.000	9.666468e-001	2.070383e-001
22285752.000	9.666402e-001	2.069316e-001
22291746.000	9.666367e-001	2.068955e-001
22297740.000	9.666738e-001	2.067790e-001
22303734.000	9.666776e-001	2.066768e-001
22309728.000	9.666676e-001	2.066169e-001
22315722.000	9.666725e-001	2.065181e-001
22321716.000	9.667446e-001	2.064803e-001
22327710.000	9.667209e-001	2.064059e-001
22333704.000	9.667679e-001	2.063165e-001
22339698.000	9.667993e-001	2.062088e-001
22345692.000	9.668001e-001	2.061863e-001
22351686.000	9.667508e-001	2.060997e-001
22357680.000	9.668152e-001	2.060338e-001
22363674.000	9.668068e-001	2.059339e-001
22369668.000	9.668739e-001	2.058258e-001
22375662.000	9.668519e-001	2.057367e-001
22381656.000	9.669279e-001	2.057117e-001
22387650.000	9.668129e-001	2.056429e-001
22393644.000	9.668637e-001	2.055242e-001
22399638.000	9.668617e-001	2.054461e-001
22405632.000	9.668725e-001	2.053638e-001
22411626.000	9.668686e-001	2.052890e-001
22417620.000	9.668875e-001	2.052245e-001
22423614.000	9.668945e-001	2.051225e-001
22429608.000	9.669404e-001	2.051118e-001
22435602.000	9.669566e-001	2.049833e-001
22441596.000	9.669667e-001	2.048974e-001
22447590.000	9.669934e-001	2.048085e-001
22453584.000	9.669835e-001	2.047379e-001
22459578.000	9.670209e-001	2.047138e-001
22465572.000	9.670365e-001	2.046145e-001
22471566.000	9.670747e-001	2.045399e-001
22477560.000	9.670524e-001	2.044466e-001
22483554.000	9.670660e-001	2.043541e-001
22489548.000	9.671145e-001	2.042792e-001
22495542.000	9.670894e-001	2.042388e-001
22501536.000	9.670380e-001	2.040848e-001
22507530.000	9.671321e-001	2.039883e-001
22513524.000	9.671609e-001	2.039552e-001
22519518.000	9.672074e-001	2.039005e-001
22525512.000	9.672157e-001	2.038254e-001
22531506.000	9.671680e-001	2.037199e-001
22537500.000	9.671591e-001	2.036766e-001
22543494.000	9.671996e-001	2.035913e-001
22549488.000	9.672579e-001	2.034981e-001
22555482.000	9.672393e-001	2.034346e-001
22561476.000	9.672211e-001	2.033272e-001
22567470.000	9.672932e-001	2.033198e-001
22573464.000	9.673386e-001	2.032344e-001
22579458.000	9.672986e-001	2.031441e-001
22585452.000	9.672975e-001	2.030505e-001
22591446.000	9.672931e-001	2.029687e-001
22597440.000	9.673712e-001	2.029007e-001
22603434.000	9.673571e-001	2.028364e-001
22609428.000	9.673552e-001	2.027295e-001
22615422.000	9.674180e-001	2.026848e-001
22621416.000	9.674038e-001	2.025937e-001
22627410.000	9.673822e-001	2.024796e-001
22633404.000	9.673917e-001	2.024130e-001
22639398.000	9.674065e-001	2.023716e-001
22645392.000	9.674762e-001	2.022688e-001
22651386.000	9.674947e-001	2.021919e-001
22657380.000	9.674800e-001	2.021418e-001
22663374.000	9.674723e-001	2.020553e-001
22669368.000	9.674717e-001	2.019855e-001
22675362.000	9.675205e-001	2.019228e-001
22681356.000	9.675536e-001	2.018279e-001
22687350.000	9.675534e-001	2.017169e-001
22693344.000	9.675619e-001	2.016338e-001
22699338.000	9.675583e-001	2.015655e-001
22705332.000	9.675789e-001	2.015301e-001
22711326.000	9.675570e-001	2.014593e-001
22717320.000	9.675931e-001	2.013907e-001
22723314.000	9.676002e-001	2.012831e-001
22729308.000	9.676175e-001	2.012180e-001
22735302.000	9.675988e-001	2.011279e-001
22741296.000	9.676660e-001	2.010904e-001
22747290.000	9.676378e-001	2.009998e-001
22753284.000	9.676282e-001	2.009389e-001
22759278.000	9.676498e-001	2.008168e-001
22765272.000	9.676319e-001	2.007611e-001
22771266.000	9.676720e-001	2.007060e-001
22777260.000	9.676689e-001	2.006014e-001
22783254.000	9.677100e-001	2.005116e-001
22789248.000	9.677973e-001	2.004450e-001
22795242.000	9.677710e-001	2.004265e-001
22801236.000	9.677764e-001	2.003276e-001
22807230.000	9.677847e-001	2.002514e-001
22813224.000	9.677727e-001	2.001604e-001
22819218.000	9.677856e-001	2.001227e-001
22825212.000	9.678490e-001	2.000167e-001
22831206.000	9.677958e-001	1.999321e-001
22837200.000	9.678368e-001	1.998789e-001
22843194.000	9.678671e-001	1.998255e-001
22849188.000	9.678332e-001	1.997066e-001
22855182.000	9.679128e-001	1.996728e-001
22861176.000	9.679434e-001	1.995890e-001
22867170.000	9.679756e-001	1.995169e-001
22873164.000	9.679799e-001	1.994612e-001
22879158.000	9.679924e-001	1.993737e-001
22885152.000	9.679573e-001	1.993135e-001
22891146.000	9.679716e-001	1.992452e-001
22897140.000	9.679948e-001	1.991285e-001
22903134.000	9.679914e-001	1.990760e-001
22909128.000	9.679913e-001	1.990054e-001
22915122.000	9.679612e-001	1.989346e-001
22921116.000	9.680315e-001	1.988410e-001
22927110.000	9.680218e-001	1.987579e-001
22933104.000	9.680253e-001	1.986461e-001
22939098.000	9.679577e-001	1.986106e-001
22945092.000	9.680974e-001	1.985476e-001
22951086.000	9.680810e-001	1.984423e-001
22957080.000	9.680725e-001	1.983896e-001
22963074.000	9.680533e-001	1.983000e-001
22969068.000	9.680823e-001	1.982244e-001
22975062.000	9.681072e-001	1.981273e-001
22981056.000	9.681124e-001	1.980808e-001
22987050.000	9.681597e-001	1.979876e-001
22993044.000	9.681745e-001	1.979048e-001
22999038.000	9.681491e-001	1.978426e-001
23005032.000	9.683245e-001	1.979180e-001
23011026.000	9.682609e-001	1.977522e-001
23017020.000	9.682285e-001	1.977094e-001
23023014.000	9.681819e-001	1.975491e-001
23029008.000	9.682270e-001	1.975030e-001
23035002.000	9.682546e-001	1.974416e-001
23040996.000	9.682636e-001	1.973556e-001
23046990.000	9.682820e-001	1.972622e-001
23052984.000	9.682894e-001	1.972346e-001
23058978.000	9.683430e-001	1.971144e-001
23064972.000	9.682972e-001	1.970631e-001
23070966.000	9.682679e-001	1.969618e-001
23076960.000	9.683251e-001	1.968943e-001
23082954.000	9.683094e-001	1.968469e-001
23088948.000	9.683715e-001	1.967871e-001
23094942.000	9.683620e-001	1.966721e-001
23100936.000	9.684018e-001	1.965925e-001
23106930.000	9.683807e-001	1.965471e-001
23112924.000	9.683864e-001	1.964772e-001
23118918.000	9.684106e-001	1.964127e-001
23124912.000	9.683987e-001	1.963366e-001
23130906.000	9.684199e-001	1.962485e-001
23136900.000	9.684505e-001	1.961632e-001
23142894.000	9.684653e-001	1.960954e-001
23148888.000	9.684817e-001	1.960099e-001
23154882.000	9.684043e-001	1.959441e-001
23160876.000	9.685017e-001	1.958751e-001
23166870.000	9.685370e-001	1.957582e-001
23172864.000	9.684883e-001	1.956948e-001
23178858.000	9.685580e-001	1.956655e-001
23184852.000	9.684876e-001	1.955657e-001
23190846.000	9.685814e-001	1.955137e-001
23196840.000	9.685323e-001	1.954388e-001
23202834.000	9.685639e-001	1.953510e-001
23208828.000	9.686044e-001	1.953311e-001
23214822.000	9.686208e-001	1.952306e-001
23220816.000	9.686278e-001	1.951367e-001
23226810.000	9.685707e-001	1.950680e-001
23232804.000	9.685991e-001	1.950334e-001
23238798.000	9.686103e-001	1.949326e-001
23244792.000	9.686529e-001	1.948633e-001
23250786.000	9.686483e-001	1.947662e-001
23256780.000	9.686395e-001	1.947011e-001
23262774.000	9.687224e-001	1.946391e-001
23268768.000	9.686856e-001	1.945666e-001
23274762.000	9.687027e-001	1.944711e-001
23280756.000	9.686844e-001	1.944234e-001
23286750.000	9.687552e-001	1.943638e-001
23292744.000	9.687971e-001	1.942486e-001
23298738.000	9.688084e-001	1.942147e-001
23304732.000	9.687698e-001	1.941305e-001
23310726.000	9.687676e-001	1.940851e-001
23316720.000	9.688137e-001	1.939911e-001
23322714.000	9.688139e-001	1.938954e-001
23328708.000	9.688109e-001	1.938582e-001
23334702.000	9.688860e-001	1.937596e-001
23340696.000	9.688003e-001	1.936941e-001
23346690.000	9.688541e-001	1.936643e-001
23352684.000	9.688109e-001	1.935453e-001
23358678.000	9.688614e-001	1.934834e-001
23364672.000	9.688575e-001	1.934160e-001
23370666.000	9.689011e-001	1.932636e-001
23376660.000	9.689094e-001	1.932752e-001
23382654.000	9.688837e-001	1.932062e-001
23388648.000	9.689194e-001	1.931119e-001
23394642.000	9.689430e-001	1.930501e-001
23400636.000	9.689251e-001	1.929540e-001
23406630.000	9.689693e-001	1.929092e-001
23412624.000	9.689923e-001	1.928375e-001
23418618.000	9.689826e-001	1.927603e-001
23424612.000	9.690258e-001	1.926784e-001
23430606.000	9.690174e-001	1.926134e-001
23436600.000	9.690116e-001	1.925453e-001
23442594.000	9.690343e-001	1.924730e-001
23448588.000	9.690317e-001	1.923995e-001
23454582.000	9.690411e-001	1.923395e-001
23460576.000	9.690530e-001	1.922382e-001
23466570.000	9.690734e-001	1.922036e-001
23472564.000	9.690302e-001	1.920922e-001
23478558.000	9.690797e-001	1.920293e-001
23484552.000	9.691227e-001	1.919640e-001
23490546.000	9.691174e-001	1.919554e-001
23496540.000	9.691195e-001	1.918514e-001
23502534.000	9.691209e-001	1.917687e-001
23508528.000	9.691440e-001	1.916403e-001
23514522.000	9.691677e-001	1.915972e-001
23520516.000	9.691464e-001	1.915372e-001
23526510.000	9.691860e-001	1.914899e-001
23532504.000	9.691869e-001	1.913819e-001
23538498.000	9.692061e-001	1.913318e-001
23544492.000	9.691984e-001	1.912484e-001
23550486.000	9.692483e-001	1.911716e-001
23556480.000	9.692801e-001	1.911025e-001
23562474.000	9.692949e-001	1.910453e-001
23568468.000	9.693000e-001	1.908913e-001
23574462.000	9.692536e-001	1.909026e-001
23580456.000	9.693298e-001	1.907992e-001
23586450.000	9.692980e-001	1.907534e-001
23592444.000	9.693313e-001	1.907334e-001
23598438.000	9.693442e-001	1.906223e-001
23604432.000	9.694110e-001	1.906012e-001
23610426.000	9.693584e-001	1.904957e-001
23616420.000	9.693437e-001	1.904170e-001
23622414.000	9.693268e-001	1.903219e-001
23628408.000	9.693630e-001	1.902508e-001
23634402.000	9.693657e-001	1.901881e-001
23640396.000	9.694252e-001	1.901598e-001
23646390.000	9.694005e-001	1.900253e-001
23652384.000	9.693870e-001	1.899838e-001
23658378.000	9.694081e-001	1.899163e-001
23664372.000	9.694051e-001	1.898486e-001
23670366.000	9.694683e-001	1.897581e-001
23676360.000	9.694672e-001	1.897264e-001
23682354.000	9.695129e-001	1.896572e-001
23688348.000	9.695097e-001	1.895502e-001
23694342.000	9.694852e-001	1.894710e-001
23700336.000	9.695273e-001	1.894091e-001
23706330.000	9.695404e-001	1.893755e-001
23712324.000	9.695291e-001	1.892983e-001
23718318.000	9.695758e-001	1.892103e-001
23724312.000	9.695644e-001	1.891314e-001
23730306.000	9.695377e-001	1.890424e-001
23736300.000	9.695764e-001	1.889910e-001
23742294.000	9.695938e-001	1.889295e-001
23748288.000	9.695694e-001	1.888652e-001
23754282.000	9.696176e-001	1.887824e-001
23760276.000	9.696362e-001	1.886767e-001
23766270.000	9.696386e-001	1.886297e-001
23772264.000	9.696703e-001	1.885706e-001
23778258.000	9.696465e-001	1.884977e-001
23784252.000	9.696351e-001	1.884708e-001
23790246.000	9.696616e-001	1.882990e-001
23796240.000	9.697346e-001	1.882829e-001
23802234.000	9.697025e-001	1.882369e-001
23808228.000	9.697852e-001	1.882041e-001
23814222.000	9.697685e-001	1.881242e-001
23820216.000	9.697306e-001	1.879955e-001
23826210.000	9.696942e-001	1.879334e-001
23832204.000	9.696535e-001	1.878673e-001
23838198.000	9.696976e-001	1.878172e-001
23844192.000	9.697643e-001	1.877061e-001
23850186.000	9.697822e-001	1.877029e-001
23856180.000	9.697661e-001	1.876025e-001
23862174.000	9.697895e-001	1.875165e-001
23868168.000	9.697605e-001	1.874509e-001
23874162.000	9.698359e-001	1.873486e-001
23880156.000	9.698161e-001	1.872711e-001
23886150.000	9.698300e-001	1.872362e-001
23892144.000	9.698100e-001	1.871965e-001
23898138.000	9.697839e-001	1.870834e-001
23904132.000	9.697965e-001	1.870158e-001
23910126.000	9.699073e-001	1.869564e-001
23916120.000	9.698682e-001	1.869308e-001
23922114.000	9.699078e-001	1.868522e-001
23928108.000	9.698694e-001	1.867682e-001
23934102.000	9.698878e-001	1.867063e-001
23940096.000	9.698909e-001	1.866406e-001
23946090.000	9.699289e-001	1.865447e-001
23952084.000	9.699440e-001	1.864963e-001
23958078.000	9.699186e-001	1.863966e-001
23964072.000	9.699774e-001	1.863556e-001
23970066.000	9.699703e-001	1.862318e-001
23976060.000	9.699613e-001	1.861958e-001
23982054.000	9.699844e-001	1.861592e-001
23988048.000	9.699882e-001	1.860794e-001
23994042.000	9.699807e-001	1.859929e-001
24000036.000	9.700160e-001	1.859108e-001
24006030.000	9.700090e-001	1.858074e-001
24012024.000	9.700897e-001	1.858077e-001
24018018.000	9.700481e-001	1.857480e-001
24024012.000	9.700858e-001	1.856718e-001
24030006.000	9.700999e-001	1.855945e-001
24036000.000	9.700863e-001	1.855311e-001
24041994.000	9.700717e-001	1.854845e-001
24047988.000	9.700256e-001	1.853542e-001
24053982.000	9.701046e-001	1.852653e-001
24059976.000	9.701204e-001	1.852546e-001
24065970.000	9.701136e-001	1.851260e-001
24071964.000	9.701482e-001	1.850746e-001
24077958.000	9.701250e-001	1.850372e-001
24083952.000	9.701897e-001	1.849901e-001
24089946.000	9.701717e-001	1.848528e-001
24095940.000	9.701466e-001	1.847673e-001
24101934.000	9.701728e-001	1.847387e-001
24107928.000	9.702195e-001	1.846835e-001
24113922.000	9.702148e-001	1.846282e-001
24119916.000	9.702400e-001	1.845471e-001
24125910.000	9.701886e-001	1.844688e-001
24131904.000	9.701920e-001	1.844124e-001
24137898.000	9.702180e-001	1.843151e-001
24143892.000	9.702650e-001	1.842768e-001
24149886.000	9.702804e-001	1.841889e-001
24155880.000	9.703015e-001	1.841423e-001
24161874.000	9.702557e-001	1.840319e-001
24167868.000	9.703373e-001	1.840273e-001
24173862.000	9.703170e-001	1.838925e-001
24179856.000	9.703263e-001	1.838465e-001
24185850.000	9.703288e-001	1.838268e-001
24191844.000	9.703312e-001	1.837041e-001
24197838.000	9.703500e-001	1.836663e-001
24203832.000	9.703582e-001	1.835650e-001
24209826.000	9.703526e-001	1.835568e-001
24215820.000	9.703877e-001	1.834403e-001
24221814.000	9.704173e-001	1.833870e-001
24227808.000	9.704011e-001	1.833143e-001
24233802.000	9.704235e-001	1.832362e-001
24239796.000	9.703865e-001	1.831727e-001
24245790.000	9.704289e-001	1.831171e-001
24251784.000	9.704127e-001	1.830514e-001
24257778.000	9.703966e-001	1.829504e-001
24263772.000	9.704523e-001	1.829147e-001
24269766.000	9.704896e-001	1.828355e-001
24275760.000	9.704523e-001	1.828070e-001
24281754.000	9.705011e-001	1.826975e-001
24287748.000	9.704918e-001	1.826868e-001
24293742.000	9.705534e-001	1.825736e-001
24299736.000	9.705199e-001	1.825074e-001
24305730.000	9.705490e-001	1.824619e-001
24311724.000	9.705325e-001	1.823619e-001
24317718.000	9.705612e-001	1.823317e-001
24323712.000	9.705340e-001	1.822472e-001
24329706.000	9.705674e-001	1.821616e-001
24335700.000	9.705732e-001	1.820936e-001
24341694.000	9.706102e-001	1.820552e-001
24347688.000	9.705903e-001	1.819825e-001
24353682.000	9.705736e-001	1.819311e-001
24359676.000	9.706357e-001	1.818412e-001
24365670.000	9.706511e-001	1.817830e-001
24371664.000	9.706203e-001	1.817218e-001
24377658.000	9.706571e-001	1.816278e-001
24383652.000	9.706643e-001	1.815882e-001
24389646.000	9.706996e-001	1.814816e-001
24395640.000	9.706559e-001	1.814424e-001
24401634.000	9.706732e-001	1.813672e-001
24407628.000	9.707069e-001	1.813063e-001
24413622.000	9.706885e-001	1.812410e-001
24419616.000	9.707541e-001	1.811422e-001
24425610.000	9.707219e-001	1.811248e-001
24431604.000	9.707208e-001	1.810619e-001
24437598.000	9.707376e-001	1.809752e-001
24443592.000	9.707730e-001	1.808944e-001
24449586.000	9.707223e-001	1.808159e-001
24455580.000	9.707785e-001	1.807473e-001
24461574.000	9.707687e-001	1.807137e-001
24467568.000	9.708106e-001	1.806196e-001
24473562.000	9.707980e-001	1.805555e-001
24479556.000	9.708191e-001	1.805079e-001
24485550.000	9.708104e-001	1.804148e-001
24491544.000	9.708350e-001	1.803790e-001
24497538.000	9.707934e-001	1.802971e-001
24503532.000	9.708396e-001	1.802291e-001
24509526.000	9.708841e-001	1.801569e-001
24515520.000	9.708827e-001	1.800982e-001
24521514.000	9.709044e-001	1.800210e-001
24527508.000	9.709118e-001	1.799662e-001
24533502.000	9.708732e-001	1.798996e-001
24539496.000	9.709297e-001	1.798310e-001
24545490.000	9.709055e-001	1.796992e-001
24551484.000	9.708938e-001	1.797170e-001
24557478.000	9.709224e-001	1.796510e-001
24563472.000	9.709753e-001	1.795769e-001
24569466.000	9.709627e-001	1.795126e-001
24575460.000	9.709757e-001	1.794345e-001
24581454.000	9.710069e-001	1.794042e-001
24587448.000	9.710376e-001	1.793228e-001
24593442.000	9.710331e-001	1.792749e-001
24599436.000	9.710409e-001	1.791704e-001
24605430.000	9.710277e-001	1.791448e-001
24611424.000	9.710809e-001	1.790391e-001
24617418.000	9.710601e-001	1.789825e-001
24623412.000	9.710579e-001	1.789356e-001
24629406.000	9.710139e-001	1.788213e-001
24635400.000	9.710826e-001	1.788174e-001
24641394.000	9.711391e-001	1.787291e-001
24647388.000	9.710634e-001	1.786362e-001
24653382.000	9.711269e-001	1.785638e-001
24659376.000	9.711072e-001	1.785672e-001
24665370.000	9.710999e-001	1.784738e-001
24671364.000	9.710709e-001	1.783883e-001
24677358.000	9.711384e-001	1.783057e-001
24683352.000	9.710919e-001	1.782381e-001
24689346.000	9.711208e-001	1.781705e-001
24695340.000	9.711406e-001	1.781455e-001
24701334.000	9.712060e-001	1.780270e-001
24707328.000	9.711717e-001	1.780072e-001
24713322.000	9.712318e-001	1.779305e-001
24719316.000	9.712334e-001	1.778885e-001
24725310.000	9.712560e-001	1.778219e-001
24731304.000	9.712350e-001	1.776951e-001
24737298.000	9.712748e-001	1.776627e-001
24743292.000	9.712340e-001	1.776220e-001
24749286.000	9.712927e-001	1.774851e-001
24755280.000	9.712976e-001	1.774813e-001
24761274.000	9.712622e-001	1.774300e-001
24767268.000	9.713204e-001	1.773201e-001
24773262.000	9.712865e-001	1.772688e-001
24779256.000	9.713271e-001	1.771909e-001
24785250.000	9.713639e-001	1.771778e-001
24791244.000	9.713197e-001	1.770841e-001
24797238.000	9.713842e-001	1.770122e-001
24803232.000	9.713611e-001	1.769499e-001
24809226.000	9.713786e-001	1.768820e-001
24815220.000	9.713926e-001	1.768225e-001
24821214.000	9.713804e-001	1.767778e-001
24827208.000	9.713426e-001	1.766616e-001
24833202.000	9.714117e-001	1.766226e-001
24839196.000	9.713919e-001	1.765418e-001
24845190.000	9.713706e-001	1.764615e-001
24851184.000	9.714044e-001	1.764713e-001
24857178.000	9.713947e-001	1.763764e-001
24863172.000	9.714539e-001	1.763222e-001
24869166.000	9.714439e-001	1.762118e-001
24875160.000	9.714869e-001	1.761350e-001
24881154.000	9.714968e-001	1.761033e-001
24887148.000	9.714617e-001	1.760397e-001
24893142.000	9.714953e-001	1.759709e-001
24899136.000	9.714891e-001	1.758888e-001
24905130.000	9.715129e-001	1.758285e-001
24911124.000	9.714614e-001	1.757774e-001
24917118.000	9.714546e-001	1.757258e-001
24923112.000	9.714914e-001	1.756647e-001
24929106.000	9.714968e-001	1.755751e-001
24935100.000	9.715671e-001	1.755300e-001
24941094.000	9.715557e-001	1.754589e-001
24947088.000	9.715557e-001	1.753996e-001
24953082.000	9.715327e-001	1.753097e-001
24959076.000	9.715216e-001	1.752647e-001
24965070.000	9.715854e-001	1.751966e-001
24971064.000	9.716376e-001	1.751194e-001
24977058.000	9.716089e-001	1.750634e-001
24983052.000	9.716055e-001	1.750230e-001
24989046.000	9.715770e-001	1.749486e-001
24995040.000	9.716420e-001	1.749048e-001
25001034.000	9.716575e-001	1.748107e-001
25007028.000	9.716573e-001	1.747496e-001
25013022.000	9.717286e-001	1.747056e-001
25019016.000	9.716819e-001	1.746630e-001
25025010.000	9.716927e-001	1.745533e-001
25031004.000	9.716793e-001	1.744661e-001
25036998.000	9.717371e-001	1.744036e-001
25042992.000	9.717265e-001	1.743488e-001
25048986.000	9.717392e-001	1.742657e-001
25054980.000	9.717259e-001	1.742326e-001
25060974.000	9.716946e-001	1.741694e-001
25066968.000	9.717533e-001	1.741364e-001
25072962.000	9.717438e-001	1.740145e-001
25078956.000	9.717646e-001	1.739758e-001
25084950.000	9.717565e-001	1.739427e-001
25090944.000	9.717613e-001	1.738464e-001
25096938.000	9.717693e-001	1.737661e-001
25102932.000	9.717252e-001	1.737239e-001
25108926.000	9.717808e-001	1.736552e-001
25114920.000	9.717849e-001	1.736092e-001
25120914.000	9.718318e-001	1.735362e-001
25126908.000	9.718099e-001	1.734613e-001
25132902.000	9.718159e-001	1.734278e-001
25138896.000	9.718326e-001	1.733259e-001
25144890.000	9.718524e-001	1.732575e-001
25150884.000	9.718713e-001	1.732074e-001
25156878.000	9.718693e-001	1.731405e-001
25162872.000	9.718606e-001	1.730762e-001
25168866.000	9.719110e-001	1.730083e-001
25174860.000	9.719165e-001	1.729594e-001
25180854.000	9.719049e-001	1.728836e-001
25186848.000	9.719085e-001	1.728206e-001
25192842.000	9.719217e-001	1.727876e-001
25198836.000	9.719419e-001	1.726612e-001
25204830.000	9.719614e-001	1.726567e-001
25210824.000	9.719510e-001	1.725388e-001
25216818.000	9.719575e-001	1.725113e-001
25222812.000	9.719836e-001	1.724496e-001
25228806.000	9.719992e-001	1.723798e-001
25234800.000	9.720290e-001	1.723035e-001
25240794.000	9.720124e-001	1.722322e-001
25246788.000	9.720011e-001	1.721865e-001
25252782.000	9.719739e-001	1.721312e-001
25258776.000	9.719852e-001	1.720206e-001
25264770.000	9.720068e-001	1.719869e-001
25270764.000	9.720234e-001	1.719457e-001
25276758.000	9.720320e-001	1.718862e-001
25282752.000	9.720129e-001	1.718322e-001
25288746.000	9.720342e-001	1.717455e-001
25294740.000	9.720937e-001	1.716672e-001
25300734.000	9.720627e-001	1.716438e-001
25306728.000	9.720997e-001	1.715949e-001
25312722.000	9.720665e-001	1.714531e-001
25318716.000	9.720422e-001	1.714258e-001
25324710.000	9.720581e-001	1.713682e-001
25330704.000	9.721266e-001	1.713445e-001
25336698.000	9.721057e-001	1.712250e-001
25342692.000	9.721323e-001	1.711827e-001
25348686.000	9.721072e-001	1.711162e-001
25354680.000	9.721097e-001	1.710630e-001
25360674.000	9.721389e-001	1.709920e-001
25366668.000	9.721673e-001	1.709199e-001
25372662.000	9.721154e-001	1.708794e-001
25378656.000	9.721525e-001	1.707703e-001
25384650.000	9.721188e-001	1.706818e-001
25390644.000	9.720965e-001	1.706966e-001
25396638.000	9.721636e-001	1.705891e-001
25402632.000	9.721428e-001	1.705478e-001
25408626.000	9.721586e-001	1.704985e-001
25414620.000	9.722049e-001	1.704151e-001
25420614.000	9.722121e-001	1.703572e-001
25426608.000	9.722174e-001	1.702638e-001
25432602.000	9.722606e-001	1.702638e-001
25438596.000	9.722354e-001	1.701862e-001
25444590.000	9.722680e-001	1.700954e-001
25450584.000	9.722691e-001	1.700434e-001
25456578.000	9.722687e-001	1.699726e-001
25462572.000	9.722690e-001	1.699322e-001
25468566.000	9.722960e-001	1.698436e-001
25474560.000	9.724094e-001	1.698360e-001
25480554.000	9.723314e-001	1.697201e-001
25486548.000	9.723827e-001	1.696828e-001
25492542.000	9.724048e-001	1.696138e-001
25498536.000	9.723595e-001	1.695899e-001
25504530.000	9.723860e-001	1.695350e-001
25510524.000	9.724212e-001	1.694637e-001
25516518.000	9.724114e-001	1.693699e-001
25522512.000	9.723759e-001	1.693353e-001
25528506.000	9.724136e-001	1.692377e-001
25534500.000	9.724452e-001	1.691849e-001
25540494.000	9.723443e-001	1.691497e-001
25546488.000	9.723779e-001	1.690794e-001
25552482.000	9.723824e-001	1.689781e-001
25558476.000	9.724205e-001	1.689347e-001
25564470.000	9.724643e-001	1.688387e-001
25570464.000	9.724771e-001	1.687731e-001
25576458.000	9.724072e-001	1.687481e-001
25582452.000	9.724194e-001	1.686840e-001
25588446.000	9.724805e-001	1.686686e-001
25594440.000	9.724695e-001	1.685689e-001
25600434.000	9.726298e-001	1.686151e-001
25606428.000	9.725459e-001	1.684668e-001
25612422.000	9.724887e-001	1.683467e-001
25618416.000	9.724769e-001	1.683671e-001
25624410.000	9.725344e-001	1.682182e-001
25630404.000	9.725431e-001	1.681958e-001
25636398.000	9.725451e-001	1.681284e-001
25642392.000	9.726250e-001	1.680908e-001
25648386.000	9.725605e-001	1.680453e-001
25654380.000	9.725517e-001	1.679544e-001
25660374.000	9.725098e-001	1.678755e-001
25666368.000	9.725904e-001	1.677998e-001
25672362.000	9.726066e-001	1.677431e-001
25678356.000	9.725972e-001	1.676731e-001
25684350.000	9.725760e-001	1.675981e-001
25690344.000	9.726379e-001	1.676107e-001
25696338.000	9.725944e-001	1.675418e-001
25702332.000	9.726317e-001	1.674549e-001
25708326.000	9.726433e-001	1.673491e-001
25714320.000	9.727017e-001	1.673161e-001
25720314.000	9.726499e-001	1.672714e-001
25726308.000	9.726394e-001	1.672192e-001
25732302.000	9.726947e-001	1.671267e-001
25738296.000	9.726997e-001	1.670563e-001
25744290.000	9.726799e-001	1.669931e-001
25750284.000	9.727368e-001	1.669744e-001
25756278.000	9.727012e-001	1.668989e-001
25762272.000	9.727375e-001	1.668645e-001
25768266.000	9.727124e-001	1.667461e-001
25774260.000	9.727473e-001	1.667087e-001
25780254.000	9.727185e-001	1.666170e-001
25786248.000	9.727585e-001	1.666073e-001
25792242.000	9.727302e-001	1.665161e-001
25798236.000	9.727176e-001	1.664840e-001
25804230.000	9.727408e-001	1.663637e-001
25810224.000	9.727604e-001	1.663105e-001
25816218.000	9.728012e-001	1.662492e-001
25822212.000	9.728216e-001	1.662434e-001
25828206.000	9.728315e-001	1.661604e-001
25834200.000	9.727784e-001	1.660933e-001
25840194.000	9.727849e-001	1.660311e-001
25846188.000	9.728027e-001	1.659802e-001
25852182.000	9.727955e-001	1.658962e-001
25858176.000	9.727971e-001	1.658572e-001
25864170.000	9.728495e-001	1.657675e-001
25870164.000	9.728328e-001	1.657178e-001
25876158.000	9.728402e-001	1.656632e-001
25882152.000	9.728782e-001	1.656107e-001
25888146.000	9.728782e-001	1.655557e-001
25894140.000	9.729111e-001	1.655103e-001
25900134.000	9.729346e-001	1.654180e-001
25906128.000	9.729349e-001	1.653740e-001
25912122.000	9.729614e-001	1.653109e-001
25918116.000	9.728828e-001	1.652284e-001
25924110.000	9.729602e-001	1.652365e-001
25930104.000	9.730110e-001	1.651473e-001
25936098.000	9.729753e-001	1.650517e-001
25942092.000	9.729986e-001	1.649968e-001
25948086.000	9.730018e-001	1.649441e-001
25954080.000	9.730044e-001	1.648591e-001
25960074.000	9.730383e-001	1.648513e-001
25966068.000	9.730188e-001	1.647565e-001
25972062.000	9.730075e-001	1.646982e-001
25978056.000	9.730664e-001	1.646028e-001
25984050.000	9.730340e-001	1.645738e-001
25990044.000	9.729932e-001	1.644922e-001
25996038.000	9.730131e-001	1.644826e-001
26002032.000	9.730278e-001	1.643762e-001
26008026.000	9.730736e-001	1.643272e-001
26014020.000	9.730654e-001	1.642572e-001
26020014.000	9.730954e-001	1.642164e-001
26026008.000	9.731156e-001	1.641829e-001
26032002.000	9.730706e-001	1.641135e-001
26037996.000	9.730405e-001	1.640352e-001
26043990.000	9.730893e-001	1.639904e-001
26049984.000	9.731300e-001	1.639276e-001
26055978.000	9.731695e-001	1.638515e-001
26061972.000	9.730975e-001	1.638236e-001
26067966.000	9.731601e-001	1.637398e-001
26073960.000	9.732078e-001	1.636893e-001
26079954.000	9.731948e-001	1.636838e-001
26085948.000	9.731630e-001	1.636099e-001
26091942.000	9.731503e-001	1.635014e-001
26097936.000	9.731730e-001	1.634489e-001
26103930.000	9.732036e-001	1.633806e-001
26109924.000	9.731627e-001	1.633116e-001
26115918.000	9.731781e-001	1.632816e-001
26121912.000	9.732252e-001	1.631619e-001
26127906.000	9.732188e-001	1.631172e-001
26133900.000	9.732114e-001	1.631099e-001
26139894.000	9.731549e-001	1.630272e-001
26145888.000	9.732516e-001	1.629606e-001
26151882.000	9.731978e-001	1.628760e-001
26157876.000	9.732571e-001	1.628501e-001
26163870.000	9.732020e-001	1.627564e-001
26169864.000	9.732394e-001	1.626947e-001
26175858.000	9.732596e-001	1.626819e-001
26181852.000	9.732538e-001	1.625891e-001
26187846.000	9.732821e-001	1.625512e-001
26193840.000	9.732906e-001	1.624678e-001
26199834.000	9.732794e-001	1.624132e-001
26205828.000	9.732361e-001	1.623497e-001
26211822.000	9.733358e-001	1.622801e-001
26217816.000	9.733537e-001	1.622693e-001
26223810.000	9.733461e-001	1.621915e-001
26229804.000	9.733214e-001	1.621194e-001
26235798.000	9.733464e-001	1.620843e-001
26241792.000	9.733687e-001	1.620118e-001
26247786.000	9.733287e-001	1.619703e-001
26253780.000	9.733279e-001	1.618800e-001
26259774.000	9.733298e-001	1.618048e-001
26265768.000	9.733708e-001	1.617889e-001
26271762.000	9.734080e-001	1.616764e-001
26277756.000	9.734062e-001	1.616623e-001
26283750.000	9.733892e-001	1.615928e-001
26289744.000	9.734378e-001	1.615177e-001
26295738.000	9.733872e-001	1.614987e-001
26301732.000	9.734477e-001	1.614335e-001
26307726.000	9.734339e-001	1.613493e-001
26313720.000	9.734818e-001	1.613012e-001
26319714.000	9.735135e-001	1.612142e-001
26325708.000	9.734912e-001	1.611882e-001
26331702.000	9.734154e-001	1.610994e-001
26337696.000	9.734694e-001	1.610395e-001
26343690.000	9.734281e-001	1.609948e-001
26349684.000	9.734958e-001	1.609152e-001
26355678.000	9.735366e-001	1.608916e-001
26361672.000	9.735166e-001	1.607828e-001
26367666.000	9.734564e-001	1.607685e-001
26373660.000	9.734518e-001	1.606838e-001
26379654.000	9.735109e-001	1.606008e-001
26385648.000	9.735415e-001	1.605513e-001
26391642.000	9.735659e-001	1.605439e-001
26397636.000	9.735321e-001	1.604552e-001
26403630.000	9.735546e-001	1.604016e-001
26409624.000	9.735538e-001	1.603174e-001
26415618.000	9.735715e-001	1.602671e-001
26421612.000	9.735433e-001	1.602131e-001
26427606.000	9.734884e-001	1.601579e-001
26433600.000	9.736031e-001	1.600931e-001
26439594.000	9.735444e-001	1.600426e-001
26445588.000	9.735744e-001	1.600054e-001
26451582.000	9.735276e-001	1.598904e-001
26457576.000	9.736173e-001	1.598589e-001
26463570.000	9.735909e-001	1.597859e-001
26469564.000	9.736153e-001	1.597334e-001
26475558.000	9.736194e-001	1.596848e-001
26481552.000	9.736424e-001	1.596342e-001
26487546.000	9.736584e-001	1.595773e-001
26493540.000	9.736328e-001	1.595248e-001
26499534.000	9.736371e-001	1.594293e-001
26505528.000	9.736136e-001	1.593932e-001
26511522.000	9.736373e-001	1.593535e-001
26517516.000	9.737069e-001	1.592838e-001
26523510.000	9.736867e-001	1.592297e-001
26529504.000	9.736713e-001	1.591567e-001
26535498.000	9.736824e-001	1.591102e-001
26541492.000	9.737229e-001	1.590530e-001
26547486.000	9.737034e-001	1.589755e-001
26553480.000	9.737208e-001	1.589022e-001
26559474.000	9.737761e-001	1.588694e-001
26565468.000	9.737560e-001	1.588118e-001
26571462.000	9.737279e-001	1.587524e-001
26577456.000	9.737234e-001	1.587095e-001
26583450.000	9.737519e-001	1.586545e-001
26589444.000	9.737663e-001	1.585994e-001
26595438.000	9.737733e-001	1.585054e-001
26601432.000	9.737292e-001	1.584273e-001
26607426.000	9.738185e-001	1.584023e-001
26613420.000	9.738208e-001	1.583621e-001
26619414.000	9.737640e-001	1.582776e-001
26625408.000	9.738252e-001	1.582127e-001
26631402.000	9.737986e-001	1.581829e-001
26637396.000	9.738786e-001	1.581334e-001
26643390.000	9.738178e-001	1.580734e-001
26649384.000	9.738125e-001	1.580036e-001
26655378.000	9.737964e-001	1.579466e-001
26661372.000	9.738169e-001	1.578733e-001
26667366.000	9.738641e-001	1.578267e-001
26673360.000	9.738049e-001	1.577660e-001
26679354.000	9.738678e-001	1.577150e-001
26685348.000	9.738570e-001	1.576249e-001
26691342.000	9.738871e-001	1.575844e-001
26697336.000	9.738848e-001	1.575338e-001
26703330.000	9.739174e-001	1.574689e-001
26709324.000	9.738935e-001	1.574221e-001
26715318.000	9.739040e-001	1.573775e-001
26721312.000	9.739194e-001	1.573290e-001
26727306.000	9.738876e-001	1.572633e-001
26733300.000	9.738804e-001	1.571883e-001
26739294.000	9.739230e-001	1.571395e-001
26745288.000	9.739625e-001	1.570995e-001
26751282.000	9.738973e-001	1.570210e-001
26757276.000	9.739836e-001	1.569691e-001
26763270.000	9.739693e-001	1.569323e-001
26769264.000	9.739271e-001	1.568364e-001
26775258.000	9.740103e-001	1.567782e-001
26781252.000	9.739944e-001	1.567278e-001
26787246.000	9.739471e-001	1.566546e-001
26793240.000	9.739530e-001	1.566107e-001
26799234.000	9.739971e-001	1.565743e-001
26805228.000	9.739989e-001	1.564976e-001
26811222.000	9.740130e-001	1.564142e-001
26817216.000	9.740043e-001	1.563619e-001
26823210.000	9.739962e-001	1.563228e-001
26829204.000	9.740698e-001	1.562556e-001
26835198.000	9.739942e-001	1.561902e-001
26841192.000	9.740445e-001	1.561593e-001
26847186.000	9.740297e-001	1.561121e-001
26853180.000	9.740751e-001	1.560418e-001
26859174.000	9.740636e-001	1.559805e-001
26865168.000	9.740274e-001	1.559258e-001
26871162.000	9.740420e-001	1.558693e-001
26877156.000	9.740018e-001	1.557952e-001
26883150.000	9.740320e-001	1.557457e-001
26889144.000	9.740885e-001	1.556457e-001
26895138.000	9.741093e-001	1.555943e-001
26901132.000	9.740999e-001	1.555824e-001
26907126.000	9.741113e-001	1.555118e-001
26913120.000	9.740905e-001	1.554648e-001
26919114.000	9.741282e-001	1.554274e-001
26925108.000	9.740964e-001	1.553405e-001
26931102.000	9.741538e-001	1.553014e-001
26937096.000	9.741223e-001	1.552512e-001
26943090.000	9.741539e-001	1.551759e-001
26949084.000	9.741635e-001	1.550925e-001
26955078.000	9.741327e-001	1.550466e-001
26961072.000	9.741370e-001	1.550095e-001
26967066.000	9.741683e-001	1.549573e-001
26973060.000	9.741990e-001	1.548951e-001
26979054.000	9.741603e-001	1.548768e-001
26985048.000	9.742119e-001	1.547487e-001
26991042.000	9.742042e-001	1.546972e-001
26997036.000	9.742205e-001	1.546925e-001
27003030.000	9.742292e-001	1.546136e-001
27009024.000	9.742331e-001	1.545467e-001
27015018.000	9.742524e-001	1.544659e-001
27021012.000	9.742801e-001	1.544345e-001
27027006.000	9.742193e-001	1.543916e-001
27033000.000	9.742473e-001	1.542972e-001
27038994.000	9.742789e-001	1.542709e-001
27044988.000	9.743235e-001	1.542141e-001
27050982.000	9.743169e-001	1.541914e-001
27056976.000	9.742820e-001	1.540912e-001
27062970.000	9.743023e-001	1.540371e-001
27068964.000	9.743402e-001	1.540026e-001
27074958.000	9.743159e-001	1.539583e-001
27080952.000	9.743211e-001	1.538948e-001
27086946.000	9.743341e-001	1.538250e-001
27092940.000	9.743151e-001	1.537638e-001
27098934.000	9.743768e-001	1.536954e-001
27104928.000	9.743893e-001	1.536552e-001
27110922.000	9.743817e-001	1.535798e-001
27116916.000	9.743871e-001	1.535459e-001
27122910.000	9.743662e-001	1.534511e-001
27128904.000	9.743643e-001	1.534027e-001
27134898.000	9.743709e-001	1.533827e-001
27140892.000	9.743853e-001	1.533074e-001
27146886.000	9.743769e-001	1.532034e-001
27152880.000	9.743835e-001	1.531996e-001
27158874.000	9.744350e-001	1.531768e-001
27164868.000	9.744122e-001	1.530718e-001
27170862.000	9.744044e-001	1.530017e-001
27176856.000	9.744394e-001	1.529714e-001
27182850.000	9.744641e-001	1.528953e-001
27188844.000	9.744433e-001	1.528353e-001
27194838.000	9.744999e-001	1.528225e-001
27200832.000	9.744170e-001	1.527517e-001
27206826.000	9.744601e-001	1.526767e-001
27212820.000	9.744788e-001	1.526322e-001
27218814.000	9.744260e-001	1.525475e-001
27224808.000	9.744146e-001	1.524911e-001
27230802.000	9.744808e-001	1.524531e-001
27236796.000	9.744604e-001	1.524115e-001
27242790.000	9.745109e-001	1.523620e-001
27248784.000	9.744989e-001	1.523032e-001
27254778.000	9.745117e-001	1.522467e-001
27260772.000	9.745116e-001	1.522023e-001
27266766.000	9.744949e-001	1.521507e-001
27272760.000	9.745241e-001	1.520952e-001
27278754.000	9.745403e-001	1.520224e-001
27284748.000	9.745348e-001	1.519583e-001
27290742.000	9.745570e-001	1.519257e-001
27296736.000	9.744988e-001	1.518444e-001
27302730.000	9.745575e-001	1.517572e-001
27308724.000	9.745371e-001	1.517310e-001
27314718.000	9.745307e-001	1.516794e-001
27320712.000	9.745350e-001	1.516110e-001
27326706.000	9.745426e-001	1.515625e-001
27332700.000	9.746112e-001	1.515067e-001
27338694.000	9.745973e-001	1.514808e-001
27344688.000	9.746367e-001	1.514099e-001
27350682.000	9.746153e-001	1.513316e-001
27356676.000	9.745863e-001	1.512687e-001
27362670.000	9.746654e-001	1.512109e-001
27368664.000	9.746086e-001	1.511981e-001
27374658.000	9.746757e-001	1.511220e-001
27380652.000	9.746475e-001	1.510843e-001
27386646.000	9.746373e-001	1.509946e-001
27392640.000	9.747008e-001	1.509703e-001
27398634.000	9.746889e-001	1.509478e-001
27404628.000	9.746415e-001	1.508383e-001
27410622.000	9.746483e-001	1.507670e-001
27416616.000	9.746913e-001	1.507612e-001
27422610.000	9.747569e-001	1.507077e-001
27428604.000	9.746844e-001	1.506164e-001
27434598.000	9.747267e-001	1.505728e-001
27440592.000	9.746896e-001	1.504981e-001
27446586.000	9.746431e-001	1.504401e-001
27452580.000	9.746897e-001	1.503944e-001
27458574.000	9.747608e-001	1.503257e-001
27464568.000	9.746930e-001	1.502420e-001
27470562.000	9.747500e-001	1.502292e-001
27476556.000	9.747581e-001	1.502080e-001
27482550.000	9.747462e-001	1.501159e-001
27488544.000	9.747580e-001	1.500984e-001
27494538.000	9.747450e-001	1.500162e-001
27500532.000	9.747143e-001	1.499551e-001
27506526.000	9.747779e-001	1.498866e-001
27512520.000	9.747839e-001	1.498286e-001
27518514.000	9.747936e-001	1.497945e-001
27524508.000	9.748024e-001	1.497262e-001
27530502.000	9.747765e-001	1.496847e-001
27536496.000	9.747948e-001	1.496445e-001
27542490.000	9.748199e-001	1.495606e-001
27548484.000	9.748183e-001	1.494849e-001
27554478.000	9.748733e-001	1.494576e-001
27560472.000	9.747620e-001	1.494098e-001
27566466.000	9.748504e-001	1.493488e-001
27572460.000	9.748402e-001	1.492908e-001
27578454.000	9.748169e-001	1.492400e-001
27584448.000	9.748570e-001	1.492024e-001
27590442.000	9.748388e-001	1.491393e-001
27596436.000	9.748995e-001	1.491280e-001
27602430.000	9.748511e-001	1.490191e-001
27608424.000	9.749421e-001	1.489943e-001
27614418.000	9.749184e-001	1.489174e-001
27620412.000	9.749396e-001	1.489082e-001
27626406.000	9.749286e-001	1.487755e-001
27632400.000	9.748789e-001	1.487637e-001
27638394.000	9.749517e-001	1.487106e-001
27644388.000	9.749519e-001	1.486602e-001
27650382.000	9.748959e-001	1.485535e-001
27656376.000	9.749414e-001	1.485374e-001
27662370.000	9.749911e-001	1.484780e-001
27668364.000	9.749627e-001	1.484303e-001
27674358.000	9.749555e-001	1.484235e-001
27680352.000	9.749599e-001	1.482758e-001
27686346.000	9.749522e-001	1.482882e-001
27692340.000	9.749511e-001	1.481895e-001
27698334.000	9.749601e-001	1.481940e-001
27704328.000	9.749370e-001	1.480804e-001
27710322.000	9.749744e-001	1.480407e-001
27716316.000	9.749592e-001	1.479829e-001
27722310.000	9.749937e-001	1.479116e-001
27728304.000	9.750029e-001	1.478921e-001
27734298.000	9.750519e-001	1.478425e-001
27740292.000	9.750061e-001	1.477637e-001
27746286.000	9.749982e-001	1.477175e-001
27752280.000	9.750325e-001	1.476456e-001
27758274.000	9.750783e-001	1.476365e-001
27764268.000	9.751236e-001	1.475575e-001
27770262.000	9.750959e-001	1.475606e-001
27776256.000	9.751002e-001	1.474259e-001
27782250.000	9.751001e-001	1.473827e-001
27788244.000	9.751061e-001	1.473075e-001
27794238.000	9.751112e-001	1.473000e-001
27800232.000	9.750896e-001	1.472118e-001
27806226.000	9.750977e-001	1.471852e-001
27812220.000	9.751351e-001	1.471116e-001
27818214.000	9.751026e-001	1.470605e-001
27824208.000	9.751426e-001	1.469909e-001
27830202.000	9.751449e-001	1.469483e-001
27836196.000	9.751143e-001	1.469001e-001
27842190.000	9.751729e-001	1.468449e-001
27848184.000	9.751530e-001	1.467931e-001
27854178.000	9.751214e-001	1.467115e-001
27860172.000	9.751456e-001	1.466774e-001
27866166.000	9.751494e-001	1.466477e-001
27872160.000	9.751699e-001	1.466096e-001
27878154.000	9.751646e-001	1.465151e-001
27884148.000	9.752351e-001	1.464699e-001
27890142.000	9.751900e-001	1.463805e-001
27896136.000	9.751689e-001	1.463643e-001
27902130.000	9.751672e-001	1.463185e-001
27908124.000	9.752281e-001	1.462761e-001
27914118.000	9.751939e-001	1.462048e-001
27920112.000	9.752570e-001	1.461401e-001
27926106.000	9.752297e-001	1.461127e-001
27932100.000	9.752465e-001	1.460626e-001
27938094.000	9.752671e-001	1.459618e-001
27944088.000	9.753032e-001	1.459560e-001
27950082.000	9.752713e-001	1.458704e-001
27956076.000	9.752185e-001	1.457947e-001
27962070.000	9.752519e-001	1.457688e-001
27968064.000	9.753098e-001	1.457300e-001
27974058.000	9.752669e-001	1.456654e-001
27980052.000	9.752864e-001	1.456123e-001
27986046.000	9.752092e-001	1.455269e-001
27992040.000	9.752612e-001	1.455317e-001
27998034.000	9.753491e-001	1.454444e-001
28004028.000	9.752930e-001	1.453465e-001
28010022.000	9.753127e-001	1.453347e-001
28016016.000	9.753165e-001	1.452752e-001
28022010.000	9.753034e-001	1.452077e-001
28028004.000	9.753135e-001	1.451647e-001
28033998.000	9.753555e-001	1.451372e-001
28039992.000	9.753769e-001	1.451330e-001
28045986.000	9.753431e-001	1.449706e-001
28051980.000	9.752937e-001	1.449608e-001
28057974.000	9.753615e-001	1.448600e-001
28063968.000	9.753451e-001	1.448924e-001
28069962.000	9.753524e-001	1.448082e-001
28075956.000	9.753717e-001	1.447395e-001
28081950.000	9.753348e-001	1.446919e-001
28087944.000	9.753120e-001	1.446197e-001
28093938.000	9.753166e-001	1.445906e-001
28099932.000	9.753714e-001	1.445598e-001
28105926.000	9.753986e-001	1.445338e-001
28111920.000	9.753693e-001	1.444129e-001
28117914.000	9.754388e-001	1.443777e-001
28123908.000	9.753843e-001	1.443356e-001
28129902.000	9.754545e-001	1.443071e-001
28135896.000	9.754354e-001	1.441971e-001
28141890.000	9.754639e-001	1.442012e-001
28147884.000	9.754249e-001	1.441048e-001
28153878.000	9.754377e-001	1.440535e-001
28159872.000	9.754818e-001	1.439729e-001
28165866.000	9.754548e-001	1.439734e-001
28171860.000	9.755096e-001	1.439063e-001
28177854.000	9.754638e-001	1.437952e-001
28183848.000	9.754995e-001	1.437721e-001
28189842.000	9.755339e-001	1.437293e-001
28195836.000	9.754724e-001	1.436760e-001
28201830.000	9.754921e-001	1.436194e-001
28207824.000	9.755360e-001	1.435999e-001
28213818.000	9.755213e-001	1.434881e-001
28219812.000	9.755109e-001	1.434498e-001
28225806.000	9.755264e-001	1.434262e-001
28231800.000	9.755669e-001	1.433425e-001
28237794.000	9.755470e-001	1.432896e-001
28243788.000	9.755267e-001	1.432546e-001
28249782.000	9.755491e-001	1.432059e-001
28255776.000	9.755652e-001	1.431549e-001
28261770.000	9.756020e-001	1.431186e-001
28267764.000	9.755725e-001	1.430126e-001
28273758.000	9.755803e-001	1.430032e-001
28279752.000	9.755814e-001	1.429812e-001
28285746.000	9.755834e-001	1.428907e-001
28291740.000	9.756572e-001	1.428543e-001
28297734.000	9.756517e-001	1.427953e-001
28303728.000	9.756611e-001	1.427355e-001
28309722.000	9.756424e-001	1.426902e-001
28315716.000	9.756091e-001	1.426311e-001
28321710.000	9.756737e-001	1.426108e-001
28327704.000	9.756021e-001	1.425131e-001
28333698.000	9.756613e-001	1.425005e-001
28339692.000	9.756508e-001	1.424420e-001
28345686.000	9.755987e-001	1.423601e-001
28351680.000	9.756344e-001	1.423185e-001
28357674.000	9.756487e-001	1.422409e-001
28363668.000	9.756585e-001	1.422336e-001
28369662.000	9.756505e-001	1.421795e-001
28375656.000	9.756779e-001	1.421150e-001
28381650.000	9.756880e-001	1.420569e-001
28387644.000	9.757215e-001	1.419946e-001
28393638.000	9.757663e-001	1.419638e-001
28399632.000	9.756936e-001	1.418920e-001
28405626.000	9.757097e-001	1.418596e-001
28411620.000	9.757228e-001	1.417807e-001
28417614.000	9.757200e-001	1.417370e-001
28423608.000	9.757132e-001	1.417311e-001
28429602.000	9.757001e-001	1.416166e-001
28435596.000	9.757306e-001	1.416052e-001
28441590.000	9.757424e-001	1.415264e-001
28447584.000	9.758027e-001	1.414678e-001
28453578.000	9.757652e-001	1.414352e-001
28459572.000	9.757681e-001	1.414094e-001
28465566.000	9.757861e-001	1.413693e-001
28471560.000	9.757548e-001	1.412573e-001
28477554.000	9.758441e-001	1.412276e-001
28483548.000	9.758440e-001	1.411658e-001
28489542.000	9.758259e-001	1.411320e-001
28495536.000	9.757430e-001	1.410534e-001
28501530.000	9.757965e-001	1.410319e-001
28507524.000	9.758329e-001	1.409334e-001
28513518.000	9.757809e-001	1.408910e-001
28519512.000	9.758379e-001	1.408976e-001
28525506.000	9.758618e-001	1.407972e-001
28531500.000	9.758518e-001	1.407615e-001
28537494.000	9.758336e-001	1.406950e-001
28543488.000	9.758581e-001	1.406374e-001
28549482.000	9.758185e-001	1.405882e-001
28555476.000	9.757988e-001	1.405349e-001
28561470.000	9.758405e-001	1.404529e-001
28567464.000	9.758669e-001	1.404239e-001
28573458.000	9.758417e-001	1.404243e-001
28579452.000	9.758688e-001	1.403546e-001
28585446.000	9.758960e-001	1.402591e-001
28591440.000	9.758847e-001	1.402524e-001
28597434.000	9.759341e-001	1.401891e-001
28603428.000	9.759043e-001	1.401286e-001
28609422.000	9.758692e-001	1.400952e-001
28615416.000	9.759463e-001	1.400637e-001
28621410.000	9.759155e-001	1.399625e-001
28627404.000	9.759342e-001	1.399384e-001
28633398.000	9.759146e-001	1.398124e-001
28639392.000	9.759089e-001	1.397918e-001
28645386.000	9.759277e-001	1.397521e-001
28651380.000	9.759991e-001	1.397246e-001
28657374.000	9.759582e-001	1.396458e-001
28663368.000	9.759714e-001	1.396156e-001
28669362.000	9.759877e-001	1.395697e-001
28675356.000	9.759751e-001	1.394974e-001
28681350.000	9.759512e-001	1.394377e-001
28687344.000	9.759551e-001	1.393708e-001
28693338.000	9.759402e-001	1.393455e-001
28699332.000	9.759672e-001	1.392785e-001
28705326.000	9.759611e-001	1.392524e-001
28711320.000	9.759318e-001	1.391914e-001
28717314.000	9.759880e-001	1.391477e-001
28723308.000	9.760503e-001	1.391037e-001
28729302.000	9.759716e-001	1.390870e-001
28735296.000	9.760102e-001	1.389898e-001
28741290.000	9.760641e-001	1.389534e-001
28747284.000	9.760483e-001	1.388867e-001
28753278.000	9.760269e-001	1.388544e-001
28759272.000	9.760280e-001	1.388250e-001
28765266.000	9.760551e-001	1.387160e-001
28771260.000	9.760660e-001	1.386986e-001
28777254.000	9.760184e-001	1.386067e-001
28783248.000	9.760282e-001	1.386016e-001
28789242.000	9.760698e-001	1.385412e-001
28795236.000	9.761072e-001	1.384649e-001
28801230.000	9.760495e-001	1.384482e-001
28807224.000	9.760699e-001	1.383783e-001
28813218.000	9.760846e-001	1.382906e-001
28819212.000	9.761068e-001	1.382605e-001
28825206.000	9.760818e-001	1.382315e-001
28831200.000	9.760821e-001	1.381909e-001
28837194.000	9.760532e-001	1.381380e-001
28843188.000	9.760988e-001	1.380669e-001
28849182.000	9.760826e-001	1.379751e-001
28855176.000	9.760615e-001	1.379568e-001
28861170.000	9.761046e-001	1.379361e-001
28867164.000	9.761671e-001	1.378804e-001
28873158.000	9.761623e-001	1.378205e-001
28879152.000	9.761664e-001	1.377299e-001
28885146.000	9.761682e-001	1.377426e-001
28891140.000	9.761279e-001	1.376584e-001
28897134.000	9.761871e-001	1.376035e-001
28903128.000	9.761748e-001	1.375504e-001
28909122.000	9.761827e-001	1.375308e-001
28915116.000	9.761810e-001	1.374542e-001
28921110.000	9.761830e-001	1.374074e-001
28927104.000	9.761806e-001	1.373657e-001
28933098.000	9.761833e-001	1.372922e-001
28939092.000	9.762416e-001	1.372558e-001
28945086.000	9.761539e-001	1.371975e-001
28951080.000	9.762170e-001	1.371680e-001
28957074.000	9.761858e-001	1.370706e-001
28963068.000	9.762616e-001	1.370430e-001
28969062.000	9.762836e-001	1.370054e-001
28975056.000	9.762700e-001	1.369378e-001
28981050.000	9.762160e-001	1.369061e-001
28987044.000	9.762705e-001	1.368457e-001
28993038.000	9.762204e-001	1.368005e-001
28999032.000	9.762675e-001	1.367352e-001
29005026.000	9.762394e-001	1.366755e-001
29011020.000	9.762309e-001	1.366509e-001
29017014.000	9.762640e-001	1.366080e-001
29023008.000	9.762864e-001	1.365473e-001
29029002.000	9.762829e-001	1.364949e-001
29034996.000	9.762750e-001	1.364253e-001
29040990.000	9.763146e-001	1.363732e-001
29046984.000	9.763248e-001	1.363112e-001
29052978.000	9.763583e-001	1.362849e-001
29058972.000	9.763480e-001	1.362821e-001
29064966.000	9.763380e-001	1.361602e-001
29070960.000	9.763515e-001	1.361472e-001
29076954.000	9.763330e-001	1.360815e-001
29082948.000	9.763383e-001	1.360667e-001
29088942.000	9.763604e-001	1.359892e-001
29094936.000	9.763323e-001	1.359306e-001
29100930.000	9.763464e-001	1.358686e-001
29106924.000	9.764078e-001	1.358416e-001
29112918.000	9.763540e-001	1.357968e-001
29118912.000	9.763713e-001	1.357531e-001
29124906.000	9.763891e-001	1.356471e-001
29130900.000	9.763300e-001	1.355950e-001
29136894.000	9.763617e-001	1.355794e-001
29142888.000	9.763654e-001	1.355175e-001
29148882.000	9.764078e-001	1.354765e-001
29154876.000	9.763918e-001	1.353779e-001
29160870.000	9.764079e-001	1.353786e-001
29166864.000	9.764008e-001	1.353422e-001
29172858.000	9.764321e-001	1.352867e-001
29178852.000	9.764526e-001	1.352230e-001
29184846.000	9.764148e-001	1.351532e-001
29190840.000	9.764516e-001	1.351210e-001
29196834.000	9.764307e-001	1.350695e-001
29202828.000	9.764034e-001	1.350428e-001
29208822.000	9.764397e-001	1.349539e-001
29214816.000	9.764601e-001	1.349362e-001
29220810.000	9.764122e-001	1.348736e-001
29226804.000	9.764515e-001	1.348358e-001
29232798.000	9.764694e-001	1.347597e-001
29238792.000	9.764411e-001	1.347008e-001
29244786.000	9.764654e-001	1.346711e-001
29250780.000	9.764530e-001	1.346237e-001
29256774.000	9.765039e-001	1.345579e-001
29262768.000	9.764175e-001	1.344701e-001
29268762.000	9.764745e-001	1.344359e-001
29274756.000	9.764998e-001	1.343831e-001
29280750.000	9.765005e-001	1.343577e-001
29286744.000	9.764785e-001	1.343471e-001
29292738.000	9.764911e-001	1.342586e-001
29298732.000	9.765224e-001	1.342588e-001
29304726.000	9.765178e-001	1.341834e-001
29310720.000	9.765389e-001	1.341280e-001
29316714.000	9.765104e-001	1.341282e-001
29322708.000	9.764416e-001	1.340349e-001
29328702.000	9.764961e-001	1.339789e-001
29334696.000	9.765210e-001	1.339554e-001
29340690.000	9.765856e-001	1.338680e-001
29346684.000	9.765515e-001	1.337887e-001
29352678.000	9.765672e-001	1.337486e-001
29358672.000	9.765299e-001	1.336762e-001
29364666.000	9.765767e-001	1.336495e-001
29370660.000	9.765920e-001	1.336289e-001
29376654.000	9.765536e-001	1.335713e-001
29382648.000	9.765691e-001	1.335353e-001
29388642.000	9.765739e-001	1.334248e-001
29394636.000	9.765801e-001	1.334151e-001
29400630.000	9.765302e-001	1.333664e-001
29406624.000	9.765444e-001	1.333085e-001
29412618.000	9.765969e-001	1.332370e-001
29418612.000	9.765767e-001	1.332482e-001
29424606.000	9.766237e-001	1.331789e-001
29430600.000	9.766467e-001	1.331188e-001
29436594.000	9.766807e-001	1.330774e-001
29442588.000	9.766377e-001	1.330181e-001
29448582.000	9.766684e-001	1.329734e-001
29454576.000	9.766796e-001	1.329309e-001
29460570.000	9.766401e-001	1.328414e-001
29466564.000	9.766022e-001	1.328228e-001
29472558.000	9.766851e-001	1.328037e-001
29478552.000	9.766188e-001	1.327113e-001
29484546.000	9.766384e-001	1.326514e-001
29490540.000	9.766538e-001	1.326268e-001
29496534.000	9.766602e-001	1.325849e-001
29502528.000	9.766552e-001	1.325120e-001
29508522.000	9.766657e-001	1.324796e-001
29514516.000	9.766501e-001	1.324386e-001
29520510.000	9.766675e-001	1.323805e-001
29526504.000	9.766642e-001	1.323461e-001
29532498.000	9.766840e-001	1.323068e-001
29538492.000	9.766566e-001	1.322248e-001
29544486.000	9.767032e-001	1.321818e-001
29550480.000	9.767248e-001	1.321512e-001
29556474.000	9.766739e-001	1.320972e-001
29562468.000	9.767314e-001	1.320250e-001
29568462.000	9.766924e-001	1.320085e-001
29574456.000	9.767061e-001	1.319063e-001
29580450.000	9.767329e-001	1.319241e-001
29586444.000	9.767523e-001	1.318237e-001
29592438.000	9.767659e-001	1.318065e-001
29598432.000	9.767374e-001	1.317182e-001
29604426.000	9.767719e-001	1.317048e-001
29610420.000	9.767703e-001	1.316488e-001
29616414.000	9.767287e-001	1.315825e-001
29622408.000	9.767613e-001	1.315536e-001
29628402.000	9.768054e-001	1.314871e-001
29634396.000	9.767858e-001	1.314424e-001
29640390.000	9.767983e-001	1.314065e-001
29646384.000	9.768011e-001	1.313417e-001
29652378.000	9.768217e-001	1.312789e-001
29658372.000	9.767853e-001	1.312625e-001
29664366.000	9.767944e-001	1.312100e-001
29670360.000	9.768344e-001	1.311492e-001
29676354.000	9.768171e-001	1.311172e-001
29682348.000	9.768108e-001	1.310524e-001
29688342.000	9.768558e-001	1.310161e-001
29694336.000	9.768374e-001	1.309801e-001
29700330.000	9.768502e-001	1.309262e-001
29706324.000	9.768867e-001	1.308380e-001
29712318.000	9.768867e-001	1.307911e-001
29718312.000	9.768602e-001	1.307411e-001
29724306.000	9.768202e-001	1.307515e-001
29730300.000	9.768652e-001	1.306700e-001
29736294.000	9.768894e-001	1.306032e-001
29742288.000	9.768809e-001	1.305558e-001
29748282.000	9.768758e-001	1.305085e-001
29754276.000	9.768855e-001	1.304868e-001
29760270.000	9.768759e-001	1.304181e-001
29766264.000	9.769088e-001	1.303623e-001
29772258.000	9.769054e-001	1.303494e-001
29778252.000	9.769209e-001	1.302778e-001
29784246.000	9.768759e-001	1.301860e-001
29790240.000	9.768968e-001	1.301674e-001
29796234.000	9.769262e-001	1.301560e-001
29802228.000	9.768934e-001	1.300574e-001
29808222.000	9.769362e-001	1.300514e-001
29814216.000	9.769180e-001	1.299915e-001
29820210.000	9.769684e-001	1.299486e-001
29826204.000	9.770442e-001	1.299144e-001
29832198.000	9.769307e-001	1.298481e-001
29838192.000	9.769857e-001	1.297927e-001
29844186.000	9.769881e-001	1.297505e-001
29850180.000	9.769916e-001	1.297140e-001
29856174.000	9.770265e-001	1.296590e-001
29862168.000	9.770003e-001	1.295899e-001
29868162.000	9.769792e-001	1.295569e-001
29874156.000	9.769866e-001	1.295382e-001
29880150.000	9.770109e-001	1.294489e-001
29886144.000	9.769908e-001	1.294299e-001
29892138.000	9.770109e-001	1.293495e-001
29898132.000	9.769944e-001	1.293112e-001
29904126.000	9.769840e-001	1.292456e-001
29910120.000	9.770363e-001	1.292109e-001
29916114.000	9.770040e-001	1.292041e-001
29922108.000	9.770157e-001	1.291091e-001
29928102.000	9.770565e-001	1.290586e-001
29934096.000	9.770360e-001	1.290418e-001
29940090.000	9.770334e-001	1.289799e-001
29946084.000	9.770273e-001	1.289213e-001
29952078.000	9.770589e-001	1.288731e-001
29958072.000	9.770232e-001	1.288262e-001
29964066.000	9.770804e-001	1.287905e-001
29970060.000	9.770387e-001	1.287478e-001
29976054.000	9.770428e-001	1.286552e-001
29982048.000	9.770420e-001	1.286162e-001
29988042.000	9.770796e-001	1.285643e-001
29994036.000	9.770996e-001	1.285362e-001
30000030.000	9.771103e-001	1.284970e-001
30006024.000	9.771149e-001	1.284278e-001
30012018.000	9.770966e-001	1.283879e-001
30018012.000	9.770971e-001	1.283468e-001
30024006.000	9.770930e-001	1.282952e-001
30030000.000	9.771365e-001	1.282481e-001
30035994.000	9.771079e-001	1.282048e-001
30041988.000	9.771355e-001	1.281702e-001
30047982.000	9.771507e-001	1.281063e-001
30053976.000	9.771453e-001	1.280607e-001
30059970.000	9.771739e-001	1.280155e-001
30065964.000	9.771601e-001	1.279600e-001
30071958.000	9.771028e-001	1.279200e-001
30077952.000	9.771386e-001	1.278776e-001
30083946.000	9.771158e-001	1.277771e-001
30089940.000	9.771453e-001	1.277641e-001
30095934.000	9.771364e-001	1.277184e-001
30101928.000	9.771684e-001	1.276881e-001
30107922.000	9.771663e-001	1.276312e-001
30113916.000	9.771921e-001	1.275424e-001
30119910.000	9.772012e-001	1.275542e-001
30125904.000	9.771659e-001	1.274934e-001
30131898.000	9.771363e-001	1.274113e-001
30137892.000	9.771653e-001	1.273939e-001
30143886.000	9.772257e-001	1.273508e-001
30149880.000	9.772007e-001	1.273009e-001
30155874.000	9.771684e-001	1.273007e-001
30161868.000	9.771864e-001	1.272155e-001
30167862.000	9.772102e-001	1.271490e-001
30173856.000	9.772387e-001	1.270855e-001
30179850.000	9.771931e-001	1.270226e-001
30185844.000	9.772113e-001	1.270053e-001
30191838.000	9.772240e-001	1.269361e-001
30197832.000	9.772677e-001	1.269113e-001
30203826.000	9.772353e-001	1.268320e-001
30209820.000	9.772250e-001	1.268079e-001
30215814.000	9.772399e-001	1.267600e-001
30221808.000	9.772826e-001	1.267638e-001
30227802.000	9.773032e-001	1.266746e-001
30233796.000	9.773007e-001	1.266001e-001
30239790.000	9.773009e-001	1.265976e-001
30245784.000	9.773200e-001	1.265452e-001
30251778.000	9.772955e-001	1.264789e-001
30257772.000	9.773156e-001	1.264370e-001
30263766.000	9.773204e-001	1.264125e-001
30269760.000	9.773379e-001	1.263220e-001
30275754.000	9.773421e-001	1.263473e-001
30281748.000	9.773604e-001	1.262487e-001
30287742.000	9.773232e-001	1.261876e-001
30293736.000	9.773343e-001	1.261077e-001
30299730.000	9.773220e-001	1.261167e-001
30305724.000	9.773361e-001	1.260729e-001
30311718.000	9.773996e-001	1.260280e-001
30317712.000	9.773986e-001	1.259600e-001
30323706.000	9.773447e-001	1.259160e-001
30329700.000	9.773147e-001	1.258607e-001
30335694.000	9.773200e-001	1.258305e-001
30341688.000	9.773497e-001	1.257698e-001
30347682.000	9.773677e-001	1.257111e-001
30353676.000	9.773677e-001	1.256855e-001
30359670.000	9.773453e-001	1.256330e-001
30365664.000	9.773583e-001	1.256051e-001
30371658.000	9.774193e-001	1.255237e-001
30377652.000	9.774050e-001	1.254742e-001
30383646.000	9.774038e-001	1.254613e-001
30389640.000	9.773514e-001	1.253974e-001
30395634.000	9.773782e-001	1.253599e-001
30401628.000	9.773873e-001	1.253137e-001
30407622.000	9.774096e-001	1.252586e-001
30413616.000	9.773944e-001	1.251906e-001
30419610.000	9.774265e-001	1.251434e-001
30425604.000	9.774124e-001	1.251030e-001
30431598.000	9.774371e-001	1.250566e-001
30437592.000	9.773654e-001	1.249785e-001
30443586.000	9.774096e-001	1.249474e-001
30449580.000	9.774051e-001	1.249009e-001
30455574.000	9.773931e-001	1.248688e-001
30461568.000	9.773845e-001	1.247925e-001
30467562.000	9.774712e-001	1.247596e-001
30473556.000	9.774414e-001	1.247281e-001
30479550.000	9.774782e-001	1.247008e-001
30485544.000	9.774700e-001	1.246862e-001
30491538.000	9.774834e-001	1.246175e-001
30497532.000	9.774949e-001	1.245336e-001
30503526.000	9.774584e-001	1.245019e-001
30509520.000	9.774700e-001	1.244233e-001
30515514.000	9.775057e-001	1.244133e-001
30521508.000	9.774727e-001	1.243470e-001
30527502.000	9.775365e-001	1.242980e-001
30533496.000	9.775065e-001	1.242360e-001
30539490.000	9.775140e-001	1.242637e-001
30545484.000	9.775614e-001	1.242067e-001
30551478.000	9.774959e-001	1.241088e-001
30557472.000	9.775054e-001	1.240950e-001
30563466.000	9.775366e-001	1.240249e-001
30569460.000	9.775208e-001	1.239726e-001
30575454.000	9.775054e-001	1.239421e-001
30581448.000	9.775231e-001	1.238858e-001
30587442.000	9.775481e-001	1.238170e-001
30593436.000	9.775458e-001	1.237883e-001
30599430.000	9.775334e-001	1.237374e-001
30605424.000	9.775512e-001	1.237032e-001
30611418.000	9.775473e-001	1.236580e-001
30617412.000	9.775414e-001	1.235817e-001
30623406.000	9.775621e-001	1.236109e-001
30629400.000	9.775495e-001	1.235259e-001
30635394.000	9.775748e-001	1.234458e-001
30641388.000	9.775565e-001	1.234285e-001
30647382.000	9.775616e-001	1.233728e-001
30653376.000	9.775800e-001	1.233370e-001
30659370.000	9.775940e-001	1.232915e-001
30665364.000	9.776064e-001	1.232983e-001
30671358.000	9.775717e-001	1.231845e-001
30677352.000	9.776056e-001	1.231228e-001
30683346.000	9.776249e-001	1.230845e-001
30689340.000	9.776276e-001	1.230541e-001
30695334.000	9.776525e-001	1.230198e-001
30701328.000	9.776610e-001	1.229707e-001
30707322.000	9.776071e-001	1.229211e-001
30713316.000	9.776266e-001	1.228641e-001
30719310.000	9.776305e-001	1.227923e-001
30725304.000	9.776609e-001	1.227710e-001
30731298.000	9.776161e-001	1.227073e-001
30737292.000	9.776764e-001	1.226783e-001
30743286.000	9.776475e-001	1.226309e-001
30749280.000	9.776673e-001	1.226028e-001
30755274.000	9.776558e-001	1.225345e-001
30761268.000	9.776971e-001	1.225120e-001
30767262.000	9.776794e-001	1.224635e-001
30773256.000	9.776543e-001	1.224041e-001
30779250.000	9.777197e-001	1.223465e-001
30785244.000	9.776949e-001	1.223045e-001
30791238.000	9.776972e-001	1.222568e-001
30797232.000	9.777041e-001	1.221934e-001
30803226.000	9.776788e-001	1.221807e-001
30809220.000	9.777083e-001	1.221271e-001
30815214.000	9.777022e-001	1.220808e-001
30821208.000	9.777050e-001	1.220214e-001
30827202.000	9.777138e-001	1.219967e-001
30833196.000	9.777026e-001	1.219502e-001
30839190.000	9.777137e-001	1.218878e-001
30845184.000	9.777250e-001	1.218089e-001
30851178.000	9.777213e-001	1.217526e-001
30857172.000	9.776986e-001	1.217441e-001
30863166.000	9.777155e-001	1.216795e-001
30869160.000	9.777263e-001	1.216635e-001
30875154.000	9.777462e-001	1.215997e-001
30881148.000	9.777599e-001	1.215771e-001
30887142.000	9.777403e-001	1.215273e-001
30893136.000	9.777506e-001	1.214694e-001
30899130.000	9.777770e-001	1.214116e-001
30905124.000	9.778000e-001	1.214036e-001
30911118.000	9.777760e-001	1.213384e-001
30917112.000	9.777921e-001	1.212904e-001
30923106.000	9.777886e-001	1.212556e-001
30929100.000	9.778259e-001	1.211790e-001
30935094.000	9.777879e-001	1.211217e-001
30941088.000	9.777971e-001	1.211214e-001
30947082.000	9.777841e-001	1.210424e-001
30953076.000	9.778036e-001	1.210069e-001
30959070.000	9.778034e-001	1.209070e-001
30965064.000	9.778198e-001	1.209198e-001
30971058.000	9.777724e-001	1.208387e-001
30977052.000	9.778057e-001	1.207843e-001
30983046.000	9.778386e-001	1.208053e-001
30989040.000	9.778163e-001	1.207675e-001
30995034.000	9.778690e-001	1.206924e-001
31001028.000	9.778529e-001	1.206683e-001
31007022.000	9.779003e-001	1.205872e-001
31013016.000	9.778698e-001	1.205729e-001
31019010.000	9.778847e-001	1.205472e-001
31025004.000	9.779223e-001	1.204912e-001
31030998.000	9.778607e-001	1.204049e-001
31036992.000	9.779279e-001	1.203846e-001
31042986.000	9.779057e-001	1.203194e-001
31048980.000	9.778951e-001	1.202649e-001
31054974.000	9.778834e-001	1.202226e-001
31060968.000	9.778735e-001	1.201775e-001
31066962.000	9.778637e-001	1.201262e-001
31072956.000	9.778919e-001	1.201224e-001
31078950.000	9.778796e-001	1.200248e-001
31084944.000	9.779097e-001	1.200102e-001
31090938.000	9.779287e-001	1.199638e-001
31096932.000	9.778977e-001	1.198985e-001
31102926.000	9.779703e-001	1.198621e-001
31108920.000	9.779628e-001	1.198408e-001
31114914.000	9.779733e-001	1.197867e-001
31120908.000	9.779470e-001	1.197427e-001
31126902.000	9.779509e-001	1.197214e-001
31132896.000	9.779468e-001	1.196705e-001
31138890.000	9.779753e-001	1.195896e-001
31144884.000	9.779723e-001	1.195515e-001
31150878.000	9.779744e-001	1.195264e-001
31156872.000	9.779701e-001	1.194752e-001
31162866.000	9.779853e-001	1.194103e-001
31168860.000	9.780018e-001	1.193552e-001
31174854.000	9.780100e-001	1.193641e-001
31180848.000	9.780304e-001	1.193149e-001
31186842.000	9.780304e-001	1.192595e-001
31192836.000	9.780258e-001	1.192029e-001
31198830.000	9.780352e-001	1.191668e-001
31204824.000	9.779946e-001	1.191194e-001
31210818.000	9.780185e-001	1.190411e-001
31216812.000	9.780771e-001	1.189757e-001
31222806.000	9.780580e-001	1.190175e-001
31228800.000	9.780259e-001	1.189538e-001
31234794.000	9.779932e-001	1.188510e-001
31240788.000	9.779874e-001	1.188175e-001
31246782.000	9.779787e-001	1.187303e-001
31252776.000	9.780310e-001	1.187844e-001
31258770.000	9.780097e-001	1.187023e-001
31264764.000	9.780207e-001	1.186460e-001
31270758.000	9.780403e-001	1.185819e-001
31276752.000	9.780488e-001	1.185288e-001
31282746.000	9.780138e-001	1.184877e-001
31288740.000	9.780213e-001	1.184412e-001
31294734.000	9.780339e-001	1.184139e-001
31300728.000	9.780649e-001	1.183662e-001
31306722.000	9.780227e-001	1.183146e-001
31312716.000	9.780202e-001	1.182921e-001
31318710.000	9.780618e-001	1.182248e-001
31324704.000	9.781284e-001	1.182205e-001
31330698.000	9.781290e-001	1.181077e-001
31336692.000	9.780663e-001	1.180775e-001
31342686.000	9.780700e-001	1.180638e-001
31348680.000	9.780603e-001	1.180158e-001
31354674.000	9.781182e-001	1.179498e-001
31360668.000	9.781456e-001	1.179250e-001
31366662.000	9.781057e-001	1.178915e-001
31372656.000	9.780705e-001	1.178544e-001
31378650.000	9.781375e-001	1.178155e-001
31384644.000	9.781395e-001	1.177209e-001
31390638.000	9.781649e-001	1.176998e-001
31396632.000	9.781452e-001	1.176582e-001
31402626.000	9.783159e-001	1.176638e-001
31408620.000	9.781933e-001	1.175842e-001
31414614.000	9.781702e-001	1.175264e-001
31420608.000	9.781926e-001	1.174746e-001
31426602.000	9.781746e-001	1.174708e-001
31432596.000	9.782374e-001	1.174184e-001
31438590.000	9.781610e-001	1.173873e-001
31444584.000	9.781359e-001	1.173180e-001
31450578.000	9.781606e-001	1.172181e-001
31456572.000	9.781609e-001	1.172310e-001
31462566.000	9.781980e-001	1.171384e-001
31468560.000	9.781727e-001	1.170868e-001
31474554.000	9.782027e-001	1.170670e-001
31480548.000	9.781848e-001	1.170560e-001
31486542.000	9.781958e-001	1.169892e-001
31492536.000	9.781875e-001	1.169267e-001
31498530.000	9.781731e-001	1.168600e-001
31504524.000	9.781882e-001	1.168538e-001
31510518.000	9.782155e-001	1.167877e-001
31516512.000	9.782623e-001	1.167351e-001
31522506.000	9.782983e-001	1.167220e-001
31528500.000	9.782434e-001	1.166890e-001
31534494.000	9.782333e-001	1.166389e-001
31540488.000	9.782503e-001	1.165821e-001
31546482.000	9.782545e-001	1.165254e-001
31552476.000	9.782399e-001	1.165012e-001
31558470.000	9.782431e-001	1.164695e-001
31564464.000	9.782421e-001	1.163734e-001
31570458.000	9.782228e-001	1.163295e-001
31576452.000	9.782623e-001	1.162930e-001
31582446.000	9.782133e-001	1.162586e-001
31588440.000	9.782852e-001	1.162045e-001
31594434.000	9.782950e-001	1.161890e-001
31600428.000	9.782687e-001	1.160922e-001
31606422.000	9.782697e-001	1.160494e-001
31612416.000	9.782172e-001	1.160436e-001
31618410.000	9.783001e-001	1.159742e-001
31624404.000	9.782788e-001	1.159342e-001
31630398.000	9.783076e-001	1.159055e-001
31636392.000	9.782923e-001	1.158864e-001
31642386.000	9.782658e-001	1.158148e-001
31648380.000	9.783117e-001	1.157700e-001
31654374.000	9.783055e-001	1.157272e-001
31660368.000	9.782947e-001	1.156897e-001
31666362.000	9.782819e-001	1.156411e-001
31672356.000	9.783315e-001	1.155763e-001
31678350.000	9.783219e-001	1.155340e-001
31684344.000	9.783476e-001	1.154753e-001
31690338.000	9.783274e-001	1.154705e-001
31696332.000	9.782957e-001	1.153900e-001
31702326.000	9.783374e-001	1.153606e-001
31708320.000	9.783121e-001	1.153085e-001
31714314.000	9.783306e-001	1.152459e-001
31720308.000	9.783050e-001	1.152325e-001
31726302.000	9.783423e-001	1.151983e-001
31732296.000	9.783654e-001	1.151718e-001
31738290.000	9.783196e-001	1.150810e-001
31744284.000	9.784061e-001	1.150823e-001
31750278.000	9.783782e-001	1.149980e-001
31756272.000	9.783392e-001	1.149954e-001
31762266.000	9.783733e-001	1.149498e-001
31768260.000	9.783729e-001	1.148900e-001
31774254.000	9.783669e-001	1.148186e-001
31780248.000	9.783963e-001	1.148199e-001
31786242.000	9.783475e-001	1.147789e-001
31792236.000	9.784167e-001	1.147126e-001
31798230.000	9.784248e-001	1.146895e-001
31804224.000	9.784103e-001	1.146200e-001
31810218.000	9.784243e-001	1.145613e-001
31816212.000	9.784038e-001	1.145131e-001
31822206.000	9.784273e-001	1.144713e-001
31828200.000	9.784019e-001	1.144571e-001
31834194.000	9.784138e-001	1.144025e-001
31840188.000	9.784369e-001	1.143784e-001
31846182.000	9.784383e-001	1.143140e-001
31852176.000	9.784951e-001	1.142677e-001
31858170.000	9.784514e-001	1.142238e-001
31864164.000	9.784797e-001	1.141390e-001
31870158.000	9.784452e-001	1.141273e-001
31876152.000	9.784865e-001	1.141269e-001
31882146.000	9.784494e-001	1.140413e-001
31888140.000	9.784837e-001	1.140137e-001
31894134.000	9.784835e-001	1.139850e-001
31900128.000	9.784953e-001	1.139664e-001
31906122.000	9.784712e-001	1.138783e-001
31912116.000	9.785206e-001	1.138483e-001
31918110.000	9.785105e-001	1.137881e-001
31924104.000	9.784761e-001	1.137695e-001
31930098.000	9.785418e-001	1.137250e-001
31936092.000	9.785034e-001	1.136581e-001
31942086.000	9.784693e-001	1.135978e-001
31948080.000	9.785271e-001	1.135712e-001
31954074.000	9.784818e-001	1.134982e-001
31960068.000	9.785053e-001	1.134592e-001
31966062.000	9.785302e-001	1.134352e-001
31972056.000	9.785014e-001	1.133883e-001
31978050.000	9.785126e-001	1.133233e-001
31984044.000	9.785389e-001	1.132809e-001
31990038.000	9.785270e-001	1.132758e-001
31996032.000	9.785215e-001	1.132106e-001
32002026.000	9.785191e-001	1.131869e-001
32008020.000	9.785024e-001	1.131436e-001
32014014.000	9.785576e-001	1.130971e-001
32020008.000	9.785324e-001	1.130344e-001
32026002.000	9.785676e-001	1.130342e-001
32031996.000	9.785242e-001	1.129684e-001
32037990.000	9.785735e-001	1.129082e-001
32043984.000	9.785771e-001	1.128696e-001
32049978.000	9.785431e-001	1.128398e-001
32055972.000	9.785398e-001	1.127465e-001
32061966.000	9.785706e-001	1.126947e-001
32067960.000	9.785281e-001	1.126785e-001
32073954.000	9.785502e-001	1.126374e-001
32079948.000	9.785884e-001	1.126037e-001
32085942.000	9.785719e-001	1.125451e-001
32091936.000	9.785696e-001	1.125268e-001
32097930.000	9.785907e-001	1.124632e-001
32103924.000	9.785711e-001	1.124259e-001
32109918.000	9.785529e-001	1.123852e-001
32115912.000	9.786239e-001	1.123502e-001
32121906.000	9.786287e-001	1.122763e-001
32127900.000	9.785852e-001	1.122655e-001
32133894.000	9.786499e-001	1.121934e-001
32139888.000	9.786309e-001	1.122080e-001
32145882.000	9.786270e-001	1.121162e-001
32151876.000	9.786515e-001	1.120819e-001
32157870.000	9.785906e-001	1.120849e-001
32163864.000	9.786011e-001	1.119910e-001
32169858.000	9.786199e-001	1.119786e-001
32175852.000	9.786480e-001	1.119255e-001
32181846.000	9.786423e-001	1.118903e-001
32187840.000	9.786771e-001	1.118020e-001
32193834.000	9.786377e-001	1.117501e-001
32199828.000	9.786401e-001	1.116897e-001
32205822.000	9.786520e-001	1.116883e-001
32211816.000	9.786168e-001	1.116367e-001
32217810.000	9.785805e-001	1.115736e-001
32223804.000	9.786544e-001	1.116066e-001
32229798.000	9.786719e-001	1.115481e-001
32235792.000	9.786556e-001	1.114534e-001
32241786.000	9.786543e-001	1.114462e-001
32247780.000	9.786755e-001	1.113837e-001
32253774.000	9.787199e-001	1.113784e-001
32259768.000	9.787287e-001	1.113210e-001
32265762.000	9.787184e-001	1.112665e-001
32271756.000	9.786975e-001	1.112247e-001
32277750.000	9.787019e-001	1.111432e-001
32283744.000	9.786992e-001	1.111378e-001
32289738.000	9.787256e-001	1.110665e-001
32295732.000	9.786751e-001	1.110279e-001
32301726.000	9.787107e-001	1.110070e-001
32307720.000	9.786975e-001	1.109633e-001
32313714.000	9.787220e-001	1.109270e-001
32319708.000	9.786804e-001	1.108977e-001
32325702.000	9.786791e-001	1.108530e-001
32331696.000	9.786843e-001	1.107527e-001
32337690.000	9.787209e-001	1.107310e-001
32343684.000	9.787609e-001	1.107174e-001
32349678.000	9.787551e-001	1.106248e-001
32355672.000	9.787688e-001	1.106086e-001
32361666.000	9.787626e-001	1.106183e-001
32367660.000	9.787004e-001	1.105120e-001
32373654.000	9.787340e-001	1.104565e-001
32379648.000	9.787374e-001	1.104311e-001
32385642.000	9.787312e-001	1.103932e-001
32391636.000	9.787493e-001	1.103569e-001
32397630.000	9.787747e-001	1.102898e-001
32403624.000	9.787697e-001	1.102896e-001
32409618.000	9.787889e-001	1.101841e-001
32415612.000	9.788219e-001	1.101746e-001
32421606.000	9.787565e-001	1.101246e-001
32427600.000	9.787725e-001	1.100747e-001
32433594.000	9.787490e-001	1.100113e-001
32439588.000	9.787881e-001	1.100091e-001
32445582.000	9.787419e-001	1.099750e-001
32451576.000	9.788100e-001	1.099257e-001
32457570.000	9.788085e-001	1.098853e-001
32463564.000	9.787877e-001	1.098496e-001
32469558.000	9.787943e-001	1.097755e-001
32475552.000	9.787833e-001	1.097546e-001
32481546.000	9.787749e-001	1.096933e-001
32487540.000	9.787270e-001	1.096677e-001
32493534.000	9.787776e-001	1.096098e-001
32499528.000	9.787850e-001	1.095878e-001
32505522.000	9.788304e-001	1.095032e-001
32511516.000	9.787746e-001	1.094837e-001
32517510.000	9.788187e-001	1.094681e-001
32523504.000	9.788140e-001	1.093766e-001
32529498.000	9.788299e-001	1.093534e-001
32535492.000	9.788370e-001	1.093187e-001
32541486.000	9.788426e-001	1.092980e-001
32547480.000	9.788272e-001	1.092441e-001
32553474.000	9.787928e-001	1.091677e-001
32559468.000	9.788246e-001	1.091135e-001
32565462.000	9.788254e-001	1.090698e-001
32571456.000	9.788565e-001	1.090768e-001
32577450.000	9.788643e-001	1.089843e-001
32583444.000	9.788439e-001	1.089808e-001
32589438.000	9.788169e-001	1.089851e-001
32595432.000	9.788536e-001	1.088554e-001
32601426.000	9.789270e-001	1.088525e-001
32607420.000	9.788222e-001	1.087761e-001
32613414.000	9.788851e-001	1.087572e-001
32619408.000	9.788728e-001	1.087178e-001
32625402.000	9.789294e-001	1.086378e-001
32631396.000	9.788954e-001	1.086310e-001
32637390.000	9.789218e-001	1.085828e-001
32643384.000	9.789346e-001	1.085845e-001
32649378.000	9.789224e-001	1.085224e-001
32655372.000	9.789410e-001	1.084632e-001
32661366.000	9.788409e-001	1.083979e-001
32667360.000	9.789406e-001	1.084298e-001
32673354.000	9.789470e-001	1.083606e-001
32679348.000	9.789172e-001	1.082977e-001
32685342.000	9.789057e-001	1.082833e-001
32691336.000	9.788964e-001	1.082134e-001
32697330.000	9.788982e-001	1.081738e-001
32703324.000	9.789318e-001	1.081215e-001
32709318.000	9.789148e-001	1.081065e-001
32715312.000	9.789115e-001	1.080548e-001
32721306.000	9.789179e-001	1.080156e-001
32727300.000	9.789457e-001	1.079443e-001
32733294.000	9.789795e-001	1.079090e-001
32739288.000	9.789158e-001	1.078553e-001
32745282.000	9.789647e-001	1.078161e-001
32751276.000	9.789382e-001	1.077900e-001
32757270.000	9.789745e-001	1.077427e-001
32763264.000	9.789868e-001	1.076756e-001
32769258.000	9.789136e-001	1.076599e-001
32775252.000	9.789455e-001	1.076071e-001
32781246.000	9.789771e-001	1.075953e-001
32787240.000	9.790035e-001	1.075148e-001
32793234.000	9.789825e-001	1.075256e-001
32799228.000	9.789735e-001	1.074184e-001
32805222.000	9.790142e-001	1.074161e-001
32811216.000	9.790287e-001	1.073711e-001
32817210.000	9.789104e-001	1.073278e-001
32823204.000	9.789787e-001	1.072978e-001
32829198.000	9.790051e-001	1.072291e-001
32835192.000	9.789798e-001	1.071728e-001
32841186.000	9.790361e-001	1.071469e-001
32847180.000	9.789841e-001	1.071033e-001
32853174.000	9.790342e-001	1.070784e-001
32859168.000	9.790648e-001	1.070653e-001
32865162.000	9.790508e-001	1.069904e-001
32871156.000	9.790473e-001	1.069904e-001
32877150.000	9.790136e-001	1.068695e-001
32883144.000	9.790593e-001	1.068649e-001
32889138.000	9.790476e-001	1.068335e-001
32895132.000	9.790765e-001	1.067923e-001
32901126.000	9.790559e-001	1.067426e-001
32907120.000	9.790628e-001	1.067011e-001
32913114.000	9.790922e-001	1.066768e-001
32919108.000	9.790710e-001	1.066378e-001
32925102.000	9.790963e-001	1.065748e-001
32931096.000	9.790890e-001	1.065498e-001
32937090.000	9.790541e-001	1.065077e-001
32943084.000	9.791129e-001	1.064701e-001
32949078.000	9.790885e-001	1.064116e-001
32955072.000	9.790884e-001	1.063828e-001
32961066.000	9.790939e-001	1.063103e-001
32967060.000	9.791467e-001	1.062838e-001
32973054.000	9.791118e-001	1.062396e-001
32979048.000	9.791329e-001	1.061792e-001
32985042.000	9.790971e-001	1.061406e-001
32991036.000	9.791278e-001	1.060998e-001
32997030.000	9.791207e-001	1.060919e-001
33003024.000	9.791419e-001	1.060219e-001
33009018.000	9.790952e-001	1.059839e-001
33015012.000	9.791640e-001	1.059461e-001
33021006.000	9.791594e-001	1.059161e-001
33027000.000	9.791400e-001	1.058824e-001
33032994.000	9.791939e-001	1.058347e-001
33038988.000	9.791320e-001	1.057386e-001
33044982.000	9.791731e-001	1.057435e-001
33050976.000	9.791610e-001	1.056948e-001
33056970.000	9.791379e-001	1.056889e-001
33062964.000	9.791703e-001	1.056239e-001
33068958.000	9.792160e-001	1.055774e-001
33074952.000	9.792232e-001	1.055379e-001
33080946.000	9.791551e-001	1.055068e-001
33086940.000	9.791053e-001	1.054462e-001
33092934.000	9.791886e-001	1.054216e-001
33098928.000	9.791331e-001	1.053641e-001
33104922.000	9.791570e-001	1.053347e-001
33110916.000	9.792038e-001	1.052821e-001
33116910.000	9.791882e-001	1.052471e-001
33122904.000	9.791870e-001	1.052020e-001
33128898.000	9.791700e-001	1.051223e-001
33134892.000	9.791959e-001	1.050839e-001
33140886.000	9.792397e-001	1.050877e-001
33146880.000	9.791976e-001	1.050234e-001
33152874.000	9.792593e-001	1.049880e-001
33158868.000	9.792028e-001	1.049392e-001
33164862.000	9.792390e-001	1.049153e-001
33170856.000	9.792168e-001	1.048714e-001
33176850.000	9.792679e-001	1.048282e-001
33182844.000	9.792098e-001	1.047431e-001
33188838.000	9.791977e-001	1.047322e-001
33194832.000	9.791834e-001	1.046975e-001
33200826.000	9.792302e-001	1.046465e-001
33206820.000	9.791992e-001	1.046014e-001
33212814.000	9.792051e-001	1.045782e-001
33218808.000	9.792066e-001	1.045118e-001
33224802.000	9.792222e-001	1.044825e-001
33230796.000	9.792475e-001	1.044466e-001
33236790.000	9.792618e-001	1.044451e-001
33242784.000	9.792004e-001	1.043557e-001
33248778.000	9.792161e-001	1.043283e-001
33254772.000	9.792621e-001	1.042816e-001
33260766.000	9.792365e-001	1.042597e-001
33266760.000	9.792541e-001	1.041962e-001
33272754.000	9.791914e-001	1.041498e-001
33278748.000	9.792732e-001	1.041065e-001
33284742.000	9.792468e-001	1.040838e-001
33290736.000	9.792437e-001	1.040515e-001
33296730.000	9.792351e-001	1.039860e-001
33302724.000	9.792575e-001	1.039370e-001
33308718.000	9.792504e-001	1.038907e-001
33314712.000	9.792757e-001	1.038444e-001
33320706.000	9.792761e-001	1.038206e-001
33326700.000	9.792598e-001	1.037706e-001
33332694.000	9.793012e-001	1.037444e-001
33338688.000	9.793296e-001	1.036772e-001
33344682.000	9.793055e-001	1.036507e-001
33350676.000	9.792838e-001	1.036376e-001
33356670.000	9.792837e-001	1.035638e-001
33362664.000	9.792664e-001	1.035447e-001
33368658.000	9.792856e-001	1.035024e-001
33374652.000	9.793006e-001	1.034482e-001
33380646.000	9.792840e-001	1.034141e-001
33386640.000	9.792545e-001	1.033749e-001
33392634.000	9.792947e-001	1.033333e-001
33398628.000	9.792787e-001	1.032668e-001
33404622.000	9.793325e-001	1.032270e-001
33410616.000	9.792627e-001	1.031937e-001
33416610.000	9.792862e-001	1.031853e-001
33422604.000	9.793049e-001	1.031021e-001
33428598.000	9.793195e-001	1.030283e-001
33434592.000	9.792994e-001	1.030302e-001
33440586.000	9.793144e-001	1.029602e-001
33446580.000	9.793026e-001	1.029335e-001
33452574.000	9.793472e-001	1.029013e-001
33458568.000	9.793752e-001	1.028776e-001
33464562.000	9.794088e-001	1.028583e-001
33470556.000	9.793498e-001	1.027967e-001
33476550.000	9.793403e-001	1.027485e-001
33482544.000	9.793991e-001	1.026953e-001
33488538.000	9.794007e-001	1.026056e-001
33494532.000	9.794179e-001	1.026629e-001
33500526.000	9.794018e-001	1.026035e-001
33506520.000	9.793783e-001	1.025162e-001
33512514.000	9.793935e-001	1.025301e-001
33518508.000	9.793639e-001	1.024465e-001
33524502.000	9.793637e-001	1.024391e-001
33530496.000	9.794170e-001	1.023617e-001
33536490.000	9.793648e-001	1.023506e-001
33542484.000	9.793733e-001	1.023029e-001
33548478.000	9.793383e-001	1.022575e-001
33554472.000	9.794209e-001	1.022220e-001
33560466.000	9.794633e-001	1.021726e-001
33566460.000	9.793658e-001	1.021479e-001
33572454.000	9.794046e-001	1.021025e-001
33578448.000	9.794354e-001	1.020377e-001
33584442.000	9.794582e-001	1.020410e-001
33590436.000	9.794449e-001	1.019989e-001
33596430.000	9.794470e-001	1.019191e-001
33602424.000	9.794569e-001	1.019041e-001
33608418.000	9.794697e-001	1.018816e-001
33614412.000	9.794792e-001	1.017999e-001
33620406.000	9.794389e-001	1.017815e-001
33626400.000	9.794611e-001	1.017445e-001
33632394.000	9.794585e-001	1.016809e-001
33638388.000	9.794573e-001	1.016742e-001
33644382.000	9.794640e-001	1.016086e-001
33650376.000	9.794891e-001	1.015802e-001
33656370.000	9.794683e-001	1.015771e-001
33662364.000	9.794683e-001	1.014873e-001
33668358.000	9.794438e-001	1.014553e-001
33674352.000	9.794896e-001	1.014150e-001
33680346.000	9.794750e-001	1.013606e-001
33686340.000	9.794647e-001	1.013422e-001
33692334.000	9.795231e-001	1.013221e-001
33698328.000	9.795041e-001	1.012593e-001
33704322.000	9.795041e-001	1.012198e-001
33710316.000	9.794806e-001	1.011922e-001
33716310.000	9.794802e-001	1.011115e-001
33722304.000	9.794884e-001	1.011068e-001
33728298.000	9.795093e-001	1.010337e-001
33734292.000	9.794814e-001	1.010397e-001
33740286.000	9.794836e-001	1.009438e-001
33746280.000	9.794933e-001	1.009054e-001
33752274.000	9.795287e-001	1.008869e-001
33758268.000	9.795222e-001	1.008246e-001
33764262.000	9.795059e-001	1.007964e-001
33770256.000	9.795250e-001	1.007641e-001
33776250.000	9.795033e-001	1.007056e-001
33782244.000	9.795241e-001	1.006482e-001
33788238.000	9.795182e-001	1.006272e-001
33794232.000	9.795508e-001	1.006309e-001
33800226.000	9.794956e-001	1.005360e-001
33806220.000	9.795094e-001	1.004946e-001
33812214.000	9.794697e-001	1.004494e-001
33818208.000	9.795302e-001	1.004033e-001
33824202.000	9.794857e-001	1.003859e-001
33830196.000	9.794858e-001	1.003629e-001
33836190.000	9.795091e-001	1.003316e-001
33842184.000	9.795419e-001	1.002852e-001
33848178.000	9.795173e-001	1.002418e-001
33854172.000	9.795319e-001	1.002137e-001
33860166.000	9.795389e-001	1.001752e-001
33866160.000	9.795420e-001	1.001541e-001
33872154.000	9.795312e-001	1.000993e-001
33878148.000	9.795728e-001	1.000392e-001
33884142.000	9.795291e-001	9.998580e-002
33890136.000	9.796049e-001	9.997039e-002
33896130.000	9.795860e-001	9.986708e-002
33902124.000	9.797595e-001	9.991615e-002
33908118.000	9.796236e-001	9.982529e-002
33914112.000	9.795768e-001	9.978388e-002
33920106.000	9.795600e-001	9.977238e-002
33926100.000	9.795755e-001	9.969314e-002
33932094.000	9.795831e-001	9.967368e-002
33938088.000	9.795589e-001	9.962087e-002
33944082.000	9.796388e-001	9.957464e-002
33950076.000	9.795974e-001	9.957658e-002
33956070.000	9.796395e-001	9.951151e-002
33962064.000	9.795991e-001	9.945273e-002
33968058.000	9.795906e-001	9.942557e-002
33974052.000	9.795956e-001	9.935888e-002
33980046.000	9.795756e-001	9.930134e-002
33986040.000	9.796116e-001	9.931223e-002
33992034.000	9.796431e-001	9.925361e-002
33998028.000	9.796387e-001	9.919581e-002
34004022.000	9.796491e-001	9.918580e-002
34010016.000	9.796717e-001	9.916516e-002
34016010.000	9.796662e-001	9.910191e-002
34022004.000	9.796520e-001	9.907245e-002
34027998.000	9.796615e-001	9.903229e-002
34033992.000	9.796576e-001	9.900055e-002
34039986.000	9.796829e-001	9.896981e-002
34045980.000	9.797082e-001	9.893287e-002
34051974.000	9.797003e-001	9.885191e-002
34057968.000	9.796465e-001	9.884897e-002
34063962.000	9.796230e-001	9.877940e-002
34069956.000	9.796821e-001	9.876238e-002
34075950.000	9.797155e-001	9.868765e-002
34081944.000	9.796660e-001	9.866039e-002
34087938.000	9.796895e-001	9.861930e-002
34093932.000	9.796785e-001	9.853155e-002
34099926.000	9.796940e-001	9.855129e-002
34105920.000	9.796697e-001	9.849196e-002
34111914.000	9.796471e-001	9.845408e-002
34117908.000	9.796673e-001	9.841987e-002
34123902.000	9.796653e-001	9.839784e-002
34129896.000	9.796527e-001	9.830718e-002
34135890.000	9.797081e-001	9.831061e-002
34141884.000	9.796928e-001	9.829160e-002
34147878.000	9.796495e-001	9.822728e-002
34153872.000	9.796577e-001	9.815519e-002
34159866.000	9.796989e-001	9.817251e-002
34165860.000	9.796829e-001	9.812340e-002
34171854.000	9.796639e-001	9.809006e-002
34177848.000	9.797401e-001	9.803668e-002
34183842.000	9.797292e-001	9.799456e-002
34189836.000	9.797261e-001	9.795684e-002
34195830.000	9.797120e-001	9.791405e-002
34201824.000	9.797644e-001	9.789659e-002
34207818.000	9.797028e-001	9.782358e-002
34213812.000	9.797189e-001	9.777387e-002
34219806.000	9.798030e-001	9.780143e-002
34225800.000	9.797960e-001	9.772125e-002
34231794.000	9.797621e-001	9.765794e-002
34237788.000	9.797556e-001	9.763430e-002
34243782.000	9.797598e-001	9.759214e-002
34249776.000	9.797839e-001	9.756526e-002
34255770.000	9.798024e-001	9.749318e-002
34261764.000	9.798056e-001	9.749944e-002
34267758.000	9.798104e-001	9.746499e-002
34273752.000	9.798366e-001	9.738974e-002
34279746.000	9.797925e-001	9.734035e-002
34285740.000	9.797868e-001	9.733212e-002
34291734.000	9.797626e-001	9.727375e-002
34297728.000	9.797423e-001	9.723993e-002
34303722.000	9.797842e-001	9.721760e-002
34309716.000	9.798005e-001	9.717624e-002
34315710.000	9.798387e-001	9.713036e-002
34321704.000	9.798397e-001	9.710400e-002
34327698.000	9.798158e-001	9.703698e-002
34333692.000	9.798370e-001	9.698271e-002
34339686.000	9.798428e-001	9.696616e-002
34345680.000	9.798064e-001	9.692178e-002
34351674.000	9.798387e-001	9.688156e-002
34357668.000	9.798455e-001	9.684479e-002
34363662.000	9.798030e-001	9.679963e-002
34369656.000	9.797969e-001	9.678665e-002
34375650.000	9.798345e-001	9.672818e-002
34381644.000	9.798469e-001	9.670259e-002
34387638.000	9.798585e-001	9.662348e-002
34393632.000	9.798455e-001	9.661955e-002
34399626.000	9.798670e-001	9.654665e-002
34405620.000	9.798127e-001	9.649327e-002
34411614.000	9.798432e-001	9.649083e-002
34417608.000	9.798247e-001	9.643242e-002
34423602.000	9.797872e-001	9.641363e-002
34429596.000	9.798411e-001	9.632184e-002
34435590.000	9.798558e-001	9.637214e-002
34441584.000	9.798590e-001	9.630551e-002
34447578.000	9.798715e-001	9.626586e-002
34453572.000	9.798354e-001	9.621730e-002
34459566.000	9.798942e-001	9.617643e-002
34465560.000	9.798375e-001	9.616090e-002
34471554.000	9.798492e-001	9.607848e-002
34477548.000	9.798246e-001	9.606178e-002
34483542.000	9.798686e-001	9.599274e-002
34489536.000	9.798642e-001	9.595679e-002
34495530.000	9.798824e-001	9.590526e-002
34501524.000	9.798730e-001	9.590700e-002
34507518.000	9.798801e-001	9.585276e-002
34513512.000	9.799212e-001	9.581284e-002
34519506.000	9.798920e-001	9.576301e-002
34525500.000	9.799234e-001	9.575983e-002
34531494.000	9.798573e-001	9.568026e-002
34537488.000	9.799024e-001	9.566814e-002
34543482.000	9.798522e-001	9.561211e-002
34549476.000	9.798342e-001	9.557548e-002
34555470.000	9.798765e-001	9.557869e-002
34561464.000	9.798321e-001	9.545806e-002
34567458.000	9.798717e-001	9.544485e-002
34573452.000	9.799040e-001	9.540844e-002
34579446.000	9.799031e-001	9.538053e-002
34585440.000	9.798974e-001	9.532971e-002
34591434.000	9.798919e-001	9.531487e-002
34597428.000	9.799523e-001	9.524996e-002
34603422.000	9.799381e-001	9.521293e-002
34609416.000	9.799477e-001	9.518394e-002
34615410.000	9.799175e-001	9.516709e-002
34621404.000	9.798899e-001	9.509500e-002
34627398.000	9.799234e-001	9.505390e-002
34633392.000	9.799154e-001	9.501351e-002
34639386.000	9.799383e-001	9.499133e-002
34645380.000	9.799556e-001	9.492749e-002
34651374.000	9.799295e-001	9.493087e-002
34657368.000	9.799160e-001	9.484611e-002
34663362.000	9.799322e-001	9.486524e-002
34669356.000	9.799281e-001	9.478068e-002
34675350.000	9.799016e-001	9.476813e-002
34681344.000	9.799404e-001	9.468869e-002
34687338.000	9.799619e-001	9.465645e-002
34693332.000	9.799481e-001	9.459471e-002
34699326.000	9.799728e-001	9.461011e-002
34705320.000	9.799858e-001	9.456175e-002
34711314.000	9.800088e-001	9.454734e-002
34717308.000	9.799804e-001	9.448732e-002
34723302.000	9.799764e-001	9.445420e-002
34729296.000	9.799570e-001	9.437422e-002
34735290.000	9.799570e-001	9.438104e-002
34741284.000	9.799821e-001	9.434252e-002
34747278.000	9.799607e-001	9.427851e-002
34753272.000	9.800164e-001	9.421941e-002
34759266.000	9.800066e-001	9.423715e-002
34765260.000	9.799802e-001	9.415400e-002
34771254.000	9.800186e-001	9.412065e-002
34777248.000	9.800219e-001	9.407682e-002
34783242.000	9.799881e-001	9.406762e-002
34789236.000	9.799962e-001	9.403727e-002
34795230.000	9.799782e-001	9.398112e-002
34801224.000	9.800411e-001	9.395870e-002
34807218.000	9.800381e-001	9.387148e-002
34813212.000	9.799785e-001	9.384504e-002
34819206.000	9.800211e-001	9.379536e-002
34825200.000	9.800834e-001	9.378525e-002
34831194.000	9.800491e-001	9.375795e-002
34837188.000	9.800535e-001	9.372893e-002
34843182.000	9.800400e-001	9.367661e-002
34849176.000	9.800664e-001	9.362555e-002
34855170.000	9.800377e-001	9.362244e-002
34861164.000	9.801087e-001	9.355878e-002
34867158.000	9.800303e-001	9.353470e-002
34873152.000	9.800436e-001	9.347282e-002
34879146.000	9.800439e-001	9.342767e-002
34885140.000	9.800446e-001	9.339512e-002
34891134.000	9.800164e-001	9.336049e-002
34897128.000	9.800177e-001	9.332661e-002
34903122.000	9.800353e-001	9.331817e-002
34909116.000	9.800460e-001	9.322045e-002
34915110.000	9.800421e-001	9.321890e-002
34921104.000	9.800695e-001	9.316327e-002
34927098.000	9.800697e-001	9.316108e-002
34933092.000	9.800747e-001	9.308693e-002
34939086.000	9.800858e-001	9.305809e-002
34945080.000	9.800547e-001	9.302254e-002
34951074.000	9.801264e-001	9.298613e-002
34957068.000	9.801192e-001	9.291612e-002
34963062.000	9.801146e-001	9.288626e-002
34969056.000	9.801420e-001	9.285153e-002
34975050.000	9.800513e-001	9.280606e-002
34981044.000	9.801241e-001	9.277888e-002
34987038.000	9.801076e-001	9.275653e-002
34993032.000	9.800621e-001	9.269235e-002
34999026.000	9.800797e-001	9.265905e-002
35005020.000	9.801135e-001	9.261053e-002
35011014.000	9.800703e-001	9.259316e-002
35017008.000	9.800590e-001	9.254435e-002
35023002.000	9.800679e-001	9.250758e-002
35028996.000	9.800275e-001	9.244923e-002
35034990.000	9.800197e-001	9.242465e-002
35040984.000	9.800765e-001	9.237142e-002
35046978.000	9.800462e-001	9.234651e-002
35052972.000	9.801377e-001	9.231012e-002
35058966.000	9.801526e-001	9.227914e-002
35064960.000	9.801367e-001	9.225647e-002
35070954.000	9.801087e-001	9.223675e-002
35076948.000	9.801074e-001	9.214189e-002
35082942.000	9.801014e-001	9.210612e-002
35088936.000	9.801121e-001	9.209179e-002
35094930.000	9.800666e-001	9.203543e-002
35100924.000	9.801406e-001	9.198849e-002
35106918.000	9.800796e-001	9.196523e-002
35112912.000	9.800605e-001	9.192487e-002
35118906.000	9.800973e-001	9.191903e-002
35124900.000	9.801114e-001	9.188285e-002
35130894.000	9.801042e-001	9.180660e-002
35136888.000	9.800719e-001	9.176885e-002
35142882.000	9.800904e-001	9.173100e-002
35148876.000	9.800724e-001	9.171236e-002
35154870.000	9.800646e-001	9.166142e-002
35160864.000	9.801380e-001	9.162738e-002
35166858.000	9.801843e-001	9.162825e-002
35172852.000	9.801494e-001	9.151658e-002
35178846.000	9.801547e-001	9.152274e-002
35184840.000	9.800829e-001	9.144524e-002
35190834.000	9.801505e-001	9.138629e-002
35196828.000	9.801720e-001	9.143736e-002
35202822.000	9.801373e-001	9.134948e-002
35208816.000	9.801860e-001	9.131796e-002
35214810.000	9.801741e-001	9.127627e-002
35220804.000	9.801598e-001	9.121386e-002
35226798.000	9.801658e-001	9.122387e-002
35232792.000	9.801712e-001	9.116333e-002
35238786.000	9.801782e-001	9.112584e-002
35244780.000	9.801857e-001	9.108135e-002
35250774.000	9.801606e-001	9.104469e-002
35256768.000	9.801956e-001	9.099532e-002
35262762.000	9.801550e-001	9.096770e-002
35268756.000	9.801775e-001	9.095861e-002
35274750.000	9.801498e-001	9.089774e-002
35280744.000	9.802280e-001	9.088003e-002
35286738.000	9.802087e-001	9.080910e-002
35292732.000	9.802096e-001	9.075185e-002
35298726.000	9.802216e-001	9.075947e-002
35304720.000	9.801634e-001	9.070425e-002
35310714.000	9.801623e-001	9.062934e-002
35316708.000	9.801841e-001	9.059250e-002
35322702.000	9.801812e-001	9.060322e-002
35328696.000	9.801508e-001	9.052807e-002
35334690.000	9.801655e-001	9.050113e-002
35340684.000	9.802396e-001	9.048133e-002
35346678.000	9.802107e-001	9.046102e-002
35352672.000	9.801899e-001	9.036940e-002
35358666.000	9.802033e-001	9.038130e-002
35364660.000	9.802226e-001	9.031229e-002
35370654.000	9.801994e-001	9.026112e-002
35376648.000	9.801946e-001	9.025778e-002
35382642.000	9.801703e-001	9.020773e-002
35388636.000	9.801665e-001	9.017292e-002
35394630.000	9.802020e-001	9.011928e-002
35400624.000	9.801894e-001	9.005106e-002
35406618.000	9.801930e-001	9.005194e-002
35412612.000	9.802280e-001	9.003352e-002
35418606.000	9.802111e-001	9.000121e-002
35424600.000	9.802577e-001	8.993703e-002
35430594.000	9.802118e-001	8.992857e-002
35436588.000	9.801744e-001	8.983331e-002
35442582.000	9.802410e-001	8.982437e-002
35448576.000	9.802347e-001	8.985260e-002
35454570.000	9.802164e-001	8.971317e-002
35460564.000	9.802062e-001	8.968333e-002
35466558.000	9.801887e-001	8.967442e-002
35472552.000	9.802230e-001	8.966168e-002
35478546.000	9.802155e-001	8.957049e-002
35484540.000	9.802348e-001	8.955281e-002
35490534.000	9.802102e-001	8.951427e-002
35496528.000	9.802374e-001	8.947665e-002
35502522.000	9.802831e-001	8.944182e-002
35508516.000	9.802697e-001	8.943627e-002
35514510.000	9.802426e-001	8.939477e-002
35520504.000	9.802043e-001	8.933065e-002
35526498.000	9.802716e-001	8.930771e-002
35532492.000	9.802671e-001	8.926710e-002
35538486.000	9.802518e-001	8.922023e-002
35544480.000	9.802683e-001	8.917384e-002
35550474.000	9.802471e-001	8.915197e-002
35556468.000	9.802473e-001	8.909595e-002
35562462.000	9.802194e-001	8.905863e-002
35568456.000	9.802479e-001	8.901447e-002
35574450.000	9.802299e-001	8.896790e-002
35580444.000	9.802610e-001	8.892348e-002
35586438.000	9.802778e-001	8.893758e-002
35592432.000	9.802671e-001	8.887090e-002
35598426.000	9.802980e-001	8.888428e-002
35604420.000	9.802744e-001	8.884514e-002
35610414.000	9.802803e-001	8.882362e-002
35616408.000	9.802998e-001	8.876007e-002
35622402.000	9.802725e-001	8.870059e-002
35628396.000	9.802565e-001	8.870091e-002
35634390.000	9.802569e-001	8.861664e-002
35640384.000	9.802728e-001	8.857064e-002
35646378.000	9.802953e-001	8.854776e-002
35652372.000	9.803295e-001	8.852533e-002
35658366.000	9.802968e-001	8.847180e-002
35664360.000	9.803279e-001	8.845146e-002
35670354.000	9.803584e-001	8.838679e-002
35676348.000	9.803401e-001	8.836033e-002
35682342.000	9.802968e-001	8.834786e-002
35688336.000	9.803631e-001	8.830923e-002
35694330.000	9.803874e-001	8.826284e-002
35700324.000	9.803320e-001	8.822912e-002
35706318.000	9.803611e-001	8.818361e-002
35712312.000	9.802962e-001	8.812494e-002
35718306.000	9.803549e-001	8.808124e-002
35724300.000	9.803440e-001	8.806179e-002
35730294.000	9.803435e-001	8.801896e-002
35736288.000	9.803604e-001	8.799537e-002
35742282.000	9.803548e-001	8.795599e-002
35748276.000	9.803085e-001	8.790506e-002
35754270.000	9.803600e-001	8.787286e-002
35760264.000	9.803493e-001	8.783461e-002
35766258.000	9.803501e-001	8.778883e-002
35772252.000	9.803438e-001	8.780975e-002
35778246.000	9.803526e-001	8.777418e-002
35784240.000	9.803888e-001	8.773179e-002
35790234.000	9.803788e-001	8.767984e-002
35796228.000	9.803554e-001	8.760280e-002
35802222.000	9.804163e-001	8.760464e-002
35808216.000	9.803987e-001	8.755607e-002
35814210.000	9.803596e-001	8.753908e-002
35820204.000	9.804003e-001	8.747856e-002
35826198.000	9.803699e-001	8.746429e-002
35832192.000	9.803773e-001	8.740262e-002
35838186.000	9.803959e-001	8.737257e-002
35844180.000	9.804104e-001	8.730125e-002
35850174.000	9.803956e-001	8.728841e-002
35856168.000	9.803814e-001	8.726536e-002
35862162.000	9.804194e-001	8.721385e-002
35868156.000	9.804360e-001	8.718430e-002
35874150.000	9.804085e-001	8.713247e-002
35880144.000	9.803769e-001	8.709773e-002
35886138.000	9.804322e-001	8.705947e-002
35892132.000	9.804495e-001	8.703398e-002
35898126.000	9.804544e-001	8.699581e-002
35904120.000	9.804338e-001	8.692765e-002
35910114.000	9.803893e-001	8.689040e-002
35916108.000	9.803757e-001	8.689283e-002
35922102.000	9.804167e-001	8.683098e-002
35928096.000	9.804842e-001	8.682974e-002
35934090.000	9.804107e-001	8.676924e-002
35940084.000	9.804705e-001	8.673825e-002
35946078.000	9.804587e-001	8.668445e-002
35952072.000	9.804335e-001	8.669638e-002
35958066.000	9.804469e-001	8.662572e-002
35964060.000	9.804557e-001	8.659317e-002
35970054.000	9.804382e-001	8.654484e-002
35976048.000	9.804180e-001	8.650398e-002
35982042.000	9.804765e-001	8.647084e-002
35988036.000	9.804350e-001	8.645486e-002
35994030.000	9.804559e-001	8.641047e-002
36000024.000	9.805010e-001	8.638375e-002
36006018.000	9.804405e-001	8.632166e-002
36012012.000	9.804628e-001	8.631439e-002
36018006.000	9.804561e-001	8.623770e-002
36024000.000	9.805124e-001	8.621751e-002
36029994.000	9.805225e-001	8.619520e-002
36035988.000	9.804836e-001	8.612691e-002
36041982.000	9.804745e-001	8.609628e-002
36047976.000	9.805059e-001	8.607663e-002
36053970.000	9.805307e-001	8.606660e-002
36059964.000	9.804824e-001	8.600123e-002
36065958.000	9.805078e-001	8.598006e-002
36071952.000	9.805140e-001	8.592269e-002
36077946.000	9.805321e-001	8.589593e-002
36083940.000	9.804999e-001	8.588328e-002
36089934.000	9.805068e-001	8.576184e-002
36095928.000	9.805125e-001	8.576955e-002
36101922.000	9.804853e-001	8.573907e-002
36107916.000	9.805030e-001	8.571123e-002
36113910.000	9.805182e-001	8.568036e-002
36119904.000	9.805323e-001	8.562036e-002
36125898.000	9.805196e-001	8.561693e-002
36131892.000	9.805021e-001	8.556014e-002
36137886.000	9.805611e-001	8.549630e-002
36143880.000	9.805794e-001	8.548300e-002
36149874.000	9.805225e-001	8.547135e-002
36155868.000	9.804937e-001	8.539829e-002
36161862.000	9.805126e-001	8.536359e-002
36167856.000	9.805215e-001	8.532641e-002
36173850.000	9.805414e-001	8.528071e-002
36179844.000	9.805177e-001	8.527645e-002
36185838.000	9.805311e-001	8.520301e-002
36191832.000	9.804892e-001	8.517081e-002
36197826.000	9.805138e-001	8.515125e-002
36203820.000	9.805475e-001	8.514189e-002
36209814.000	9.805151e-001	8.506579e-002
36215808.000	9.805432e-001	8.497758e-002
36221802.000	9.805665e-001	8.500371e-002
36227796.000	9.804985e-001	8.499793e-002
36233790.000	9.805323e-001	8.494966e-002
36239784.000	9.804964e-001	8.487842e-002
36245778.000	9.805063e-001	8.483705e-002
36251772.000	9.805483e-001	8.479865e-002
36257766.000	9.805057e-001	8.477196e-002
36263760.000	9.805227e-001	8.475663e-002
36269754.000	9.805398e-001	8.474475e-002
36275748.000	9.805323e-001	8.465174e-002
36281742.000	9.805288e-001	8.461733e-002
36287736.000	9.805704e-001	8.457658e-002
36293730.000	9.805681e-001	8.457854e-002
36299724.000	9.806137e-001	8.455313e-002
36305718.000	9.805869e-001	8.450474e-002
36311712.000	9.806622e-001	8.445992e-002
36317706.000	9.806107e-001	8.443858e-002
36323700.000	9.806528e-001	8.439071e-002
36329694.000	9.806201e-001	8.432779e-002
36335688.000	9.806155e-001	8.432979e-002
36341682.000	9.806512e-001	8.430714e-002
36347676.000	9.805855e-001	8.424709e-002
36353670.000	9.805991e-001	8.418216e-002
36359664.000	9.806431e-001	8.418355e-002
36365658.000	9.806383e-001	8.412972e-002
36371652.000	9.806140e-001	8.408218e-002
36377646.000	9.806572e-001	8.406702e-002
36383640.000	9.806443e-001	8.401999e-002
36389634.000	9.806199e-001	8.398131e-002
36395628.000	9.806892e-001	8.394111e-002
36401622.000	9.806208e-001	8.392631e-002
36407616.000	9.806303e-001	8.389422e-002
36413610.000	9.806043e-001	8.382229e-002
36419604.000	9.806210e-001	8.380881e-002
36425598.000	9.806028e-001	8.374400e-002
36431592.000	9.806343e-001	8.372178e-002
36437586.000	9.806108e-001	8.368891e-002
36443580.000	9.806333e-001	8.365160e-002
36449574.000	9.806222e-001	8.364405e-002
36455568.000	9.806650e-001	8.359522e-002
36461562.000	9.806292e-001	8.358821e-002
36467556.000	9.806166e-001	8.349995e-002
36473550.000	9.806073e-001	8.346895e-002
36479544.000	9.806380e-001	8.344274e-002
36485538.000	9.806798e-001	8.342609e-002
36491532.000	9.806877e-001	8.341725e-002
36497526.000	9.806975e-001	8.334980e-002
36503520.000	9.807138e-001	8.331481e-002
36509514.000	9.806761e-001	8.328945e-002
36515508.000	9.806698e-001	8.321336e-002
36521502.000	9.806777e-001	8.318213e-002
36527496.000	9.806912e-001	8.317439e-002
36533490.000	9.807394e-001	8.311187e-002
36539484.000	9.806487e-001	8.304880e-002
36545478.000	9.806691e-001	8.305173e-002
36551472.000	9.806863e-001	8.301821e-002
36557466.000	9.806329e-001	8.299349e-002
36563460.000	9.806446e-001	8.291507e-002
36569454.000	9.807017e-001	8.291419e-002
36575448.000	9.806783e-001	8.286750e-002
36581442.000	9.806752e-001	8.284591e-002
36587436.000	9.806784e-001	8.281425e-002
36593430.000	9.806722e-001	8.273948e-002
36599424.000	9.806676e-001	8.271969e-002
36605418.000	9.806970e-001	8.268775e-002
36611412.000	9.807269e-001	8.264585e-002
36617406.000	9.807341e-001	8.260097e-002
36623400.000	9.807356e-001	8.257801e-002
36629394.000	9.806498e-001	8.250946e-002
36635388.000	9.807260e-001	8.248774e-002
36641382.000	9.807218e-001	8.247280e-002
36647376.000	9.807206e-001	8.239296e-002
36653370.000	9.806567e-001	8.241095e-002
36659364.000	9.806880e-001	8.237906e-002
36665358.000	9.807113e-001	8.229016e-002
36671352.000	9.807047e-001	8.224380e-002
36677346.000	9.806929e-001	8.221621e-002
36683340.000	9.806904e-001	8.220939e-002
36689334.000	9.806616e-001	8.218568e-002
36695328.000	9.807108e-001	8.214213e-002
36701322.000	9.807331e-001	8.209638e-002
36707316.000	9.807061e-001	8.207865e-002
36713310.000	9.807410e-001	8.203153e-002
36719304.000	9.806999e-001	8.199975e-002
36725298.000	9.807302e-001	8.197013e-002
36731292.000	9.807638e-001	8.189103e-002
36737286.000	9.807972e-001	8.188677e-002
36743280.000	9.807899e-001	8.185441e-002
36749274.000	9.807020e-001	8.181827e-002
36755268.000	9.807223e-001	8.177999e-002
36761262.000	9.807537e-001	8.173776e-002
36767256.000	9.807597e-001	8.171386e-002
36773250.000	9.807574e-001	8.165298e-002
36779244.000	9.807680e-001	8.163634e-002
36785238.000	9.807307e-001	8.162245e-002
36791232.000	9.807533e-001	8.160131e-002
36797226.000	9.807575e-001	8.153978e-002
36803220.000	9.807775e-001	8.148284e-002
36809214.000	9.807411e-001	8.144290e-002
36815208.000	9.807819e-001	8.142759e-002
36821202.000	9.807536e-001	8.138404e-002
36827196.000	9.808228e-001	8.135175e-002
36833190.000	9.808007e-001	8.132461e-002
36839184.000	9.807758e-001	8.130655e-002
36845178.000	9.807995e-001	8.124351e-002
36851172.000	9.807677e-001	8.124818e-002
36857166.000	9.807823e-001	8.117174e-002
36863160.000	9.807604e-001	8.112268e-002
36869154.000	9.808025e-001	8.110112e-002
36875148.000	9.808171e-001	8.108581e-002
36881142.000	9.808553e-001	8.101918e-002
36887136.000	9.808357e-001	8.101116e-002
36893130.000	9.808362e-001	8.098859e-002
36899124.000	9.808087e-001	8.090808e-002
36905118.000	9.808217e-001	8.089353e-002
36911112.000	9.808640e-001	8.089227e-002
36917106.000	9.808486e-001	8.082533e-002
36923100.000	9.808545e-001	8.077416e-002
36929094.000	9.808122e-001	8.071831e-002
36935088.000	9.807866e-001	8.067913e-002
36941082.000	9.808046e-001	8.069377e-002
36947076.000	9.807983e-001	8.065216e-002
36953070.000	9.808439e-001	8.064049e-002
36959064.000	9.808145e-001	8.056904e-002
36965058.000	9.808423e-001	8.055371e-002
36971052.000	9.808896e-001	8.051293e-002
36977046.000	9.808665e-001	8.045787e-002
36983040.000	9.808036e-001	8.042144e-002
36989034.000	9.808218e-001	8.040281e-002
36995028.000	9.808161e-001	8.034770e-002
37001022.000	9.808030e-001	8.033337e-002
37007016.000	9.808075e-001	8.028250e-002
37013010.000	9.807922e-001	8.024443e-002
37019004.000	9.808233e-001	8.018053e-002
37024998.000	9.808131e-001	8.016437e-002
37030992.000	9.808709e-001	8.013441e-002
37036986.000	9.808324e-001	8.011002e-002
37042980.000	9.808379e-001	8.005967e-002
37048974.000	9.808794e-001	7.999848e-002
37054968.000	9.808790e-001	7.996811e-002
37060962.000	9.808239e-001	7.994727e-002
37066956.000	9.809015e-001	7.990890e-002
37072950.000	9.808899e-001	7.986432e-002
37078944.000	9.808955e-001	7.984786e-002
37084938.000	9.808911e-001	7.980674e-002
37090932.000	9.809227e-001	7.982558e-002
37096926.000	9.809014e-001	7.977576e-002
37102920.000	9.809494e-001	7.976235e-002
37108914.000	9.809185e-001	7.970745e-002
37114908.000	9.809394e-001	7.966953e-002
37120902.000	9.809214e-001	7.962431e-002
37126896.000	9.809298e-001	7.958230e-002
37132890.000	9.809209e-001	7.955130e-002
37138884.000	9.809632e-001	7.947578e-002
37144878.000	9.809297e-001	7.950572e-002
37150872.000	9.809174e-001	7.943518e-002
37156866.000	9.809074e-001	7.939884e-002
37162860.000	9.808931e-001	7.933989e-002
37168854.000	9.809157e-001	7.931841e-002
37174848.000	9.808799e-001	7.928419e-002
37180842.000	9.809173e-001	7.925717e-002
37186836.000	9.809209e-001	7.918436e-002
37192830.000	9.809522e-001	7.917627e-002
37198824.000	9.809086e-001	7.917072e-002
37204818.000	9.809106e-001	7.909144e-002
37210812.000	9.809363e-001	7.905164e-002
37216806.000	9.809866e-001	7.904253e-002
37222800.000	9.809286e-001	7.903180e-002
37228794.000	9.809515e-001	7.899526e-002
37234788.000	9.809347e-001	7.891209e-002
37240782.000	9.808931e-001	7.892456e-002
37246776.000	9.809520e-001	7.883729e-002
37252770.000	9.809201e-001	7.881147e-002
37258764.000	9.809510e-001	7.882400e-002
37264758.000	9.809623e-001	7.875216e-002
37270752.000	9.809709e-001	7.871889e-002
37276746.000	9.809921e-001	7.870945e-002
37282740.000	9.809904e-001	7.865815e-002
37288734.000	9.809291e-001	7.862067e-002
37294728.000	9.808866e-001	7.858520e-002
37300722.000	9.809329e-001	7.853843e-002
37306716.000	9.809358e-001	7.849983e-002
37312710.000	9.809568e-001	7.849368e-002
37318704.000	9.809397e-001	7.845117e-002
37324698.000	9.809500e-001	7.837035e-002
37330692.000	9.809260e-001	7.836082e-002
37336686.000	9.809230e-001	7.830626e-002
37342680.000	9.809173e-001	7.825055e-002
37348674.000	9.808868e-001	7.821448e-002
37354668.000	9.809317e-001	7.823384e-002
37360662.000	9.809185e-001	7.820119e-002
37366656.000	9.809429e-001	7.813176e-002
37372650.000	9.809451e-001	7.810761e-002
37378644.000	9.809575e-001	7.805310e-002
37384638.000	9.809963e-001	7.806437e-002
37390632.000	9.809728e-001	7.800923e-002
37396626.000	9.809545e-001	7.797614e-002
37402620.000	9.809502e-001	7.792071e-002
37408614.000	9.809341e-001	7.790933e-002
37414608.000	9.810337e-001	7.788759e-002
37420602.000	9.809717e-001	7.786846e-002
37426596.000	9.809949e-001	7.777897e-002
37432590.000	9.809428e-001	7.779031e-002
37438584.000	9.809855e-001	7.772607e-002
37444578.000	9.809972e-001	7.769170e-002
37450572.000	9.809733e-001	7.766440e-002
37456566.000	9.810067e-001	7.761301e-002
37462560.000	9.809459e-001	7.759471e-002
37468554.000	9.809413e-001	7.752887e-002
37474548.000	9.809738e-001	7.753046e-002
37480542.000	9.809530e-001	7.745939e-002
37486536.000	9.809667e-001	7.744292e-002
37492530.000	9.810010e-001	7.739475e-002
37498524.000	9.809882e-001	7.738342e-002
37504518.000	9.809599e-001	7.732983e-002
37510512.000	9.809608e-001	7.728936e-002
37516506.000	9.809318e-001	7.725922e-002
37522500.000	9.809878e-001	7.724662e-002
37528494.000	9.809675e-001	7.720372e-002
37534488.000	9.810025e-001	7.715936e-002
37540482.000	9.810525e-001	7.713000e-002
37546476.000	9.810210e-001	7.708069e-002
37552470.000	9.810067e-001	7.706040e-002
37558464.000	9.809954e-001	7.702143e-002
37564458.000	9.810206e-001	7.700268e-002
37570452.000	9.810385e-001	7.699433e-002
37576446.000	9.810184e-001	7.692131e-002
37582440.000	9.810248e-001	7.689836e-002
37588434.000	9.810525e-001	7.686171e-002
37594428.000	9.810298e-001	7.678431e-002
37600422.000	9.810361e-001	7.678607e-002
37606416.000	9.810298e-001	7.674456e-002
37612410.000	9.810366e-001	7.672409e-002
37618404.000	9.810158e-001	7.668162e-002
37624398.000	9.810169e-001	7.666490e-002
37630392.000	9.810432e-001	7.657803e-002
37636386.000	9.810442e-001	7.656048e-002
37642380.000	9.810448e-001	7.652293e-002
37648374.000	9.810620e-001	7.649297e-002
37654368.000	9.810528e-001	7.645608e-002
37660362.000	9.810387e-001	7.644245e-002
37666356.000	9.810017e-001	7.635121e-002
37672350.000	9.810176e-001	7.633445e-002
37678344.000	9.810525e-001	7.633487e-002
37684338.000	9.810333e-001	7.629862e-002
37690332.000	9.810365e-001	7.624994e-002
37696326.000	9.810291e-001	7.620121e-002
37702320.000	9.810751e-001	7.618654e-002
37708314.000	9.811279e-001	7.616765e-002
37714308.000	9.810608e-001	7.615041e-002
37720302.000	9.811022e-001	7.607143e-002
37726296.000	9.810886e-001	7.604353e-002
37732290.000	9.810868e-001	7.602644e-002
37738284.000	9.810384e-001	7.599595e-002
37744278.000	9.810679e-001	7.596569e-002
37750272.000	9.810560e-001	7.590190e-002
37756266.000	9.810736e-001	7.589640e-002
37762260.000	9.810504e-001	7.581539e-002
37768254.000	9.810381e-001	7.578260e-002
37774248.000	9.810728e-001	7.571756e-002
37780242.000	9.810681e-001	7.573792e-002
37786236.000	9.810886e-001	7.571987e-002
37792230.000	9.811406e-001	7.567827e-002
37798224.000	9.811149e-001	7.560128e-002
37804218.000	9.811091e-001	7.562564e-002
37810212.000	9.811147e-001	7.556654e-002
37816206.000	9.810991e-001	7.555311e-002
37822200.000	9.811687e-001	7.549156e-002
37828194.000	9.811144e-001	7.543521e-002
37834188.000	9.811422e-001	7.540437e-002
37840182.000	9.811441e-001	7.541204e-002
37846176.000	9.811162e-001	7.533145e-002
37852170.000	9.811434e-001	7.530681e-002
37858164.000	9.811402e-001	7.529239e-002
37864158.000	9.811439e-001	7.523103e-002
37870152.000	9.811490e-001	7.520147e-002
37876146.000	9.811754e-001	7.518362e-002
37882140.000	9.811129e-001	7.514705e-002
37888134.000	9.811360e-001	7.511017e-002
37894128.000	9.811414e-001	7.509608e-002
37900122.000	9.811405e-001	7.506523e-002
37906116.000	9.811320e-001	7.501532e-002
37912110.000	9.811284e-001	7.493923e-002
37918104.000	9.811463e-001	7.492598e-002
37924098.000	9.811567e-001	7.491133e-002
37930092.000	9.812125e-001	7.488170e-002
37936086.000	9.811482e-001	7.482763e-002
37942080.000	9.811725e-001	7.477770e-002
37948074.000	9.811849e-001	7.477110e-002
37954068.000	9.811222e-001	7.475789e-002
37960062.000	9.811565e-001	7.475666e-002
37966056.000	9.811745e-001	7.468800e-002
37972050.000	9.811591e-001	7.464154e-002
37978044.000	9.811576e-001	7.460543e-002
37984038.000	9.811503e-001	7.453628e-002
37990032.000	9.811865e-001	7.455062e-002
37996026.000	9.811526e-001	7.449889e-002
38002020.000	9.811021e-001	7.445765e-002
38008014.000	9.811515e-001	7.444424e-002
38014008.000	9.811917e-001	7.440259e-002
38020002.000	9.812015e-001	7.431840e-002
38025996.000	9.811663e-001	7.432121e-002
38031990.000	9.812118e-001	7.431382e-002
38037984.000	9.811989e-001	7.428375e-002
38043978.000	9.811746e-001	7.421511e-002
38049972.000	9.811757e-001	7.417299e-002
38055966.000	9.811881e-001	7.415262e-002
38061960.000	9.812279e-001	7.409140e-002
38067954.000	9.812065e-001	7.408532e-002
38073948.000	9.811620e-001	7.402693e-002
38079942.000	9.811935e-001	7.404484e-002
38085936.000	9.812131e-001	7.396781e-002
38091930.000	9.811658e-001	7.393870e-002
38097924.000	9.811210e-001	7.388067e-002
38103918.000	9.811969e-001	7.384509e-002
38109912.000	9.811622e-001	7.383405e-002
38115906.000	9.812012e-001	7.381120e-002
38121900.000	9.811859e-001	7.378061e-002
38127894.000	9.812013e-001	7.372027e-002
38133888.000	9.811545e-001	7.369378e-002
38139882.000	9.811588e-001	7.366932e-002
38145876.000	9.812244e-001	7.363014e-002
38151870.000	9.811858e-001	7.359721e-002
38157864.000	9.812310e-001	7.356522e-002
38163858.000	9.812180e-001	7.353745e-002
38169852.000	9.812089e-001	7.350698e-002
38175846.000	9.812342e-001	7.347710e-002
38181840.000	9.812283e-001	7.342801e-002
38187834.000	9.811999e-001	7.339400e-002
38193828.000	9.811985e-001	7.334182e-002
38199822.000	9.811822e-001	7.333102e-002
38205816.000	9.811974e-001	7.330693e-002
38211810.000	9.812465e-001	7.326798e-002
38217804.000	9.812538e-001	7.325495e-002
38223798.000	9.812907e-001	7.318015e-002
38229792.000	9.812522e-001	7.313099e-002
38235786.000	9.811991e-001	7.311669e-002
38241780.000	9.812950e-001	7.311835e-002
38247774.000	9.812848e-001	7.309478e-002
38253768.000	9.812454e-001	7.303825e-002
38259762.000	9.812533e-001	7.299833e-002
38265756.000	9.812675e-001	7.297686e-002
38271750.000	9.813266e-001	7.297676e-002
38277744.000	9.812928e-001	7.287294e-002
38283738.000	9.812882e-001	7.283921e-002
38289732.000	9.812741e-001	7.283627e-002
38295726.000	9.812862e-001	7.281577e-002
38301720.000	9.813133e-001	7.273326e-002
38307714.000	9.813022e-001	7.270643e-002
38313708.000	9.813292e-001	7.267289e-002
38319702.000	9.813275e-001	7.264742e-002
38325696.000	9.813092e-001	7.261293e-002
38331690.000	9.813376e-001	7.261646e-002
38337684.000	9.813282e-001	7.257969e-002
38343678.000	9.813292e-001	7.249283e-002
38349672.000	9.813251e-001	7.246486e-002
38355666.000	9.813371e-001	7.244856e-002
38361660.000	9.812957e-001	7.239986e-002
38367654.000	9.813099e-001	7.237245e-002
38373648.000	9.812470e-001	7.231744e-002
38379642.000	9.812477e-001	7.229954e-002
38385636.000	9.812757e-001	7.225925e-002
38391630.000	9.813310e-001	7.224209e-002
38397624.000	9.813170e-001	7.219513e-002
38403618.000	9.813146e-001	7.218007e-002
38409612.000	9.813143e-001	7.212475e-002
38415606.000	9.812873e-001	7.210306e-002
38421600.000	9.812792e-001	7.207075e-002
38427594.000	9.812773e-001	7.202569e-002
38433588.000	9.812905e-001	7.198222e-002
38439582.000	9.813299e-001	7.194881e-002
38445576.000	9.813755e-001	7.193582e-002
38451570.000	9.813419e-001	7.188499e-002
38457564.000	9.813616e-001	7.186022e-002
38463558.000	9.813860e-001	7.188524e-002
38469552.000	9.813713e-001	7.179998e-002
38475546.000	9.813777e-001	7.175990e-002
38481540.000	9.813043e-001	7.170392e-002
38487534.000	9.813337e-001	7.170735e-002
38493528.000	9.813145e-001	7.168529e-002
38499522.000	9.813315e-001	7.161743e-002
38505516.000	9.813393e-001	7.162067e-002
38511510.000	9.813369e-001	7.159828e-002
38517504.000	9.813624e-001	7.152921e-002
38523498.000	9.813495e-001	7.148798e-002
38529492.000	9.813364e-001	7.148446e-002
38535486.000	9.813553e-001	7.144250e-002
38541480.000	9.813013e-001	7.138542e-002
38547474.000	9.813401e-001	7.135962e-002
38553468.000	9.813589e-001	7.132634e-002
38559462.000	9.813571e-001	7.126975e-002
38565456.000	9.813636e-001	7.129371e-002
38571450.000	9.813197e-001	7.122614e-002
38577444.000	9.813319e-001	7.118020e-002
38583438.000	9.814024e-001	7.115137e-002
38589432.000	9.813348e-001	7.112979e-002
38595426.000	9.813488e-001	7.110787e-002
38601420.000	9.813551e-001	7.107272e-002
38607414.000	9.814110e-001	7.101780e-002
38613408.000	9.814028e-001	7.096966e-002
38619402.000	9.813515e-001	7.093605e-002
38625396.000	9.813661e-001	7.089522e-002
38631390.000	9.814297e-001	7.091817e-002
38637384.000	9.813451e-001	7.085625e-002
38643378.000	9.814194e-001	7.084107e-002
38649372.000	9.813281e-001	7.081418e-002
38655366.000	9.813683e-001	7.076152e-002
38661360.000	9.814180e-001	7.074032e-002
38667354.000	9.814218e-001	7.069698e-002
38673348.000	9.814343e-001	7.062529e-002
38679342.000	9.813723e-001	7.065153e-002
38685336.000	9.813605e-001	7.059389e-002
38691330.000	9.814267e-001	7.055751e-002
38697324.000	9.813968e-001	7.049477e-002
38703318.000	9.813625e-001	7.047531e-002
38709312.000	9.813961e-001	7.047732e-002
38715306.000	9.814061e-001	7.038744e-002
38721300.000	9.813789e-001	7.035536e-002
38727294.000	9.814268e-001	7.037180e-002
38733288.000	9.814068e-001	7.029370e-002
38739282.000	9.814213e-001	7.029666e-002
38745276.000	9.814164e-001	7.023695e-002
38751270.000	9.814311e-001	7.019556e-002
38757264.000	9.813790e-001	7.017358e-002
38763258.000	9.814142e-001	7.015799e-002
38769252.000	9.814000e-001	7.010210e-002
38775246.000	9.814137e-001	7.006194e-002
38781240.000	9.814719e-001	7.006978e-002
38787234.000	9.814495e-001	7.002624e-002
38793228.000	9.814187e-001	6.998790e-002
38799222.000	9.814170e-001	6.993490e-002
38805216.000	9.814296e-001	6.988370e-002
38811210.000	9.814493e-001	6.985153e-002
38817204.000	9.814617e-001	6.983839e-002
38823198.000	9.814342e-001	6.982252e-002
38829192.000	9.814547e-001	6.977384e-002
38835186.000	9.814380e-001	6.973923e-002
38841180.000	9.814332e-001	6.968741e-002
38847174.000	9.814448e-001	6.965791e-002
38853168.000	9.814248e-001	6.962714e-002
38859162.000	9.814776e-001	6.958596e-002
38865156.000	9.814768e-001	6.957890e-002
38871150.000	9.814567e-001	6.951403e-002
38877144.000	9.814795e-001	6.947119e-002
38883138.000	9.814505e-001	6.949636e-002
38889132.000	9.814506e-001	6.944260e-002
38895126.000	9.814302e-001	6.940529e-002
38901120.000	9.814010e-001	6.938149e-002
38907114.000	9.814666e-001	6.931063e-002
38913108.000	9.814464e-001	6.930438e-002
38919102.000	9.815087e-001	6.927577e-002
38925096.000	9.815044e-001	6.923589e-002
38931090.000	9.815354e-001	6.920620e-002
38937084.000	9.814912e-001	6.918808e-002
38943078.000	9.814823e-001	6.915074e-002
38949072.000	9.814723e-001	6.909614e-002
38955066.000	9.815247e-001	6.911376e-002
38961060.000	9.814727e-001	6.904524e-002
38967054.000	9.814548e-001	6.901240e-002
38973048.000	9.814887e-001	6.895988e-002
38979042.000	9.814976e-001	6.895231e-002
38985036.000	9.815392e-001	6.890944e-002
38991030.000	9.815077e-001	6.889866e-002
38997024.000	9.815288e-001	6.883256e-002
39003018.000	9.815317e-001	6.879503e-002
39009012.000	9.814860e-001	6.878196e-002
39015006.000	9.815154e-001	6.873101e-002
39021000.000	9.814636e-001	6.872130e-002
39026994.000	9.815481e-001	6.866401e-002
39032988.000	9.814919e-001	6.864534e-002
39038982.000	9.814428e-001	6.859846e-002
39044976.000	9.814698e-001	6.856589e-002
39050970.000	9.814942e-001	6.854760e-002
39056964.000	9.814934e-001	6.851922e-002
39062958.000	9.814963e-001	6.847170e-002
39068952.000	9.815646e-001	6.843976e-002
39074946.000	9.815378e-001	6.842186e-002
39080940.000	9.815353e-001	6.839184e-002
39086934.000	9.814790e-001	6.832329e-002
39092928.000	9.814924e-001	6.829251e-002
39098922.000	9.814950e-001	6.826400e-002
39104916.000	9.815474e-001	6.824193e-002
39110910.000	9.815275e-001	6.823512e-002
39116904.000	9.815405e-001	6.817378e-002
39122898.000	9.815312e-001	6.817506e-002
39128892.000	9.815202e-001	6.811362e-002
39134886.000	9.815069e-001	6.808841e-002
39140880.000	9.815017e-001	6.805306e-002
39146874.000	9.815680e-001	6.799089e-002
39152868.000	9.815365e-001	6.797424e-002
39158862.000	9.814970e-001	6.794187e-002
39164856.000	9.815386e-001	6.794896e-002
39170850.000	9.815494e-001	6.787759e-002
39176844.000	9.815025e-001	6.783477e-002
39182838.000	9.815825e-001	6.782899e-002
39188832.000	9.815318e-001	6.777375e-002
39194826.000	9.815697e-001	6.773320e-002
39200820.000	9.815564e-001	6.770877e-002
39206814.000	9.815674e-001	6.768802e-002
39212808.000	9.815323e-001	6.764926e-002
39218802.000	9.815946e-001	6.761758e-002
39224796.000	9.815952e-001	6.756949e-002
39230790.000	9.815938e-001	6.756455e-002
39236784.000	9.816010e-001	6.753517e-002
39242778.000	9.815306e-001	6.751896e-002
39248772.000	9.815505e-001	6.743476e-002
39254766.000	9.815515e-001	6.738626e-002
39260760.000	9.815732e-001	6.737020e-002
39266754.000	9.815299e-001	6.734603e-002
39272748.000	9.815809e-001	6.734009e-002
39278742.000	9.815263e-001	6.729396e-002
39284736.000	9.815240e-001	6.724021e-002
39290730.000	9.816000e-001	6.724215e-002
39296724.000	9.815705e-001	6.718123e-002
39302718.000	9.815333e-001	6.716263e-002
39308712.000	9.815583e-001	6.713882e-002
39314706.000	9.816054e-001	6.710312e-002
39320700.000	9.815866e-001	6.703669e-002
39326694.000	9.816163e-001	6.702557e-002
39332688.000	9.815882e-001	6.701357e-002
39338682.000	9.815866e-001	6.695013e-002
39344676.000	9.815847e-001	6.692032e-002
39350670.000	9.815897e-001	6.687977e-002
39356664.000	9.815900e-001	6.688684e-002
39362658.000	9.815789e-001	6.684556e-002
39368652.000	9.816286e-001	6.681986e-002
39374646.000	9.816287e-001	6.676381e-002
39380640.000	9.816534e-001	6.673972e-002
39386634.000	9.816214e-001	6.670194e-002
39392628.000	9.816029e-001	6.669202e-002
39398622.000	9.816262e-001	6.663017e-002
39404616.000	9.816204e-001	6.656734e-002
39410610.000	9.816439e-001	6.657939e-002
39416604.000	9.816323e-001	6.651695e-002
39422598.000	9.816396e-001	6.648250e-002
39428592.000	9.816340e-001	6.647625e-002
39434586.000	9.816325e-001	6.641446e-002
39440580.000	9.816550e-001	6.639506e-002
39446574.000	9.816264e-001	6.635313e-002
39452568.000	9.816279e-001	6.636093e-002
39458562.000	9.816179e-001	6.629092e-002
39464556.000	9.816046e-001	6.628035e-002
39470550.000	9.816390e-001	6.622021e-002
39476544.000	9.816005e-001	6.618035e-002
39482538.000	9.816256e-001	6.620488e-002
39488532.000	9.816517e-001	6.612865e-002
39494526.000	9.816587e-001	6.608912e-002
39500520.000	9.816458e-001	6.607608e-002
39506514.000	9.816121e-001	6.603719e-002
39512508.000	9.816746e-001	6.599506e-002
39518502.000	9.816744e-001	6.596391e-002
39524496.000	9.816503e-001	6.594784e-002
39530490.000	9.816519e-001	6.592426e-002
39536484.000	9.816363e-001	6.586946e-002
39542478.000	9.816524e-001	6.583821e-002
39548472.000	9.816528e-001	6.580598e-002
39554466.000	9.816716e-001	6.577119e-002
39560460.000	9.816977e-001	6.574613e-002
39566454.000	9.816602e-001	6.571491e-002
39572448.000	9.816843e-001	6.567536e-002
39578442.000	9.816101e-001	6.564292e-002
39584436.000	9.816152e-001	6.562892e-002
39590430.000	9.816501e-001	6.556742e-002
39596424.000	9.816952e-001	6.552208e-002
39602418.000	9.816716e-001	6.548188e-002
39608412.000	9.816802e-001	6.549973e-002
39614406.000	9.816650e-001	6.543642e-002
39620400.000	9.816721e-001	6.540216e-002
39626394.000	9.816553e-001	6.538338e-002
39632388.000	9.816446e-001	6.534197e-002
39638382.000	9.816234e-001	6.532502e-002
39644376.000	9.816445e-001	6.529281e-002
39650370.000	9.816202e-001	6.522367e-002
39656364.000	9.816020e-001	6.521735e-002
39662358.000	9.816817e-001	6.520668e-002
39668352.000	9.816413e-001	6.514702e-002
39674346.000	9.817284e-001	6.514961e-002
39680340.000	9.817163e-001	6.508826e-002
39686334.000	9.817079e-001	6.506430e-002
39692328.000	9.816735e-001	6.505643e-002
39698322.000	9.816715e-001	6.499100e-002
39704316.000	9.816835e-001	6.490678e-002
39710310.000	9.817002e-001	6.489868e-002
39716304.000	9.816612e-001	6.489456e-002
39722298.000	9.817051e-001	6.487133e-002
39728292.000	9.817084e-001	6.483583e-002
39734286.000	9.816781e-001	6.482683e-002
39740280.000	9.817330e-001	6.477830e-002
39746274.000	9.817429e-001	6.476254e-002
39752268.000	9.817653e-001	6.469973e-002
39758262.000	9.817496e-001	6.468702e-002
39764256.000	9.817977e-001	6.464517e-002
39770250.000	9.817582e-001	6.459270e-002
39776244.000	9.817593e-001	6.460417e-002
39782238.000	9.817510e-001	6.453900e-002
39788232.000	9.817445e-001	6.449351e-002
39794226.000	9.817144e-001	6.448448e-002
39800220.000	9.817280e-001	6.444162e-002
39806214.000	9.817371e-001	6.442106e-002
39812208.000	9.817010e-001	6.435509e-002
39818202.000	9.817068e-001	6.433047e-002
39824196.000	9.817340e-001	6.429045e-002
39830190.000	9.817557e-001	6.427876e-002
39836184.000	9.817237e-001	6.425636e-002
39842178.000	9.817621e-001	6.417864e-002
39848172.000	9.817251e-001	6.415788e-002
39854166.000	9.817609e-001	6.414496e-002
39860160.000	9.817526e-001	6.410641e-002
39866154.000	9.817448e-001	6.406585e-002
39872148.000	9.817143e-001	6.401973e-002
39878142.000	9.817140e-001	6.399612e-002
39884136.000	9.817407e-001	6.396713e-002
39890130.000	9.817417e-001	6.397098e-002
39896124.000	9.817300e-001	6.391066e-002
39902118.000	9.817322e-001	6.390656e-002
39908112.000	9.817687e-001	6.385197e-002
39914106.000	9.817481e-001	6.381268e-002
39920100.000	9.817555e-001	6.378093e-002
39926094.000	9.817639e-001	6.370378e-002
39932088.000	9.817304e-001	6.372771e-002
39938082.000	9.817992e-001	6.366365e-002
39944076.000	9.817614e-001	6.365184e-002
39950070.000	9.817525e-001	6.363159e-002
39956064.000	9.817125e-001	6.358821e-002
39962058.000	9.817457e-001	6.355065e-002
39968052.000	9.818094e-001	6.351233e-002
39974046.000	9.817716e-001	6.347605e-002
39980040.000	9.817380e-001	6.342868e-002
39986034.000	9.817623e-001	6.341695e-002
39992028.000	9.817801e-001	6.336444e-002
39998022.000	9.817450e-001	6.333227e-002
40004016.000	9.818236e-001	6.332190e-002
40010010.000	9.817941e-001	6.331581e-002
40016004.000	9.818605e-001	6.327338e-002
40021998.000	9.817961e-001	6.324033e-002
40027992.000	9.818442e-001	6.322411e-002
40033986.000	9.817793e-001	6.317532e-002
40039980.000	9.817945e-001	6.312809e-002
40045974.000	9.818012e-001	6.310462e-002
40051968.000	9.817907e-001	6.306410e-002
40057962.000	9.818474e-001	6.305685e-002
40063956.000	9.818054e-001	6.299853e-002
40069950.000	9.817991e-001	6.299498e-002
40075944.000	9.818090e-001	6.295690e-002
40081938.000	9.817909e-001	6.291100e-002
40087932.000	9.818315e-001	6.291218e-002
40093926.000	9.818312e-001	6.286620e-002
40099920.000	9.818554e-001	6.284715e-002
40105914.000	9.818274e-001	6.278432e-002
40111908.000	9.818700e-001	6.278911e-002
40117902.000	9.818138e-001	6.271978e-002
40123896.000	9.817685e-001	6.266863e-002
40129890.000	9.818152e-001	6.265009e-002
40135884.000	9.817666e-001	6.262238e-002
40141878.000	9.818121e-001	6.260195e-002
40147872.000	9.817988e-001	6.254623e-002
40153866.000	9.817856e-001	6.253748e-002
40159860.000	9.818729e-001	6.253622e-002
40165854.000	9.818556e-001	6.247114e-002
40171848.000	9.818740e-001	6.242626e-002
40177842.000	9.818654e-001	6.238493e-002
40183836.000	9.818066e-001	6.236819e-002
40189830.000	9.818603e-001	6.233492e-002
40195824.000	9.818011e-001	6.232901e-002
40201818.000	9.817942e-001	6.226956e-002
40207812.000	9.818536e-001	6.224066e-002
40213806.000	9.818463e-001	6.221932e-002
40219800.000	9.817909e-001	6.216603e-002
40225794.000	9.817674e-001	6.211780e-002
40231788.000	9.818368e-001	6.211262e-002
40237782.000	9.818489e-001	6.206946e-002
40243776.000	9.818269e-001	6.201408e-002
40249770.000	9.818629e-001	6.205018e-002
40255764.000	9.818558e-001	6.200740e-002
40261758.000	9.818560e-001	6.193174e-002
40267752.000	9.818421e-001	6.192483e-002
40273746.000	9.818039e-001	6.187780e-002
40279740.000	9.818452e-001	6.186034e-002
40285734.000	9.818147e-001	6.183467e-002
40291728.000	9.818401e-001	6.177848e-002
40297722.000	9.818126e-001	6.176907e-002
40303716.000	9.818787e-001	6.174001e-002
40309710.000	9.818552e-001	6.169659e-002
40315704.000	9.818954e-001	6.167004e-002
40321698.000	9.818594e-001	6.163232e-002
40327692.000	9.818604e-001	6.161672e-002
40333686.000	9.818746e-001	6.157601e-002
40339680.000	9.818530e-001	6.154318e-002
40345674.000	9.818792e-001	6.148604e-002
40351668.000	9.818530e-001	6.147415e-002
40357662.000	9.818651e-001	6.145732e-002
40363656.000	9.818960e-001	6.141664e-002
40369650.000	9.818410e-001	6.138419e-002
40375644.000	9.818822e-001	6.136522e-002
40381638.000	9.818614e-001	6.129565e-002
40387632.000	9.819073e-001	6.127223e-002
40393626.000	9.818579e-001	6.124803e-002
40399620.000	9.818813e-001	6.125289e-002
40405614.000	9.818645e-001	6.118492e-002
40411608.000	9.818682e-001	6.117510e-002
40417602.000	9.818808e-001	6.116049e-002
40423596.000	9.818189e-001	6.106262e-002
40429590.000	9.819010e-001	6.107073e-002
40435584.000	9.818879e-001	6.100591e-002
40441578.000	9.818759e-001	6.098133e-002
40447572.000	9.818688e-001	6.097011e-002
40453566.000	9.818842e-001	6.092455e-002
40459560.000	9.819053e-001	6.090476e-002
40465554.000	9.818884e-001	6.084938e-002
40471548.000	9.819066e-001	6.081362e-002
40477542.000	9.819080e-001	6.080892e-002
40483536.000	9.819035e-001	6.079530e-002
40489530.000	9.818556e-001	6.068601e-002
40495524.000	9.818820e-001	6.068507e-002
40501518.000	9.819012e-001	6.068878e-002
40507512.000	9.819025e-001	6.068417e-002
40513506.000	9.819556e-001	6.062628e-002
40519500.000	9.818970e-001	6.060398e-002
40525494.000	9.819051e-001	6.052432e-002
40531488.000	9.818734e-001	6.050204e-002
40537482.000	9.818877e-001	6.048218e-002
40543476.000	9.819319e-001	6.046253e-002
40549470.000	9.819036e-001	6.041557e-002
40555464.000	9.819248e-001	6.036376e-002
40561458.000	9.818701e-001	6.033341e-002
40567452.000	9.818731e-001	6.031095e-002
40573446.000	9.818659e-001	6.027937e-002
40579440.000	9.818870e-001	6.023872e-002
40585434.000	9.818758e-001	6.019768e-002
40591428.000	9.819128e-001	6.021823e-002
40597422.000	9.819299e-001	6.017643e-002
40603416.000	9.819017e-001	6.014426e-002
40609410.000	9.818750e-001	6.010655e-002
40615404.000	9.818800e-001	6.010074e-002
40621398.000	9.818860e-001	6.004065e-002
40627392.000	9.819261e-001	6.001432e-002
40633386.000	9.819118e-001	5.994981e-002
40639380.000	9.819126e-001	5.991214e-002
40645374.000	9.819458e-001	5.993473e-002
40651368.000	9.819161e-001	5.985839e-002
40657362.000	9.819199e-001	5.984350e-002
40663356.000	9.819083e-001	5.979059e-002
40669350.000	9.818874e-001	5.974505e-002
40675344.000	9.819138e-001	5.973608e-002
40681338.000	9.819728e-001	5.973881e-002
40687332.000	9.819316e-001	5.968521e-002
40693326.000	9.819448e-001	5.967836e-002
40699320.000	9.819570e-001	5.962218e-002
40705314.000	9.819302e-001	5.958506e-002
40711308.000	9.819844e-001	5.954849e-002
40717302.000	9.819393e-001	5.951108e-002
40723296.000	9.819216e-001	5.950962e-002
40729290.000	9.819174e-001	5.947656e-002
40735284.000	9.819260e-001	5.945410e-002
40741278.000	9.819205e-001	5.938679e-002
40747272.000	9.819426e-001	5.936121e-002
40753266.000	9.819758e-001	5.933382e-002
40759260.000	9.819413e-001	5.933683e-002
40765254.000	9.819056e-001	5.928935e-002
40771248.000	9.819135e-001	5.926092e-002
40777242.000	9.819430e-001	5.924340e-002
40783236.000	9.819311e-001	5.919806e-002
40789230.000	9.819531e-001	5.916729e-002
40795224.000	9.818929e-001	5.911448e-002
40801218.000	9.819379e-001	5.912043e-002
40807212.000	9.820033e-001	5.907515e-002
40813206.000	9.819335e-001	5.903138e-002
40819200.000	9.819683e-001	5.901695e-002
40825194.000	9.819688e-001	5.894509e-002
40831188.000	9.819671e-001	5.891214e-002
40837182.000	9.819917e-001	5.894000e-002
40843176.000	9.819872e-001	5.886221e-002
40849170.000	9.819910e-001	5.883592e-002
40855164.000	9.819948e-001	5.881568e-002
40861158.000	9.819718e-001	5.878378e-002
40867152.000	9.819744e-001	5.872113e-002
40873146.000	9.819777e-001	5.870486e-002
40879140.000	9.820357e-001	5.871093e-002
40885134.000	9.819359e-001	5.865083e-002
40891128.000	9.819612e-001	5.862120e-002
40897122.000	9.819930e-001	5.861368e-002
40903116.000	9.819834e-001	5.853464e-002
40909110.000	9.819658e-001	5.854223e-002
40915104.000	9.820288e-001	5.852433e-002
40921098.000	9.820624e-001	5.849592e-002
40927092.000	9.820270e-001	5.845016e-002
40933086.000	9.819641e-001	5.839945e-002
40939080.000	9.819827e-001	5.835293e-002
40945074.000	9.819694e-001	5.833230e-002
40951068.000	9.819759e-001	5.831841e-002
40957062.000	9.820270e-001	5.826858e-002
40963056.000	9.819884e-001	5.825820e-002
40969050.000	9.820316e-001	5.819541e-002
40975044.000	9.820094e-001	5.816862e-002
40981038.000	9.819917e-001	5.816169e-002
40987032.000	9.819970e-001	5.812675e-002
40993026.000	9.820256e-001	5.813884e-002
40999020.000	9.819874e-001	5.807799e-002
41005014.000	9.820191e-001	5.800261e-002
41011008.000	9.819908e-001	5.800653e-002
41017002.000	9.819722e-001	5.800143e-002
41022996.000	9.820224e-001	5.792235e-002
41028990.000	9.820394e-001	5.795014e-002
41034984.000	9.820127e-001	5.783564e-002
41040978.000	9.819886e-001	5.779954e-002
41046972.000	9.820531e-001	5.782913e-002
41052966.000	9.820201e-001	5.776764e-002
41058960.000	9.819960e-001	5.773409e-002
41064954.000	9.820737e-001	5.775493e-002
41070948.000	9.820494e-001	5.770835e-002
41076942.000	9.820589e-001	5.761665e-002
41082936.000	9.820736e-001	5.763392e-002
41088930.000	9.820783e-001	5.759061e-002
41094924.000	9.820835e-001	5.754918e-002
41100918.000	9.820401e-001	5.753914e-002
41106912.000	9.820513e-001	5.748789e-002
41112906.000	9.820598e-001	5.747518e-002
41118900.000	9.820866e-001	5.744362e-002
41124894.000	9.820257e-001	5.740402e-002
41130888.000	9.820288e-001	5.735780e-002
41136882.000	9.820567e-001	5.731057e-002
41142876.000	9.820100e-001	5.728434e-002
41148870.000	9.820393e-001	5.725849e-002
41154864.000	9.820970e-001	5.727007e-002
41160858.000	9.820523e-001	5.721578e-002
41166852.000	9.820047e-001	5.718691e-002
41172846.000	9.820025e-001	5.714391e-002
41178840.000	9.820197e-001	5.712676e-002
41184834.000	9.820308e-001	5.709261e-002
41190828.000	9.820656e-001	5.706340e-002
41196822.000	9.820092e-001	5.702863e-002
41202816.000	9.820038e-001	5.699991e-002
41208810.000	9.820163e-001	5.695499e-002
41214804.000	9.820501e-001	5.694652e-002
41220798.000	9.820678e-001	5.692765e-002
41226792.000	9.820479e-001	5.684391e-002
41232786.000	9.820799e-001	5.682671e-002
41238780.000	9.820463e-001	5.682071e-002
41244774.000	9.820392e-001	5.677526e-002
41250768.000	9.820766e-001	5.673511e-002
41256762.000	9.820435e-001	5.670084e-002
41262756.000	9.820823e-001	5.669089e-002
41268750.000	9.820951e-001	5.668803e-002
41274744.000	9.820708e-001	5.659813e-002
41280738.000	9.820849e-001	5.658300e-002
41286732.000	9.821088e-001	5.654427e-002
41292726.000	9.821085e-001	5.654758e-002
41298720.000	9.820428e-001	5.648840e-002
41304714.000	9.821038e-001	5.643539e-002
41310708.000	9.820470e-001	5.640770e-002
41316702.000	9.820823e-001	5.638779e-002
41322696.000	9.821051e-001	5.636853e-002
41328690.000	9.821185e-001	5.636710e-002
41334684.000	9.820676e-001	5.628799e-002
41340678.000	9.820711e-001	5.627791e-002
41346672.000	9.821031e-001	5.627373e-002
41352666.000	9.820644e-001	5.621512e-002
41358660.000	9.820549e-001	5.615007e-002
41364654.000	9.821383e-001	5.617966e-002
41370648.000	9.821070e-001	5.609108e-002
41376642.000	9.820706e-001	5.608578e-002
41382636.000	9.820901e-001	5.603900e-002
41388630.000	9.820865e-001	5.601653e-002
41394624.000	9.820185e-001	5.596955e-002
41400618.000	9.820874e-001	5.595611e-002
41406612.000	9.820427e-001	5.592993e-002
41412606.000	9.821011e-001	5.592479e-002
41418600.000	9.820799e-001	5.588733e-002
41424594.000	9.820870e-001	5.582291e-002
41430588.000	9.821219e-001	5.579091e-002
41436582.000	9.820771e-001	5.573765e-002
41442576.000	9.820735e-001	5.575057e-002
41448570.000	9.820694e-001	5.571147e-002
41454564.000	9.820922e-001	5.565340e-002
41460558.000	9.820786e-001	5.565322e-002
41466552.000	9.821114e-001	5.562153e-002
41472546.000	9.820584e-001	5.559515e-002
41478540.000	9.820593e-001	5.554292e-002
41484534.000	9.821054e-001	5.551278e-002
41490528.000	9.821020e-001	5.549931e-002
41496522.000	9.821286e-001	5.548196e-002
41502516.000	9.820869e-001	5.540015e-002
41508510.000	9.820766e-001	5.539643e-002
41514504.000	9.821395e-001	5.533591e-002
41520498.000	9.820950e-001	5.532597e-002
41526492.000	9.821127e-001	5.528895e-002
41532486.000	9.821073e-001	5.528279e-002
41538480.000	9.821769e-001	5.528376e-002
41544474.000	9.821863e-001	5.522914e-002
41550468.000	9.821117e-001	5.519916e-002
41556462.000	9.821431e-001	5.515750e-002
41562456.000	9.821333e-001	5.514290e-002
41568450.000	9.821090e-001	5.509184e-002
41574444.000	9.821102e-001	5.504773e-002
41580438.000	9.821349e-001	5.504745e-002
41586432.000	9.821011e-001	5.499231e-002
41592426.000	9.821252e-001	5.494693e-002
41598420.000	9.821375e-001	5.492238e-002
41604414.000	9.821508e-001	5.492288e-002
41610408.000	9.821474e-001	5.489134e-002
41616402.000	9.821173e-001	5.485050e-002
41622396.000	9.821047e-001	5.480149e-002
41628390.000	9.821022e-001	5.477184e-002
41634384.000	9.821078e-001	5.473608e-002
41640378.000	9.821201e-001	5.473823e-002
41646372.000	9.820603e-001	5.468458e-002
41652366.000	9.820767e-001	5.461456e-002
41658360.000	9.821096e-001	5.462382e-002
41664354.000	9.821281e-001	5.462238e-002
41670348.000	9.821293e-001	5.455333e-002
41676342.000	9.821517e-001	5.454538e-002
41682336.000	9.821384e-001	5.452121e-002
41688330.000	9.821580e-001	5.447738e-002
41694324.000	9.821683e-001	5.443555e-002
41700318.000	9.820815e-001	5.439848e-002
41706312.000	9.821011e-001	5.437328e-002
41712306.000	9.821178e-001	5.432686e-002
41718300.000	9.821568e-001	5.432217e-002
41724294.000	9.821241e-001	5.429357e-002
41730288.000	9.821385e-001	5.427816e-002
41736282.000	9.821501e-001	5.424926e-002
41742276.000	9.820795e-001	5.418252e-002
41748270.000	9.820938e-001	5.415019e-002
41754264.000	9.821201e-001	5.411422e-002
41760258.000	9.821246e-001	5.405886e-002
41766252.000	9.821832e-001	5.409512e-002
41772246.000	9.821269e-001	5.401115e-002
41778240.000	9.821676e-001	5.399170e-002
41784234.000	9.821684e-001	5.400929e-002
41790228.000	9.821564e-001	5.398201e-002
41796222.000	9.821616e-001	5.394676e-002
41802216.000	9.820989e-001	5.387439e-002
41808210.000	9.821782e-001	5.383930e-002
41814204.000	9.821467e-001	5.383044e-002
41820198.000	9.821359e-001	5.378392e-002
41826192.000	9.821089e-001	5.377178e-002
41832186.000	9.820799e-001	5.370446e-002
41838180.000	9.821333e-001	5.370661e-002
41844174.000	9.821606e-001	5.366139e-002
41850168.000	9.821653e-001	5.364257e-002
41856162.000	9.821565e-001	5.360628e-002
41862156.000	9.821574e-001	5.356477e-002
41868150.000	9.821128e-001	5.359667e-002
41874144.000	9.821338e-001	5.351580e-002
41880138.000	9.821570e-001	5.349436e-002
41886132.000	9.821558e-001	5.348743e-002
41892126.000	9.821503e-001	5.338547e-002
41898120.000	9.821487e-001	5.340789e-002
41904114.000	9.821327e-001	5.338192e-002
41910108.000	9.821260e-001	5.334366e-002
41916102.000	9.821491e-001	5.328729e-002
41922096.000	9.821585e-001	5.331217e-002
41928090.000	9.821633e-001	5.324439e-002
41934084.000	9.822070e-001	5.317551e-002
41940078.000	9.821596e-001	5.317491e-002
41946072.000	9.821241e-001	5.313918e-002
41952066.000	9.821301e-001	5.311244e-002
41958060.000	9.821824e-001	5.306976e-002
41964054.000	9.821580e-001	5.307809e-002
41970048.000	9.821517e-001	5.304500e-002
41976042.000	9.822041e-001	5.299621e-002
41982036.000	9.821672e-001	5.297785e-002
41988030.000	9.821384e-001	5.296800e-002
41994024.000	9.821614e-001	5.292257e-002
42000018.000	9.821854e-001	5.288317e-002
42006012.000	9.821789e-001	5.283748e-002
42012006.000	9.821630e-001	5.280637e-002
42018000.000	9.822070e-001	5.282548e-002
42023994.000	9.821847e-001	5.276601e-002
42029988.000	9.821504e-001	5.272546e-002
42035982.000	9.821852e-001	5.272029e-002
42041976.000	9.822123e-001	5.268784e-002
42047970.000	9.821306e-001	5.263053e-002
42053964.000	9.821682e-001	5.258469e-002
42059958.000	9.821464e-001	5.258871e-002
42065952.000	9.821830e-001	5.255874e-002
42071946.000	9.822078e-001	5.251189e-002
42077940.000	9.821847e-001	5.251553e-002
42083934.000	9.822112e-001	5.244484e-002
42089928.000	9.822260e-001	5.243393e-002
42095922.000	9.821822e-001	5.242766e-002
42101916.000	9.822127e-001	5.237171e-002
42107910.000	9.822146e-001	5.232453e-002
42113904.000	9.821909e-001	5.230273e-002
42119898.000	9.822699e-001	5.224427e-002
42125892.000	9.822345e-001	5.226686e-002
42131886.000	9.822108e-001	5.218304e-002
42137880.000	9.821705e-001	5.214874e-002
42143874.000	9.821875e-001	5.217092e-002
42149868.000	9.822194e-001	5.210616e-002
42155862.000	9.821583e-001	5.207362e-002
42161856.000	9.822250e-001	5.205269e-002
42167850.000	9.822027e-001	5.201527e-002
42173844.000	9.821872e-001	5.198778e-002
42179838.000	9.822142e-001	5.195978e-002
42185832.000	9.822095e-001	5.193359e-002
42191826.000	9.821768e-001	5.190801e-002
42197820.000	9.822132e-001	5.188050e-002
42203814.000	9.821753e-001	5.185601e-002
42209808.000	9.822058e-001	5.182883e-002
42215802.000	9.822242e-001	5.180949e-002
42221796.000	9.822146e-001	5.174485e-002
42227790.000	9.821819e-001	5.171424e-002
42233784.000	9.821706e-001	5.168198e-002
42239778.000	9.822333e-001	5.166698e-002
42245772.000	9.821902e-001	5.163087e-002
42251766.000	9.821947e-001	5.157025e-002
42257760.000	9.822432e-001	5.156287e-002
42263754.000	9.822264e-001	5.154764e-002
42269748.000	9.822516e-001	5.149493e-002
42275742.000	9.822135e-001	5.152101e-002
42281736.000	9.822490e-001	5.143281e-002
42287730.000	9.822342e-001	5.142978e-002
42293724.000	9.822312e-001	5.137294e-002
42299718.000	9.822438e-001	5.137029e-002
42305712.000	9.822398e-001	5.133499e-002
42311706.000	9.822608e-001	5.130696e-002
42317700.000	9.822620e-001	5.127082e-002
42323694.000	9.822336e-001	5.124798e-002
42329688.000	9.822049e-001	5.124093e-002
42335682.000	9.822582e-001	5.120571e-002
42341676.000	9.822365e-001	5.115043e-002
42347670.000	9.822113e-001	5.110410e-002
42353664.000	9.822333e-001	5.105405e-002
42359658.000	9.822116e-001	5.105237e-002
42365652.000	9.822281e-001	5.100987e-002
42371646.000	9.822334e-001	5.100997e-002
42377640.000	9.822413e-001	5.096240e-002
42383634.000	9.822330e-001	5.093168e-002
42389628.000	9.822202e-001	5.090386e-002
42395622.000	9.822665e-001	5.088240e-002
42401616.000	9.822365e-001	5.083482e-002
42407610.000	9.822464e-001	5.083614e-002
42413604.000	9.822937e-001	5.078587e-002
42419598.000	9.822548e-001	5.077776e-002
42425592.000	9.822607e-001	5.072630e-002
42431586.000	9.822845e-001	5.070442e-002
42437580.000	9.822580e-001	5.067911e-002
42443574.000	9.823081e-001	5.065224e-002
42449568.000	9.822634e-001	5.063338e-002
42455562.000	9.823103e-001	5.059011e-002
42461556.000	9.822598e-001	5.050870e-002
42467550.000	9.822844e-001	5.051440e-002
42473544.000	9.823299e-001	5.049205e-002
42479538.000	9.822779e-001	5.042992e-002
42485532.000	9.822881e-001	5.043411e-002
42491526.000	9.822820e-001	5.039039e-002
42497520.000	9.822626e-001	5.037548e-002
42503514.000	9.822518e-001	5.032488e-002
42509508.000	9.822565e-001	5.030558e-002
42515502.000	9.822497e-001	5.027609e-002
42521496.000	9.822296e-001	5.026262e-002
42527490.000	9.822216e-001	5.022494e-002
42533484.000	9.822830e-001	5.016745e-002
42539478.000	9.822473e-001	5.016840e-002
42545472.000	9.822494e-001	5.012517e-002
42551466.000	9.822828e-001	5.009514e-002
42557460.000	9.822809e-001	5.008531e-002
42563454.000	9.822476e-001	5.002474e-002
42569448.000	9.822685e-001	4.999718e-002
42575442.000	9.822978e-001	4.997917e-002
42581436.000	9.822525e-001	4.995001e-002
42587430.000	9.822870e-001	4.991262e-002
42593424.000	9.823346e-001	4.987179e-002
42599418.000	9.823024e-001	4.987270e-002
42605412.000	9.823412e-001	4.982379e-002
42611406.000	9.822441e-001	4.977981e-002
42617400.000	9.822894e-001	4.980617e-002
42623394.000	9.823200e-001	4.975521e-002
42629388.000	9.823218e-001	4.971236e-002
42635382.000	9.823310e-001	4.970191e-002
42641376.000	9.823316e-001	4.964524e-002
42647370.000	9.822847e-001	4.961433e-002
42653364.000	9.822822e-001	4.957384e-002
42659358.000	9.823059e-001	4.959640e-002
42665352.000	9.822871e-001	4.955100e-002
42671346.000	9.823107e-001	4.952041e-002
42677340.000	9.823345e-001	4.945362e-002
42683334.000	9.822235e-001	4.943078e-002
42689328.000	9.822700e-001	4.942382e-002
42695322.000	9.822507e-001	4.937383e-002
42701316.000	9.823076e-001	4.934470e-002
42707310.000	9.822945e-001	4.929315e-002
42713304.000	9.822967e-001	4.930837e-002
42719298.000	9.822758e-001	4.926402e-002
42725292.000	9.823104e-001	4.921709e-002
42731286.000	9.822865e-001	4.920593e-002
42737280.000	9.822866e-001	4.914707e-002
42743274.000	9.822197e-001	4.913565e-002
42749268.000	9.822796e-001	4.913769e-002
42755262.000	9.822918e-001	4.908650e-002
42761256.000	9.823251e-001	4.903735e-002
42767250.000	9.823119e-001	4.901474e-002
42773244.000	9.823863e-001	4.904276e-002
42779238.000	9.823564e-001	4.895856e-002
42785232.000	9.823722e-001	4.893214e-002
42791226.000	9.823534e-001	4.892632e-002
42797220.000	9.823185e-001	4.888086e-002
42803214.000	9.823250e-001	4.885663e-002
42809208.000	9.822855e-001	4.883718e-002
42815202.000	9.822914e-001	4.881390e-002
42821196.000	9.823114e-001	4.874277e-002
42827190.000	9.823116e-001	4.871140e-002
42833184.000	9.823211e-001	4.868729e-002
42839178.000	9.823531e-001	4.865656e-002
42845172.000	9.823137e-001	4.863201e-002
42851166.000	9.823194e-001	4.856846e-002
42857160.000	9.823255e-001	4.858958e-002
42863154.000	9.823423e-001	4.856594e-002
42869148.000	9.823587e-001	4.851695e-002
42875142.000	9.823449e-001	4.847910e-002
42881136.000	9.823226e-001	4.843045e-002
42887130.000	9.823458e-001	4.840730e-002
42893124.000	9.823409e-001	4.839014e-002
42899118.000	9.823433e-001	4.835836e-002
42905112.000	9.823408e-001	4.835971e-002
42911106.000	9.823733e-001	4.829200e-002
42917100.000	9.823421e-001	4.830590e-002
42923094.000	9.822938e-001	4.824906e-002
42929088.000	9.823206e-001	4.819645e-002
42935082.000	9.823215e-001	4.820321e-002
42941076.000	9.823405e-001	4.814141e-002
42947070.000	9.823316e-001	4.810819e-002
42953064.000	9.823367e-001	4.808173e-002
42959058.000	9.823266e-001	4.803087e-002
42965052.000	9.823435e-001	4.802582e-002
42971046.000	9.823245e-001	4.798563e-002
42977040.000	9.823491e-001	4.795519e-002
42983034.000	9.823357e-001	4.793909e-002
42989028.000	9.823538e-001	4.790854e-002
42995022.000	9.823510e-001	4.792243e-002
43001016.000	9.823344e-001	4.783927e-002
43007010.000	9.823707e-001	4.783524e-002
43013004.000	9.823016e-001	4.778505e-002
43018998.000	9.823529e-001	4.774216e-002
43024992.000	9.823672e-001	4.772802e-002
43030986.000	9.824141e-001	4.770801e-002
43036980.000	9.823488e-001	4.767685e-002
43042974.000	9.824056e-001	4.767560e-002
43048968.000	9.823428e-001	4.761298e-002
43054962.000	9.824164e-001	4.759787e-002
43060956.000	9.823821e-001	4.751664e-002
43066950.000	9.823656e-001	4.753649e-002
43072944.000	9.823345e-001	4.749132e-002
43078938.000	9.823860e-001	4.748801e-002
43084932.000	9.823930e-001	4.747090e-002
43090926.000	9.823850e-001	4.740845e-002
43096920.000	9.823776e-001	4.738780e-002
43102914.000	9.823942e-001	4.733652e-002
43108908.000	9.823537e-001	4.734063e-002
43114902.000	9.823691e-001	4.729602e-002
43120896.000	9.823841e-001	4.726617e-002
43126890.000	9.823788e-001	4.725875e-002
43132884.000	9.824173e-001	4.720587e-002
43138878.000	9.824108e-001	4.720693e-002
43144872.000	9.824005e-001	4.716004e-002
43150866.000	9.824365e-001	4.711490e-002
43156860.000	9.824476e-001	4.713334e-002
43162854.000	9.824137e-001	4.707160e-002
43168848.000	9.824613e-001	4.702505e-002
43174842.000	9.824054e-001	4.693973e-002
43180836.000	9.823867e-001	4.698391e-002
43186830.000	9.824133e-001	4.694499e-002
43192824.000	9.824061e-001	4.691467e-002
43198818.000	9.823523e-001	4.686719e-002
43204812.000	9.823379e-001	4.680470e-002
43210806.000	9.823375e-001	4.683234e-002
43216800.000	9.823274e-001	4.678659e-002
43222794.000	9.824232e-001	4.677548e-002
43228788.000	9.823946e-001	4.675545e-002
43234782.000	9.823856e-001	4.670038e-002
43240776.000	9.823707e-001	4.668466e-002
43246770.000	9.823646e-001	4.662201e-002
43252764.000	9.823797e-001	4.660313e-002
43258758.000	9.823654e-001	4.659934e-002
43264752.000	9.823956e-001	4.655920e-002
43270746.000	9.823766e-001	4.653148e-002
43276740.000	9.824419e-001	4.649349e-002
43282734.000	9.824287e-001	4.646072e-002
43288728.000	9.823937e-001	4.644360e-002
43294722.000	9.824369e-001	4.640698e-002
43300716.000	9.824001e-001	4.639037e-002
43306710.000	9.824303e-001	4.634128e-002
43312704.000	9.824595e-001	4.634879e-002
43318698.000	9.824228e-001	4.631506e-002
43324692.000	9.824087e-001	4.626705e-002
43330686.000	9.824232e-001	4.622158e-002
43336680.000	9.823907e-001	4.620618e-002
43342674.000	9.824315e-001	4.619497e-002
43348668.000	9.824262e-001	4.613435e-002
43354662.000	9.824388e-001	4.613272e-002
43360656.000	9.824212e-001	4.607550e-002
43366650.000	9.823963e-001	4.606711e-002
43372644.000	9.824200e-001	4.602873e-002
43378638.000	9.823824e-001	4.601199e-002
43384632.000	9.824231e-001	4.598499e-002
43390626.000	9.823906e-001	4.593789e-002
43396620.000	9.824354e-001	4.592764e-002
43402614.000	9.824546e-001	4.591254e-002
43408608.000	9.824189e-001	4.588521e-002
43414602.000	9.824418e-001	4.582475e-002
43420596.000	9.824353e-001	4.583260e-002
43426590.000	9.824271e-001	4.576898e-002
43432584.000	9.823838e-001	4.574054e-002
43438578.000	9.824526e-001	4.570086e-002
43444572.000	9.823845e-001	4.564874e-002
43450566.000	9.824073e-001	4.564899e-002
43456560.000	9.824197e-001	4.562465e-002
43462554.000	9.824325e-001	4.559186e-002
43468548.000	9.824498e-001	4.557332e-002
43474542.000	9.824157e-001	4.552955e-002
43480536.000	9.824587e-001	4.550041e-002
43486530.000	9.824408e-001	4.548134e-002
43492524.000	9.824387e-001	4.542985e-002
43498518.000	9.824522e-001	4.541835e-002
43504512.000	9.824526e-001	4.538738e-002
43510506.000	9.824683e-001	4.538029e-002
43516500.000	9.824134e-001	4.531505e-002
43522494.000	9.824273e-001	4.532171e-002
43528488.000	9.824491e-001	4.526142e-002
43534482.000	9.824998e-001	4.522257e-002
43540476.000	9.824799e-001	4.519851e-002
43546470.000	9.824847e-001	4.520088e-002
43552464.000	9.824547e-001	4.516298e-002
43558458.000	9.824446e-001	4.511720e-002
43564452.000	9.824409e-001	4.507549e-002
43570446.000	9.824725e-001	4.507937e-002
43576440.000	9.825104e-001	4.504248e-002
43582434.000	9.824535e-001	4.502497e-002
43588428.000	9.824835e-001	4.495790e-002
43594422.000	9.824712e-001	4.495079e-002
43600416.000	9.824043e-001	4.489871e-002
43606410.000	9.824281e-001	4.486348e-002
43612404.000	9.824423e-001	4.484235e-002
43618398.000	9.824016e-001	4.485245e-002
43624392.000	9.824778e-001	4.481131e-002
43630386.000	9.824371e-001	4.476568e-002
43636380.000	9.824200e-001	4.472650e-002
43642374.000	9.824920e-001	4.471679e-002
43648368.000	9.824535e-001	4.471253e-002
43654362.000	9.824734e-001	4.466515e-002
43660356.000	9.824741e-001	4.460247e-002
43666350.000	9.824670e-001	4.459367e-002
43672344.000	9.824490e-001	4.457962e-002
43678338.000	9.824639e-001	4.453840e-002
43684332.000	9.824673e-001	4.451539e-002
43690326.000	9.824660e-001	4.446993e-002
43696320.000	9.824471e-001	4.445832e-002
43702314.000	9.824592e-001	4.443661e-002
43708308.000	9.824772e-001	4.440668e-002
43714302.000	9.824235e-001	4.434038e-002
43720296.000	9.824279e-001	4.435220e-002
43726290.000	9.824442e-001	4.434347e-002
43732284.000	9.824755e-001	4.429566e-002
43738278.000	9.824400e-001	4.424238e-002
43744272.000	9.824624e-001	4.423150e-002
43750266.000	9.824695e-001	4.420722e-002
43756260.000	9.824516e-001	4.417497e-002
43762254.000	9.824895e-001	4.413315e-002
43768248.000	9.824670e-001	4.412100e-002
43774242.000	9.824562e-001	4.407973e-002
43780236.000	9.824329e-001	4.404403e-002
43786230.000	9.824510e-001	4.404329e-002
43792224.000	9.824890e-001	4.396350e-002
43798218.000	9.825014e-001	4.396592e-002
43804212.000	9.824411e-001	4.394290e-002
43810206.000	9.824961e-001	4.389481e-002
43816200.000	9.824426e-001	4.387796e-002
43822194.000	9.824973e-001	4.382628e-002
43828188.000	9.825195e-001	4.382803e-002
43834182.000	9.824820e-001	4.375315e-002
43840176.000	9.824557e-001	4.373878e-002
43846170.000	9.824883e-001	4.371454e-002
43852164.000	9.824669e-001	4.365866e-002
43858158.000	9.825049e-001	4.368557e-002
43864152.000	9.824881e-001	4.368065e-002
43870146.000	9.824606e-001	4.359850e-002
43876140.000	9.824643e-001	4.360283e-002
43882134.000	9.824539e-001	4.354192e-002
43888128.000	9.824725e-001	4.349643e-002
43894122.000	9.824778e-001	4.352405e-002
43900116.000	9.824804e-001	4.348868e-002
43906110.000	9.824932e-001	4.346846e-002
43912104.000	9.824723e-001	4.341989e-002
43918098.000	9.824550e-001	4.336914e-002
43924092.000	9.824823e-001	4.336233e-002
43930086.000	9.824973e-001	4.331080e-002
43936080.000	9.824734e-001	4.332114e-002
43942074.000	9.824802e-001	4.326217e-002
43948068.000	9.824960e-001	4.323545e-002
43954062.000	9.824659e-001	4.324069e-002
43960056.000	9.824754e-001	4.318139e-002
43966050.000	9.824583e-001	4.316607e-002
43972044.000	9.824334e-001	4.311773e-002
43978038.000	9.824878e-001	4.307636e-002
43984032.000	9.824250e-001	4.304823e-002
43990026.000	9.824741e-001	4.302683e-002
43996020.000	9.824797e-001	4.302354e-002
44002014.000	9.824767e-001	4.296432e-002
44008008.000	9.824529e-001	4.292343e-002
44014002.000	9.824532e-001	4.292256e-002
44019996.000	9.824541e-001	4.286174e-002
44025990.000	9.824527e-001	4.287235e-002
44031984.000	9.824874e-001	4.283227e-002
44037978.000	9.825162e-001	4.280038e-002
44043972.000	9.824896e-001	4.275175e-002
44049966.000	9.825145e-001	4.275330e-002
44055960.000	9.824776e-001	4.273866e-002
44061954.000	9.824523e-001	4.266650e-002
44067948.000	9.824440e-001	4.264063e-002
44073942.000	9.824931e-001	4.263690e-002
44079936.000	9.824905e-001	4.262505e-002
44085930.000	9.824853e-001	4.257167e-002
44091924.000	9.824492e-001	4.255116e-002
44097918.000	9.824996e-001	4.250358e-002
44103912.000	9.825166e-001	4.248822e-002
44109906.000	9.824642e-001	4.241264e-002
44115900.000	9.824911e-001	4.243493e-002
44121894.000	9.824894e-001	4.241246e-002
44127888.000	9.825310e-001	4.239413e-002
44133882.000	9.825476e-001	4.235607e-002
44139876.000	9.825633e-001	4.231989e-002
44145870.000	9.825178e-001	4.232211e-002
44151864.000	9.825328e-001	4.226695e-002
44157858.000	9.825024e-001	4.223306e-002
44163852.000	9.825021e-001	4.221560e-002
44169846.000	9.825252e-001	4.219110e-002
44175840.000	9.825159e-001	4.213996e-002
44181834.000	9.824930e-001	4.212185e-002
44187828.000	9.824914e-001	4.208052e-002
44193822.000	9.825152e-001	4.205018e-002
44199816.000	9.825042e-001	4.199666e-002
44205810.000	9.825309e-001	4.200380e-002
44211804.000	9.825202e-001	4.198578e-002
44217798.000	9.825416e-001	4.196029e-002
44223792.000	9.825203e-001	4.193235e-002
44229786.000	9.824950e-001	4.185648e-002
44235780.000	9.824999e-001	4.185303e-002
44241774.000	9.825304e-001	4.180047e-002
44247768.000	9.824540e-001	4.177545e-002
44253762.000	9.825003e-001	4.173198e-002
44259756.000	9.824977e-001	4.176114e-002
44265750.000	9.824658e-001	4.170461e-002
44271744.000	9.825044e-001	4.169153e-002
44277738.000	9.824716e-001	4.164802e-002
44283732.000	9.825253e-001	4.162943e-002
44289726.000	9.824966e-001	4.156777e-002
44295720.000	9.824941e-001	4.154864e-002
44301714.000	9.825018e-001	4.153217e-002
44307708.000	9.825148e-001	4.147253e-002
44313702.000	9.825101e-001	4.148619e-002
44319696.000	9.824895e-001	4.144439e-002
44325690.000	9.824715e-001	4.141295e-002
44331684.000	9.825223e-001	4.139114e-002
44337678.000	9.825442e-001	4.139574e-002
44343672.000	9.825469e-001	4.135833e-002
44349666.000	9.825744e-001	4.130608e-002
44355660.000	9.825534e-001	4.126126e-002
44361654.000	9.825440e-001	4.126151e-002
44367648.000	9.824895e-001	4.124314e-002
44373642.000	9.825210e-001	4.121501e-002
44379636.000	9.825414e-001	4.116210e-002
44385630.000	9.825222e-001	4.112966e-002
44391624.000	9.825072e-001	4.110189e-002
44397618.000	9.825419e-001	4.106904e-002
44403612.000	9.825054e-001	4.105115e-002
44409606.000	9.825150e-001	4.102041e-002
44415600.000	9.825132e-001	4.097833e-002
44421594.000	9.825085e-001	4.093376e-002
44427588.000	9.825211e-001	4.090503e-002
44433582.000	9.825082e-001	4.090222e-002
44439576.000	9.825246e-001	4.089329e-002
44445570.000	9.825471e-001	4.084164e-002
44451564.000	9.825007e-001	4.078964e-002
44457558.000	9.825493e-001	4.077392e-002
44463552.000	9.825208e-001	4.078508e-002
44469546.000	9.825588e-001	4.073099e-002
44475540.000	9.825397e-001	4.071879e-002
44481534.000	9.825386e-001	4.067039e-002
44487528.000	9.825172e-001	4.061907e-002
44493522.000	9.825045e-001	4.063622e-002
44499516.000	9.825989e-001	4.060396e-002
44505510.000	9.825496e-001	4.055401e-002
44511504.000	9.825276e-001	4.054252e-002
44517498.000	9.825379e-001	4.049076e-002
44523492.000	9.825646e-001	4.045608e-002
44529486.000	9.825543e-001	4.041435e-002
44535480.000	9.825316e-001	4.042396e-002
44541474.000	9.825313e-001	4.039789e-002
44547468.000	9.825396e-001	4.036193e-002
44553462.000	9.825448e-001	4.031060e-002
44559456.000	9.825927e-001	4.030443e-002
44565450.000	9.825618e-001	4.030032e-002
44571444.000	9.825891e-001	4.021894e-002
44577438.000	9.825867e-001	4.024073e-002
44583432.000	9.825752e-001	4.019327e-002
44589426.000	9.826201e-001	4.019876e-002
44595420.000	9.825352e-001	4.016537e-002
44601414.000	9.825320e-001	4.013800e-002
44607408.000	9.825398e-001	4.004013e-002
44613402.000	9.825850e-001	4.007395e-002
44619396.000	9.825964e-001	4.000472e-002
44625390.000	9.825787e-001	4.000500e-002
44631384.000	9.826000e-001	3.997731e-002
44637378.000	9.825607e-001	3.993220e-002
44643372.000	9.825782e-001	3.989909e-002
44649366.000	9.825874e-001	3.990775e-002
44655360.000	9.826434e-001	3.981944e-002
44661354.000	9.825439e-001	3.981496e-002
44667348.000	9.825873e-001	3.977857e-002
44673342.000	9.826515e-001	3.975346e-002
44679336.000	9.825425e-001	3.970618e-002
44685330.000	9.825637e-001	3.973275e-002
44691324.000	9.825596e-001	3.964769e-002
44697318.000	9.825440e-001	3.963405e-002
44703312.000	9.826101e-001	3.962056e-002
44709306.000	9.825699e-001	3.961521e-002
44715300.000	9.825787e-001	3.955754e-002
44721294.000	9.825567e-001	3.950480e-002
44727288.000	9.825965e-001	3.947936e-002
44733282.000	9.825709e-001	3.945417e-002
44739276.000	9.825576e-001	3.942176e-002
44745270.000	9.825811e-001	3.942327e-002
44751264.000	9.825704e-001	3.939643e-002
44757258.000	9.825966e-001	3.934449e-002
44763252.000	9.825233e-001	3.930610e-002
44769246.000	9.825750e-001	3.929074e-002
44775240.000	9.825537e-001	3.928952e-002
44781234.000	9.826160e-001	3.922744e-002
44787228.000	9.825840e-001	3.921256e-002
44793222.000	9.826237e-001	3.917658e-002
44799216.000	9.825996e-001	3.912399e-002
44805210.000	9.826003e-001	3.912923e-002
44811204.000	9.826091e-001	3.911203e-002
44817198.000	9.825924e-001	3.908138e-002
44823192.000	9.825949e-001	3.904775e-002
44829186.000	9.825809e-001	3.903251e-002
44835180.000	9.826217e-001	3.899619e-002
44841174.000	9.825881e-001	3.893956e-002
44847168.000	9.825662e-001	3.893404e-002
44853162.000	9.826110e-001	3.890025e-002
44859156.000	9.826127e-001	3.889571e-002
44865150.000	9.825891e-001	3.884673e-002
44871144.000	9.825703e-001	3.881924e-002
44877138.000	9.826080e-001	3.879188e-002
44883132.000	9.826098e-001	3.878956e-002
44889126.000	9.825753e-001	3.872075e-002
44895120.000	9.826241e-001	3.868532e-002
44901114.000	9.825898e-001	3.865791e-002
44907108.000	9.826098e-001	3.863396e-002
44913102.000	9.826362e-001	3.863053e-002
44919096.000	9.826479e-001	3.861479e-002
44925090.000	9.826897e-001	3.861122e-002
44931084.000	9.826080e-001	3.857562e-002
44937078.000	9.825943e-001	3.849697e-002
44943072.000	9.826512e-001	3.850312e-002
44949066.000	9.826605e-001	3.844212e-002
44955060.000	9.826221e-001	3.842637e-002
44961054.000	9.826783e-001	3.842617e-002
44967048.000	9.826361e-001	3.840097e-002
44973042.000	9.826127e-001	3.835232e-002
44979036.000	9.826208e-001	3.831977e-002
44985030.000	9.826303e-001	3.830452e-002
44991024.000	9.826449e-001	3.826039e-002
44997018.000	9.826568e-001	3.824403e-002
45003012.000	9.826481e-001	3.819662e-002
45009006.000	9.826314e-001	3.818033e-002
45015000.000	9.826177e-001	3.816731e-002
45020994.000	9.825919e-001	3.814579e-002
45026988.000	9.825755e-001	3.808792e-002
45032982.000	9.826032e-001	3.807789e-002
45038976.000	9.826432e-001	3.802002e-002
45044970.000	9.826294e-001	3.799932e-002
45050964.000	9.826152e-001	3.798101e-002
45056958.000	9.826079e-001	3.792945e-002
45062952.000	9.825831e-001	3.790613e-002
45068946.000	9.826014e-001	3.790251e-002
45074940.000	9.826234e-001	3.782705e-002
45080934.000	9.826624e-001	3.784710e-002
45086928.000	9.826456e-001	3.784843e-002
45092922.000	9.826763e-001	3.782231e-002
45098916.000	9.826237e-001	3.775018e-002
45104910.000	9.826328e-001	3.771098e-002
45110904.000	9.826137e-001	3.769025e-002
45116898.000	9.826153e-001	3.764439e-002
45122892.000	9.826033e-001	3.764704e-002
45128886.000	9.826169e-001	3.761594e-002
45134880.000	9.826074e-001	3.754038e-002
45140874.000	9.826170e-001	3.758166e-002
45146868.000	9.826379e-001	3.753686e-002
45152862.000	9.825897e-001	3.748364e-002
45158856.000	9.826206e-001	3.749687e-002
45164850.000	9.825819e-001	3.748081e-002
45170844.000	9.826974e-001	3.744693e-002
45176838.000	9.826636e-001	3.740266e-002
45182832.000	9.826590e-001	3.737666e-002
45188826.000	9.827044e-001	3.732537e-002
45194820.000	9.826749e-001	3.730314e-002
45200814.000	9.826522e-001	3.730008e-002
45206808.000	9.826662e-001	3.719428e-002
45212802.000	9.826231e-001	3.720249e-002
45218796.000	9.826622e-001	3.717666e-002
45224790.000	9.826442e-001	3.716512e-002
45230784.000	9.826361e-001	3.714952e-002
45236778.000	9.826824e-001	3.710523e-002
45242772.000	9.826415e-001	3.712472e-002
45248766.000	9.826577e-001	3.702500e-002
45254760.000	9.826959e-001	3.702707e-002
45260754.000	9.826765e-001	3.702859e-002
45266748.000	9.826567e-001	3.697613e-002
45272742.000	9.826581e-001	3.693425e-002
45278736.000	9.826413e-001	3.693165e-002
45284730.000	9.826638e-001	3.690010e-002
45290724.000	9.826092e-001	3.684979e-002
45296718.000	9.826226e-001	3.682105e-002
45302712.000	9.826223e-001	3.680371e-002
45308706.000	9.826536e-001	3.675791e-002
45314700.000	9.826345e-001	3.676214e-002
45320694.000	9.826542e-001	3.670968e-002
45326688.000	9.826826e-001	3.669502e-002
45332682.000	9.826512e-001	3.668290e-002
45338676.000	9.826469e-001	3.662835e-002
45344670.000	9.826307e-001	3.662008e-002
45350664.000	9.826149e-001	3.655479e-002
45356658.000	9.825943e-001	3.650602e-002
45362652.000	9.826557e-001	3.655010e-002
45368646.000	9.826517e-001	3.651920e-002
45374640.000	9.826414e-001	3.644945e-002
45380634.000	9.826468e-001	3.643731e-002
45386628.000	9.826023e-001	3.640972e-002
45392622.000	9.826072e-001	3.636341e-002
45398616.000	9.826070e-001	3.634798e-002
45404610.000	9.826550e-001	3.634396e-002
45410604.000	9.826567e-001	3.628203e-002
45416598.000	9.826846e-001	3.623708e-002
45422592.000	9.826245e-001	3.620899e-002
45428586.000	9.826160e-001	3.626231e-002
45434580.000	9.826696e-001	3.618634e-002
45440574.000	9.826700e-001	3.616246e-002
45446568.000	9.826458e-001	3.610702e-002
45452562.000	9.826517e-001	3.611038e-002
45458556.000	9.826344e-001	3.606277e-002
45464550.000	9.826490e-001	3.607347e-002
45470544.000	9.826594e-001	3.601256e-002
45476538.000	9.826766e-001	3.598803e-002
45482532.000	9.826414e-001	3.597244e-002
45488526.000	9.826706e-001	3.592498e-002
45494520.000	9.826648e-001	3.587876e-002
45500514.000	9.826374e-001	3.587467e-002
45506508.000	9.826677e-001	3.583742e-002
45512502.000	9.826398e-001	3.581309e-002
45518496.000	9.826703e-001	3.581205e-002
45524490.000	9.826616e-001	3.575155e-002
45530484.000	9.826826e-001	3.577137e-002
45536478.000	9.826722e-001	3.570940e-002
45542472.000	9.826802e-001	3.568280e-002
45548466.000	9.826796e-001	3.564152e-002
45554460.000	9.826847e-001	3.563049e-002
45560454.000	9.826701e-001	3.558295e-002
45566448.000	9.827035e-001	3.556642e-002
45572442.000	9.826668e-001	3.553793e-002
45578436.000	9.826727e-001	3.549843e-002
45584430.000	9.827329e-001	3.550693e-002
45590424.000	9.826796e-001	3.546565e-002
45596418.000	9.827108e-001	3.542080e-002
45602412.000	9.827202e-001	3.542304e-002
45608406.000	9.827092e-001	3.537255e-002
45614400.000	9.826396e-001	3.534408e-002
45620394.000	9.826732e-001	3.534536e-002
45626388.000	9.826823e-001	3.529125e-002
45632382.000	9.826629e-001	3.527548e-002
45638376.000	9.827276e-001	3.525731e-002
45644370.000	9.827051e-001	3.519478e-002
45650364.000	9.826682e-001	3.514879e-002
45656358.000	9.827102e-001	3.519887e-002
45662352.000	9.826923e-001	3.515052e-002
45668346.000	9.827469e-001	3.509058e-002
45674340.000	9.827195e-001	3.510456e-002
45680334.000	9.826967e-001	3.505089e-002
45686328.000	9.827172e-001	3.503778e-002
45692322.000	9.827271e-001	3.499058e-002
45698316.000	9.826834e-001	3.497237e-002
45704310.000	9.826876e-001	3.492620e-002
45710304.000	9.826531e-001	3.487554e-002
45716298.000	9.826714e-001	3.487862e-002
45722292.000	9.825951e-001	3.484997e-002
45728286.000	9.827016e-001	3.482426e-002
45734280.000	9.826738e-001	3.480802e-002
45740274.000	9.827143e-001	3.476579e-002
45746268.000	9.826757e-001	3.472257e-002
45752262.000	9.827207e-001	3.472066e-002
45758256.000	9.826622e-001	3.466856e-002
45764250.000	9.827033e-001	3.466745e-002
45770244.000	9.826769e-001	3.467473e-002
45776238.000	9.826943e-001	3.460444e-002
45782232.000	9.826826e-001	3.457390e-002
45788226.000	9.826528e-001	3.455889e-002
45794220.000	9.826616e-001	3.448168e-002
45800214.000	9.826929e-001	3.451780e-002
45806208.000	9.826833e-001	3.445693e-002
45812202.000	9.826806e-001	3.441984e-002
45818196.000	9.826830e-001	3.438150e-002
45824190.000	9.826717e-001	3.437154e-002
45830184.000	9.827229e-001	3.437556e-002
45836178.000	9.826992e-001	3.431984e-002
45842172.000	9.827102e-001	3.428696e-002
45848166.000	9.827080e-001	3.427736e-002
45854160.000	9.826967e-001	3.421021e-002
45860154.000	9.827158e-001	3.420184e-002
45866148.000	9.826978e-001	3.416764e-002
45872142.000	9.827041e-001	3.415720e-002
45878136.000	9.827351e-001	3.412301e-002
45884130.000	9.827253e-001	3.411728e-002
45890124.000	9.826721e-001	3.407245e-002
45896118.000	9.826985e-001	3.403699e-002
45902112.000	9.827354e-001	3.402771e-002
45908106.000	9.827413e-001	3.403613e-002
45914100.000	9.827107e-001	3.397294e-002
45920094.000	9.826709e-001	3.394677e-002
45926088.000	9.826888e-001	3.391861e-002
45932082.000	9.827107e-001	3.386215e-002
45938076.000	9.826694e-001	3.380670e-002
45944070.000	9.826726e-001	3.386200e-002
45950064.000	9.826204e-001	3.378959e-002
45956058.000	9.826728e-001	3.378090e-002
45962052.000	9.826930e-001	3.374775e-002
45968046.000	9.827146e-001	3.371832e-002
45974040.000	9.826713e-001	3.369529e-002
45980034.000	9.827179e-001	3.366121e-002
45986028.000	9.826743e-001	3.364301e-002
45992022.000	9.826995e-001	3.363165e-002
45998016.000	9.826653e-001	3.358099e-002
46004010.000	9.826717e-001	3.354203e-002
46010004.000	9.827024e-001	3.353394e-002
46015998.000	9.826672e-001	3.349092e-002
46021992.000	9.826897e-001	3.344959e-002
46027986.000	9.826550e-001	3.343890e-002
46033980.000	9.827180e-001	3.339792e-002
46039974.000	9.827110e-001	3.334543e-002
46045968.000	9.826767e-001	3.335859e-002
46051962.000	9.826792e-001	3.329841e-002
46057956.000	9.826666e-001	3.326706e-002
46063950.000	9.826705e-001	3.326318e-002
46069944.000	9.826753e-001	3.322363e-002
46075938.000	9.826841e-001	3.323646e-002
46081932.000	9.826966e-001	3.320720e-002
46087926.000	9.827187e-001	3.315897e-002
46093920.000	9.826620e-001	3.315001e-002
46099914.000	9.827020e-001	3.312200e-002
46105908.000	9.827172e-001	3.310667e-002
46111902.000	9.826970e-001	3.303212e-002
46117896.000	9.827015e-001	3.303242e-002
46123890.000	9.826949e-001	3.298271e-002
46129884.000	9.827017e-001	3.298585e-002
46135878.000	9.826772e-001	3.290900e-002
46141872.000	9.826661e-001	3.290295e-002
46147866.000	9.826766e-001	3.288087e-002
46153860.000	9.826477e-001	3.285425e-002
46159854.000	9.826783e-001	3.281678e-002
46165848.000	9.826404e-001	3.279826e-002
46171842.000	9.826311e-001	3.275934e-002
46177836.000	9.827004e-001	3.279158e-002
46183830.000	9.826974e-001	3.272404e-002
46189824.000	9.827052e-001	3.269948e-002
46195818.000	9.827222e-001	3.266685e-002
46201812.000	9.827624e-001	3.262404e-002
46207806.000	9.827227e-001	3.257612e-002
46213800.000	9.827016e-001	3.256735e-002
46219794.000	9.827068e-001	3.256333e-002
46225788.000	9.827143e-001	3.254751e-002
46231782.000	9.826606e-001	3.247027e-002
46237776.000	9.826795e-001	3.247234e-002
46243770.000	9.827121e-001	3.247610e-002
46249764.000	9.826974e-001	3.241844e-002
46255758.000	9.827575e-001	3.241654e-002
46261752.000	9.827063e-001	3.238670e-002
46267746.000	9.827349e-001	3.237191e-002
46273740.000	9.827121e-001	3.229967e-002
46279734.000	9.827561e-001	3.230375e-002
46285728.000	9.827585e-001	3.226740e-002
46291722.000	9.827839e-001	3.224170e-002
46297716.000	9.827119e-001	3.222649e-002
46303710.000	9.827372e-001	3.218605e-002
46309704.000	9.827093e-001	3.213814e-002
46315698.000	9.827406e-001	3.213116e-002
46321692.000	9.827369e-001	3.214380e-002
46327686.000	9.827640e-001	3.207591e-002
46333680.000	9.827828e-001	3.204122e-002
46339674.000	9.827338e-001	3.203475e-002
46345668.000	9.827418e-001	3.200531e-002
46351662.000	9.827524e-001	3.197471e-002
46357656.000	9.827138e-001	3.194493e-002
46363650.000	9.827363e-001	3.192387e-002
46369644.000	9.827315e-001	3.185317e-002
46375638.000	9.827126e-001	3.180443e-002
46381632.000	9.827243e-001	3.185583e-002
46387626.000	9.827914e-001	3.182276e-002
46393620.000	9.827054e-001	3.176004e-002
46399614.000	9.827432e-001	3.177827e-002
46405608.000	9.827438e-001	3.171089e-002
46411602.000	9.828127e-001	3.172714e-002
46417596.000	9.827624e-001	3.165380e-002
46423590.000	9.827619e-001	3.167451e-002
46429584.000	9.827590e-001	3.162759e-002
46435578.000	9.827775e-001	3.155230e-002
46441572.000	9.828378e-001	3.160844e-002
46447566.000	9.827846e-001	3.151714e-002
46453560.000	9.828059e-001	3.151741e-002
46459554.000	9.827325e-001	3.148985e-002
46465548.000	9.827320e-001	3.144899e-002
46471542.000	9.827769e-001	3.140039e-002
46477536.000	9.828404e-001	3.143753e-002
46483530.000	9.827912e-001	3.139530e-002
46489524.000	9.827891e-001	3.134315e-002
46495518.000	9.827721e-001	3.130632e-002
46501512.000	9.827753e-001	3.128604e-002
46507506.000	9.827451e-001	3.125793e-002
46513500.000	9.827238e-001	3.122882e-002
46519494.000	9.827766e-001	3.120394e-002
46525488.000	9.827860e-001	3.116061e-002
46531482.000	9.827567e-001	3.117239e-002
46537476.000	9.827941e-001	3.111670e-002
46543470.000	9.827935e-001	3.110556e-002
46549464.000	9.827507e-001	3.106666e-002
46555458.000	9.827240e-001	3.108812e-002
46561452.000	9.827640e-001	3.101161e-002
46567446.000	9.827105e-001	3.100840e-002
46573440.000	9.827886e-001	3.097684e-002
46579434.000	9.827756e-001	3.094599e-002
46585428.000	9.827396e-001	3.090004e-002
46591422.000	9.827199e-001	3.089874e-002
46597416.000	9.828124e-001	3.087494e-002
46603410.000	9.827599e-001	3.080119e-002
46609404.000	9.827597e-001	3.075005e-002
46615398.000	9.827853e-001	3.075320e-002
46621392.000	9.827864e-001	3.073179e-002
46627386.000	9.827543e-001	3.069977e-002
46633380.000	9.827115e-001	3.066325e-002
46639374.000	9.827450e-001	3.060695e-002
46645368.000	9.827335e-001	3.062245e-002
46651362.000	9.827750e-001	3.057478e-002
46657356.000	9.827264e-001	3.056299e-002
46663350.000	9.827335e-001	3.052519e-002
46669344.000	9.827540e-001	3.052324e-002
46675338.000	9.827678e-001	3.050476e-002
46681332.000	9.828125e-001	3.049338e-002
46687326.000	9.827408e-001	3.043040e-002
46693320.000	9.827682e-001	3.042767e-002
46699314.000	9.827498e-001	3.040467e-002
46705308.000	9.827429e-001	3.033942e-002
46711302.000	9.827531e-001	3.033796e-002
46717296.000	9.827771e-001	3.027798e-002
46723290.000	9.827661e-001	3.025169e-002
46729284.000	9.827122e-001	3.023566e-002
46735278.000	9.827378e-001	3.022039e-002
46741272.000	9.827591e-001	3.018911e-002
46747266.000	9.827837e-001	3.013215e-002
46753260.000	9.827093e-001	3.012060e-002
46759254.000	9.828042e-001	3.010779e-002
46765248.000	9.827438e-001	3.005999e-002
46771242.000	9.827679e-001	3.005118e-002
46777236.000	9.827427e-001	3.004392e-002
46783230.000	9.827725e-001	2.998421e-002
46789224.000	9.827644e-001	2.995933e-002
46795218.000	9.827373e-001	2.997965e-002
46801212.000	9.827545e-001	2.991797e-002
46807206.000	9.827323e-001	2.987552e-002
46813200.000	9.828064e-001	2.987024e-002
46819194.000	9.827839e-001	2.987536e-002
46825188.000	9.827919e-001	2.980515e-002
46831182.000	9.827713e-001	2.979036e-002
46837176.000	9.827982e-001	2.974676e-002
46843170.000	9.827565e-001	2.977084e-002
46849164.000	9.827936e-001	2.970865e-002
46855158.000	9.827985e-001	2.968263e-002
46861152.000	9.827889e-001	2.969539e-002
46867146.000	9.827890e-001	2.962760e-002
46873140.000	9.827930e-001	2.959627e-002
46879134.000	9.828323e-001	2.957686e-002
46885128.000	9.827907e-001	2.953054e-002
46891122.000	9.828269e-001	2.950858e-002
46897116.000	9.828044e-001	2.946718e-002
46903110.000	9.827783e-001	2.945939e-002
46909104.000	9.828272e-001	2.944868e-002
46915098.000	9.828102e-001	2.942548e-002
46921092.000	9.828152e-001	2.936533e-002
46927086.000	9.828029e-001	2.941598e-002
46933080.000	9.827857e-001	2.932468e-002
46939074.000	9.828094e-001	2.929062e-002
46945068.000	9.827996e-001	2.924956e-002
46951062.000	9.828058e-001	2.925099e-002
46957056.000	9.827896e-001	2.923438e-002
46963050.000	9.827514e-001	2.918812e-002
46969044.000	9.828029e-001	2.915524e-002
46975038.000	9.828025e-001	2.913992e-002
46981032.000	9.828287e-001	2.910741e-002
46987026.000	9.827975e-001	2.906785e-002
46993020.000	9.827600e-001	2.903130e-002
46999014.000	9.827908e-001	2.905895e-002
47005008.000	9.828137e-001	2.901661e-002
47011002.000	9.827579e-001	2.898688e-002
47016996.000	9.828241e-001	2.894678e-002
47022990.000	9.827989e-001	2.893580e-002
47028984.000	9.827992e-001	2.887343e-002
47034978.000	9.828058e-001	2.886763e-002
47040972.000	9.828318e-001	2.883730e-002
47046966.000	9.827980e-001	2.877519e-002
47052960.000	9.827933e-001	2.876866e-002
47058954.000	9.827995e-001	2.876418e-002
47064948.000	9.828101e-001	2.872167e-002
47070942.000	9.828228e-001	2.873445e-002
47076936.000	9.828260e-001	2.866798e-002
47082930.000	9.827917e-001	2.863572e-002
47088924.000	9.827698e-001	2.861363e-002
47094918.000	9.828090e-001	2.861335e-002
47100912.000	9.828400e-001	2.859382e-002
47106906.000	9.828143e-001	2.853883e-002
47112900.000	9.828423e-001	2.851580e-002
47118894.000	9.828195e-001	2.851242e-002
47124888.000	9.828121e-001	2.847161e-002
47130882.000	9.828497e-001	2.845028e-002
47136876.000	9.828505e-001	2.840021e-002
47142870.000	9.828328e-001	2.836796e-002
47148864.000	9.828818e-001	2.834941e-002
47154858.000	9.828478e-001	2.832911e-002
47160852.000	9.828333e-001	2.827545e-002
47166846.000	9.828431e-001	2.829379e-002
47172840.000	9.828438e-001	2.821849e-002
47178834.000	9.827807e-001	2.816470e-002
47184828.000	9.828374e-001	2.818571e-002
47190822.000	9.828391e-001	2.817287e-002
47196816.000	9.828665e-001	2.816144e-002
47202810.000	9.828549e-001	2.813495e-002
47208804.000	9.828400e-001	2.811730e-002
47214798.000	9.828455e-001	2.803858e-002
47220792.000	9.828309e-001	2.800889e-002
47226786.000	9.828186e-001	2.800409e-002
47232780.000	9.828034e-001	2.799153e-002
47238774.000	9.828383e-001	2.795288e-002
47244768.000	9.828590e-001	2.796194e-002
47250762.000	9.828530e-001	2.791329e-002
47256756.000	9.828537e-001	2.788768e-002
47262750.000	9.828779e-001	2.780172e-002
47268744.000	9.828276e-001	2.783588e-002
47274738.000	9.827881e-001	2.778863e-002
47280732.000	9.828264e-001	2.777897e-002
47286726.000	9.828550e-001	2.774961e-002
47292720.000	9.828626e-001	2.771863e-002
47298714.000	9.828844e-001	2.769882e-002
47304708.000	9.828155e-001	2.768425e-002
47310702.000	9.828460e-001	2.762940e-002
47316696.000	9.828335e-001	2.759947e-002
47322690.000	9.828686e-001	2.759309e-002
47328684.000	9.828464e-001	2.755432e-002
47334678.000	9.828438e-001	2.752629e-002
47340672.000	9.828329e-001	2.752968e-002
47346666.000	9.828376e-001	2.747644e-002
47352660.000	9.828201e-001	2.743188e-002
47358654.000	9.828080e-001	2.744058e-002
47364648.000	9.828243e-001	2.735579e-002
47370642.000	9.828271e-001	2.736858e-002
47376636.000	9.827972e-001	2.732938e-002
47382630.000	9.828201e-001	2.729606e-002
47388624.000	9.828158e-001	2.730695e-002
47394618.000	9.828571e-001	2.725533e-002
47400612.000	9.828249e-001	2.724606e-002
47406606.000	9.828313e-001	2.721322e-002
47412600.000	9.828164e-001	2.720414e-002
47418594.000	9.828518e-001	2.714652e-002
47424588.000	9.828389e-001	2.712773e-002
47430582.000	9.828184e-001	2.708783e-002
47436576.000	9.828324e-001	2.706326e-002
47442570.000	9.827850e-001	2.704327e-002
47448564.000	9.828342e-001	2.700260e-002
47454558.000	9.827994e-001	2.697701e-002
47460552.000	9.828155e-001	2.696514e-002
47466546.000	9.827946e-001	2.692014e-002
47472540.000	9.827916e-001	2.690131e-002
47478534.000	9.828424e-001	2.685669e-002
47484528.000	9.828362e-001	2.680967e-002
47490522.000	9.827863e-001	2.681774e-002
47496516.000	9.828255e-001	2.680490e-002
47502510.000	9.827914e-001	2.676858e-002
47508504.000	9.828128e-001	2.673361e-002
47514498.000	9.828203e-001	2.667741e-002
47520492.000	9.827726e-001	2.668304e-002
47526486.000	9.828082e-001	2.666949e-002
47532480.000	9.828695e-001	2.663952e-002
47538474.000	9.828262e-001	2.660727e-002
47544468.000	9.828657e-001	2.658730e-002
47550462.000	9.828434e-001	2.655095e-002
47556456.000	9.828470e-001	2.653508e-002
47562450.000	9.828494e-001	2.649398e-002
47568444.000	9.828164e-001	2.648389e-002
47574438.000	9.828237e-001	2.645196e-002
47580432.000	9.828660e-001	2.640197e-002
47586426.000	9.827949e-001	2.638505e-002
47592420.000	9.827951e-001	2.635809e-002
47598414.000	9.828525e-001	2.634580e-002
47604408.000	9.828408e-001	2.632878e-002
47610402.000	9.828259e-001	2.629150e-002
47616396.000	9.827963e-001	2.627646e-002
47622390.000	9.828160e-001	2.623670e-002
47628384.000	9.828165e-001	2.621889e-002
47634378.000	9.828502e-001	2.620313e-002
47640372.000	9.828474e-001	2.614298e-002
47646366.000	9.828464e-001	2.611632e-002
47652360.000	9.828096e-001	2.606948e-002
47658354.000	9.828667e-001	2.607882e-002
47664348.000	9.828580e-001	2.603470e-002
47670342.000	9.828640e-001	2.604669e-002
47676336.000	9.828989e-001	2.601955e-002
47682330.000	9.828369e-001	2.595821e-002
47688324.000	9.828248e-001	2.596968e-002
47694318.000	9.828214e-001	2.590524e-002
47700312.000	9.827897e-001	2.588472e-002
47706306.000	9.828434e-001	2.586752e-002
47712300.000	9.827936e-001	2.585220e-002
47718294.000	9.828198e-001	2.581374e-002
47724288.000	9.828562e-001	2.579710e-002
47730282.000	9.828548e-001	2.578503e-002
47736276.000	9.828943e-001	2.577725e-002
47742270.000	9.828827e-001	2.570681e-002
47748264.000	9.828419e-001	2.570228e-002
47754258.000	9.828760e-001	2.566241e-002
47760252.000	9.828374e-001	2.564557e-002
47766246.000	9.828448e-001	2.561880e-002
47772240.000	9.828278e-001	2.559967e-002
47778234.000	9.828303e-001	2.556411e-002
47784228.000	9.828432e-001	2.554093e-002
47790222.000	9.828297e-001	2.551553e-002
47796216.000	9.828640e-001	2.547836e-002
47802210.000	9.828466e-001	2.548019e-002
47808204.000	9.828401e-001	2.542584e-002
47814198.000	9.828298e-001	2.540169e-002
47820192.000	9.828304e-001	2.538576e-002
47826186.000	9.828171e-001	2.532992e-002
47832180.000	9.828394e-001	2.531601e-002
47838174.000	9.828223e-001	2.531485e-002
47844168.000	9.828166e-001	2.527791e-002
47850162.000	9.828385e-001	2.524023e-002
47856156.000	9.828250e-001	2.522647e-002
47862150.000	9.828170e-001	2.521088e-002
47868144.000	9.827726e-001	2.517699e-002
47874138.000	9.827727e-001	2.511998e-002
47880132.000	9.827970e-001	2.510804e-002
47886126.000	9.827818e-001	2.508722e-002
47892120.000	9.828538e-001	2.506377e-002
47898114.000	9.827974e-001	2.505239e-002
47904108.000	9.828184e-001	2.501046e-002
47910102.000	9.827763e-001	2.496361e-002
47916096.000	9.827709e-001	2.493712e-002
47922090.000	9.828559e-001	2.491655e-002
47928084.000	9.828622e-001	2.488644e-002
47934078.000	9.827954e-001	2.487125e-002
47940072.000	9.828035e-001	2.487598e-002
47946066.000	9.828344e-001	2.484812e-002
47952060.000	9.828341e-001	2.480490e-002
47958054.000	9.828147e-001	2.476625e-002
47964048.000	9.828621e-001	2.474657e-002
47970042.000	9.828153e-001	2.469120e-002
47976036.000	9.827943e-001	2.467228e-002
47982030.000	9.828400e-001	2.469797e-002
47988024.000	9.828103e-001	2.461913e-002
47994018.000	9.828145e-001	2.460600e-002
48000012.000	9.828442e-001	2.458581e-002
48006006.000	9.827551e-001	2.456472e-002
48012000.000	9.828205e-001	2.453574e-002
48017994.000	9.828190e-001	2.449724e-002
48023988.000	9.827755e-001	2.447325e-002
48029982.000	9.827859e-001	2.444040e-002
48035976.000	9.828358e-001	2.441546e-002
48041970.000	9.828152e-001	2.435640e-002
48047964.000	9.828293e-001	2.434687e-002
48053958.000	9.828310e-001	2.435807e-002
48059952.000	9.827470e-001	2.431291e-002
48065946.000	9.827709e-001	2.427494e-002
48071940.000	9.827687e-001	2.424311e-002
48077934.000	9.828041e-001	2.423622e-002
48083928.000	9.828247e-001	2.416075e-002
48089922.000	9.827531e-001	2.413807e-002
48095916.000	9.827787e-001	2.412027e-002
48101910.000	9.827470e-001	2.410870e-002
48107904.000	9.828051e-001	2.408838e-002
48113898.000	9.827957e-001	2.406054e-002
48119892.000	9.828351e-001	2.405911e-002
48125886.000	9.827956e-001	2.400568e-002
48131880.000	9.827872e-001	2.399853e-002
48137874.000	9.828007e-001	2.396645e-002
48143868.000	9.828525e-001	2.395851e-002
48149862.000	9.827901e-001	2.389692e-002
48155856.000	9.827918e-001	2.388885e-002
48161850.000	9.828329e-001	2.386527e-002
48167844.000	9.827844e-001	2.383254e-002
48173838.000	9.828353e-001	2.382816e-002
48179832.000	9.827805e-001	2.380814e-002
48185826.000	9.827868e-001	2.377741e-002
48191820.000	9.827450e-001	2.373185e-002
48197814.000	9.827491e-001	2.370808e-002
48203808.000	9.828134e-001	2.368512e-002
48209802.000	9.827543e-001	2.366505e-002
48215796.000	9.827945e-001	2.362376e-002
48221790.000	9.827623e-001	2.358218e-002
48227784.000	9.827791e-001	2.355741e-002
48233778.000	9.827609e-001	2.352538e-002
48239772.000	9.827461e-001	2.351111e-002
48245766.000	9.827951e-001	2.347182e-002
48251760.000	9.827870e-001	2.347182e-002
48257754.000	9.828019e-001	2.343864e-002
48263748.000	9.827825e-001	2.337860e-002
48269742.000	9.827860e-001	2.337678e-002
48275736.000	9.827945e-001	2.335168e-002
48281730.000	9.827576e-001	2.336107e-002
48287724.000	9.827921e-001	2.330948e-002
48293718.000	9.828373e-001	2.328290e-002
48299712.000	9.828239e-001	2.326060e-002
48305706.000	9.828237e-001	2.321378e-002
48311700.000	9.828241e-001	2.322231e-002
48317694.000	9.827891e-001	2.319934e-002
48323688.000	9.827637e-001	2.314256e-002
48329682.000	9.828192e-001	2.309555e-002
48335676.000	9.827823e-001	2.309214e-002
48341670.000	9.827960e-001	2.307134e-002
48347664.000	9.827866e-001	2.304016e-002
48353658.000	9.827457e-001	2.305129e-002
48359652.000	9.827851e-001	2.299327e-002
48365646.000	9.828180e-001	2.301777e-002
48371640.000	9.828546e-001	2.296602e-002
48377634.000	9.828212e-001	2.292762e-002
48383628.000	9.828131e-001	2.282046e-002
48389622.000	9.827925e-001	2.285203e-002
48395616.000	9.827760e-001	2.283911e-002
48401610.000	9.828124e-001	2.282616e-002
48407604.000	9.828582e-001	2.280824e-002
48413598.000	9.828619e-001	2.276287e-002
48419592.000	9.828198e-001	2.271547e-002
48425586.000	9.828777e-001	2.270218e-002
48431580.000	9.828436e-001	2.272207e-002
48437574.000	9.827744e-001	2.266162e-002
48443568.000	9.827993e-001	2.263409e-002
48449562.000	9.827896e-001	2.260050e-002
48455556.000	9.828374e-001	2.259680e-002
48461550.000	9.828306e-001	2.255064e-002
48467544.000	9.827889e-001	2.251770e-002
48473538.000	9.828067e-001	2.251301e-002
48479532.000	9.828232e-001	2.247220e-002
48485526.000	9.828352e-001	2.244818e-002
48491520.000	9.828396e-001	2.242959e-002
48497514.000	9.828075e-001	2.242311e-002
48503508.000	9.828411e-001	2.239175e-002
48509502.000	9.828180e-001	2.237942e-002
48515496.000	9.827836e-001	2.230329e-002
48521490.000	9.828120e-001	2.231163e-002
48527484.000	9.828099e-001	2.225846e-002
48533478.000	9.827773e-001	2.223289e-002
48539472.000	9.828024e-001	2.221871e-002
48545466.000	9.827938e-001	2.217869e-002
48551460.000	9.828153e-001	2.216740e-002
48557454.000	9.827683e-001	2.214166e-002
48563448.000	9.827793e-001	2.210468e-002
48569442.000	9.827804e-001	2.208155e-002
48575436.000	9.827722e-001	2.206054e-002
48581430.000	9.828202e-001	2.201518e-002
48587424.000	9.827628e-001	2.199144e-002
48593418.000	9.828234e-001	2.195988e-002
48599412.000	9.828320e-001	2.191467e-002
48605406.000	9.828586e-001	2.192162e-002
48611400.000	9.828620e-001	2.194934e-002
48617394.000	9.828358e-001	2.187927e-002
48623388.000	9.828634e-001	2.184572e-002
48629382.000	9.828536e-001	2.181096e-002
48635376.000	9.828552e-001	2.180023e-002
48641370.000	9.827939e-001	2.175370e-002
48647364.000	9.827733e-001	2.175892e-002
48653358.000	9.828153e-001	2.174129e-002
48659352.000	9.828304e-001	2.169024e-002
48665346.000	9.828238e-001	2.166828e-002
48671340.000	9.828025e-001	2.163159e-002
48677334.000	9.827974e-001	2.161571e-002
48683328.000	9.828700e-001	2.160022e-002
48689322.000	9.828613e-001	2.158498e-002
48695316.000	9.828374e-001	2.156493e-002
48701310.000	9.828309e-001	2.151618e-002
48707304.000	9.828750e-001	2.151901e-002
48713298.000	9.828176e-001	2.149228e-002
48719292.000	9.828080e-001	2.142150e-002
48725286.000	9.827912e-001	2.139160e-002
48731280.000	9.828375e-001	2.139870e-002
48737274.000	9.828656e-001	2.137338e-002
48743268.000	9.828221e-001	2.134848e-002
48749262.000	9.828011e-001	2.126120e-002
48755256.000	9.828475e-001	2.128014e-002
48761250.000	9.828612e-001	2.125927e-002
48767244.000	9.828348e-001	2.122289e-002
48773238.000	9.828429e-001	2.116980e-002
48779232.000	9.827881e-001	2.113581e-002
48785226.000	9.828080e-001	2.113479e-002
48791220.000	9.828142e-001	2.111025e-002
48797214.000	9.828340e-001	2.108578e-002
48803208.000	9.828287e-001	2.105482e-002
48809202.000	9.828800e-001	2.105252e-002
48815196.000	9.828703e-001	2.101920e-002
48821190.000	9.828561e-001	2.098230e-002
48827184.000	9.828373e-001	2.095414e-002
48833178.000	9.828019e-001	2.090929e-002
48839172.000	9.828107e-001	2.087635e-002
48845166.000	9.828747e-001	2.087359e-002
48851160.000	9.828483e-001	2.091284e-002
48857154.000	9.828221e-001	2.082767e-002
48863148.000	9.828437e-001	2.075488e-002
48869142.000	9.828389e-001	2.082541e-002
48875136.000	9.828424e-001	2.076712e-002
48881130.000	9.828032e-001	2.074610e-002
48887124.000	9.828548e-001	2.072259e-002
48893118.000	9.828413e-001	2.067710e-002
48899112.000	9.828265e-001	2.066055e-002
48905106.000	9.828517e-001	2.063307e-002
48911100.000	9.828528e-001	2.060899e-002
48917094.000	9.828305e-001	2.055535e-002
48923088.000	9.828152e-001	2.056275e-002
48929082.000	9.828709e-001	2.050897e-002
48935076.000	9.828234e-001	2.053374e-002
48941070.000	9.827985e-001	2.044796e-002
48947064.000	9.828267e-001	2.043696e-002
48953058.000	9.828207e-001	2.040701e-002
48959052.000	9.828529e-001	2.038080e-002
48965046.000	9.828621e-001	2.038215e-002
48971040.000	9.828405e-001	2.036122e-002
48977034.000	9.828525e-001	2.034313e-002
48983028.000	9.828188e-001	2.026381e-002
48989022.000	9.828345e-001	2.025069e-002
48995016.000	9.828138e-001	2.020671e-002
49001010.000	9.831142e-001	2.028537e-002
49007004.000	9.829482e-001	2.017795e-002
49012998.000	9.828486e-001	2.020789e-002
49018992.000	9.828751e-001	2.010404e-002
49024986.000	9.828388e-001	2.013245e-002
49030980.000	9.828366e-001	2.008838e-002
49036974.000	9.828865e-001	2.008324e-002
49042968.000	9.828435e-001	2.001049e-002
49048962.000	9.828263e-001	2.000736e-002
49054956.000	9.828372e-001	2.001431e-002
49060950.000	9.828605e-001	1.996145e-002
49066944.000	9.829112e-001	1.995702e-002
49072938.000	9.828374e-001	1.993449e-002
49078932.000	9.828814e-001	1.994046e-002
49084926.000	9.828426e-001	1.986504e-002
49090920.000	9.828052e-001	1.982681e-002
49096914.000	9.828664e-001	1.981898e-002
49102908.000	9.828799e-001	1.976370e-002
49108902.000	9.828946e-001	1.975170e-002
49114896.000	9.828853e-001	1.974630e-002
49120890.000	9.828623e-001	1.974247e-002
49126884.000	9.828599e-001	1.971940e-002
49132878.000	9.828843e-001	1.965372e-002
49138872.000	9.828491e-001	1.964657e-002
49144866.000	9.828873e-001	1.965387e-002
49150860.000	9.828531e-001	1.953761e-002
49156854.000	9.829045e-001	1.957092e-002
49162848.000	9.828648e-001	1.949947e-002
49168842.000	9.828755e-001	1.950035e-002
49174836.000	9.828059e-001	1.947389e-002
49180830.000	9.828183e-001	1.944819e-002
49186824.000	9.828496e-001	1.945889e-002
49192818.000	9.828650e-001	1.941044e-002
49198812.000	9.828298e-001	1.935565e-002
49204806.000	9.828506e-001	1.935440e-002
49210800.000	9.828170e-001	1.934015e-002
49216794.000	9.828434e-001	1.933213e-002
49222788.000	9.828591e-001	1.926928e-002
49228782.000	9.828510e-001	1.924761e-002
49234776.000	9.828563e-001	1.921949e-002
49240770.000	9.828702e-001	1.920667e-002
49246764.000	9.828421e-001	1.918766e-002
49252758.000	9.828494e-001	1.917384e-002
49258752.000	9.828866e-001	1.912527e-002
49264746.000	9.828073e-001	1.911319e-002
49270740.000	9.828539e-001	1.907176e-002
49276734.000	9.828472e-001	1.905106e-002
49282728.000	9.828632e-001	1.904428e-002
49288722.000	9.828414e-001	1.898976e-002
49294716.000	9.828706e-001	1.898243e-002
49300710.000	9.828569e-001	1.894548e-002
49306704.000	9.828304e-001	1.890440e-002
49312698.000	9.828544e-001	1.888886e-002
49318692.000	9.828630e-001	1.885839e-002
49324686.000	9.828638e-001	1.885811e-002
49330680.000	9.828689e-001	1.885530e-002
49336674.000	9.828961e-001	1.878726e-002
49342668.000	9.828802e-001	1.877466e-002
49348662.000	9.828714e-001	1.873264e-002
49354656.000	9.828983e-001	1.870806e-002
49360650.000	9.828200e-001	1.870526e-002
49366644.000	9.828752e-001	1.865444e-002
49372638.000	9.828955e-001	1.866253e-002
49378632.000	9.828660e-001	1.859028e-002
49384626.000	9.828118e-001	1.855389e-002
49390620.000	9.828295e-001	1.855945e-002
49396614.000	9.828275e-001	1.851930e-002
49402608.000	9.828433e-001	1.854206e-002
49408602.000	9.828730e-001	1.850358e-002
49414596.000	9.827721e-001	1.843905e-002
49420590.000	9.828371e-001	1.841650e-002
49426584.000	9.828766e-001	1.840581e-002
49432578.000	9.828253e-001	1.837484e-002
49438572.000	9.828530e-001	1.837038e-002
49444566.000	9.828322e-001	1.833153e-002
49450560.000	9.828577e-001	1.833992e-002
49456554.000	9.828293e-001	1.827605e-002
49462548.000	9.828606e-001	1.826474e-002
49468542.000	9.828439e-001	1.820291e-002
49474536.000	9.829049e-001	1.821205e-002
49480530.000	9.828951e-001	1.819178e-002
49486524.000	9.828825e-001	1.814345e-002
49492518.000	9.828826e-001	1.815136e-002
49498512.000	9.828625e-001	1.807279e-002
49504506.000	9.828697e-001	1.808328e-002
49510500.000	9.828646e-001	1.806290e-002
49516494.000	9.828093e-001	1.802810e-002
49522488.000	9.828468e-001	1.798677e-002
49528482.000	9.828640e-001	1.797279e-002
49534476.000	9.828721e-001	1.797407e-002
49540470.000	9.829087e-001	1.791643e-002
49546464.000	9.828805e-001	1.790205e-002
49552458.000	9.828769e-001	1.787253e-002
49558452.000	9.829199e-001	1.784070e-002
49564446.000	9.828771e-001	1.780405e-002
49570440.000	9.828433e-001	1.779849e-002
49576434.000	9.828421e-001	1.774511e-002
49582428.000	9.828846e-001	1.771526e-002
49588422.000	9.828409e-001	1.772679e-002
49594416.000	9.828479e-001	1.767565e-002
49600410.000	9.828326e-001	1.764467e-002
49606404.000	9.828783e-001	1.765750e-002
49612398.000	9.829000e-001	1.762331e-002
49618392.000	9.828429e-001	1.759981e-002
49624386.000	9.828381e-001	1.760739e-002
49630380.000	9.828850e-001	1.753947e-002
49636374.000	9.828432e-001	1.750260e-002
49642368.000	9.828695e-001	1.748097e-002
49648362.000	9.828750e-001	1.745298e-002
49654356.000	9.828225e-001	1.743978e-002
49660350.000	9.828523e-001	1.741591e-002
49666344.000	9.828208e-001	1.734299e-002
49672338.000	9.828219e-001	1.734355e-002
49678332.000	9.828168e-001	1.732115e-002
49684326.000	9.828142e-001	1.733603e-002
49690320.000	9.828439e-001	1.727764e-002
49696314.000	9.828553e-001	1.726140e-002
49702308.000	9.828346e-001	1.720706e-002
49708302.000	9.828241e-001	1.721645e-002
49714296.000	9.828717e-001	1.718628e-002
49720290.000	9.828138e-001	1.715241e-002
49726284.000	9.828490e-001	1.714173e-002
49732278.000	9.828369e-001	1.709128e-002
49738272.000	9.828399e-001	1.705894e-002
49744266.000	9.828495e-001	1.706817e-002
49750260.000	9.828082e-001	1.698903e-002
49756254.000	9.828443e-001	1.702756e-002
49762248.000	9.828331e-001	1.699693e-002
49768242.000	9.828565e-001	1.694018e-002
49774236.000	9.828163e-001	1.689736e-002
49780230.000	9.828433e-001	1.688378e-002
49786224.000	9.828591e-001	1.686438e-002
49792218.000	9.828685e-001	1.683850e-002
49798212.000	9.828414e-001	1.680785e-002
49804206.000	9.828554e-001	1.680640e-002
49810200.000	9.828408e-001	1.677767e-002
49816194.000	9.828589e-001	1.678023e-002
49822188.000	9.828092e-001	1.670228e-002
49828182.000	9.828432e-001	1.671005e-002
49834176.000	9.828523e-001	1.666216e-002
49840170.000	9.828843e-001	1.664523e-002
49846164.000	9.828456e-001	1.661053e-002
49852158.000	9.828305e-001	1.658449e-002
49858152.000	9.828536e-001	1.655221e-002
49864146.000	9.828451e-001	1.654219e-002
49870140.000	9.828790e-001	1.650304e-002
49876134.000	9.828474e-001	1.647234e-002
49882128.000	9.828199e-001	1.643078e-002
49888122.000	9.828630e-001	1.643894e-002
49894116.000	9.828442e-001	1.641931e-002
49900110.000	9.828637e-001	1.639049e-002
49906104.000	9.828551e-001	1.633705e-002
49912098.000	9.828275e-001	1.629370e-002
49918092.000	9.828166e-001	1.630461e-002
49924086.000	9.828547e-001	1.626922e-002
49930080.000	9.827857e-001	1.623102e-002
49936074.000	9.828739e-001	1.624004e-002
49942068.000	9.828515e-001	1.623084e-002
49948062.000	9.828317e-001	1.619900e-002
49954056.000	9.828819e-001	1.614966e-002
49960050.000	9.828981e-001	1.616948e-002
49966044.000	9.828603e-001	1.608837e-002
49972038.000	9.828644e-001	1.609599e-002
49978032.000	9.828511e-001	1.604107e-002
49984026.000	9.829037e-001	1.604984e-002
49990020.000	9.828879e-001	1.602253e-002
49996014.000	9.828738e-001	1.597933e-002
50002008.000	9.828975e-001	1.599099e-002
50008002.000	9.828010e-001	1.595230e-002
50013996.000	9.828428e-001	1.587659e-002
50019990.000	9.828238e-001	1.589757e-002
50025984.000	9.828560e-001	1.585615e-002
50031978.000	9.828473e-001	1.582095e-002
50037972.000	9.828702e-001	1.579745e-002
50043966.000	9.828707e-001	1.574648e-002
50049960.000	9.828160e-001	1.571615e-002
50055954.000	9.828380e-001	1.573030e-002
50061948.000	9.828726e-001	1.570671e-002
50067942.000	9.828407e-001	1.565422e-002
50073936.000	9.828280e-001	1.566108e-002
50079930.000	9.828578e-001	1.564024e-002
50085924.000	9.829005e-001	1.558988e-002
50091918.000	9.828886e-001	1.562435e-002
50097912.000	9.828630e-001	1.558715e-002
50103906.000	9.828843e-001	1.552826e-002
50109900.000	9.828554e-001	1.548598e-002
50115894.000	9.828506e-001	1.549443e-002
50121888.000	9.829422e-001	1.546833e-002
50127882.000	9.828496e-001	1.538426e-002
50133876.000	9.828885e-001	1.542316e-002
50139870.000	9.828931e-001	1.537091e-002
50145864.000	9.829212e-001	1.537328e-002
50151858.000	9.829331e-001	1.533027e-002
50157852.000	9.828904e-001	1.529699e-002
50163846.000	9.829201e-001	1.531621e-002
50169840.000	9.828814e-001	1.524483e-002
50175834.000	9.828833e-001	1.520349e-002
50181828.000	9.828396e-001	1.519011e-002
50187822.000	9.828706e-001	1.518651e-002
50193816.000	9.828904e-001	1.514573e-002
50199810.000	9.828546e-001	1.515082e-002
50205804.000	9.828950e-001	1.508619e-002
50211798.000	9.828435e-001	1.509042e-002
50217792.000	9.828524e-001	1.505742e-002
50223786.000	9.828955e-001	1.505877e-002
50229780.000	9.828696e-001	1.503946e-002
50235774.000	9.828698e-001	1.501266e-002
50241768.000	9.829115e-001	1.493663e-002
50247762.000	9.828759e-001	1.491704e-002
50253756.000	9.829131e-001	1.490236e-002
50259750.000	9.829075e-001	1.490727e-002
50265744.000	9.828578e-001	1.485970e-002
50271738.000	9.829066e-001	1.483855e-002
50277732.000	9.828724e-001	1.481340e-002
50283726.000	9.828603e-001	1.478206e-002
50289720.000	9.828205e-001	1.474791e-002
50295714.000	9.828309e-001	1.474726e-002
50301708.000	9.828774e-001	1.467349e-002
50307702.000	9.828611e-001	1.465173e-002
50313696.000	9.828309e-001	1.463719e-002
50319690.000	9.828231e-001	1.461484e-002
50325684.000	9.828186e-001	1.458043e-002
50331678.000	9.828381e-001	1.457385e-002
50337672.000	9.828047e-001	1.454383e-002
50343666.000	9.828497e-001	1.449697e-002
50349660.000	9.828601e-001	1.449946e-002
50355654.000	9.828808e-001	1.448610e-002
50361648.000	9.828493e-001	1.447434e-002
50367642.000	9.828337e-001	1.445431e-002
50373636.000	9.828514e-001	1.438008e-002
50379630.000	9.828440e-001	1.436211e-002
50385624.000	9.828819e-001	1.435059e-002
50391618.000	9.828506e-001	1.436621e-002
50397612.000	9.828613e-001	1.427592e-002
50403606.000	9.827878e-001	1.426818e-002
50409600.000	9.828363e-001	1.425078e-002
50415594.000	9.828364e-001	1.420278e-002
50421588.000	9.828773e-001	1.419808e-002
50427582.000	9.828421e-001	1.415585e-002
50433576.000	9.828676e-001	1.417239e-002
50439570.000	9.828459e-001	1.414250e-002
50445564.000	9.828626e-001	1.410496e-002
50451558.000	9.828271e-001	1.409002e-002
50457552.000	9.828374e-001	1.402709e-002
50463546.000	9.828386e-001	1.399724e-002
50469540.000	9.828376e-001	1.396729e-002
50475534.000	9.828513e-001	1.395028e-002
50481528.000	9.828385e-001	1.393348e-002
50487522.000	9.828353e-001	1.391410e-002
50493516.000	9.827871e-001	1.391584e-002
50499510.000	9.828226e-001	1.382738e-002
50505504.000	9.828154e-001	1.381931e-002
50511498.000	9.828016e-001	1.379833e-002
50517492.000	9.828254e-001	1.379310e-002
50523486.000	9.828331e-001	1.377604e-002
50529480.000	9.828546e-001	1.371740e-002
50535474.000	9.828627e-001	1.370818e-002
50541468.000	9.828242e-001	1.371185e-002
50547462.000	9.828756e-001	1.366468e-002
50553456.000	9.828641e-001	1.361843e-002
50559450.000	9.828566e-001	1.362597e-002
50565444.000	9.828557e-001	1.359490e-002
50571438.000	9.828675e-001	1.354813e-002
50577432.000	9.827921e-001	1.354060e-002
50583426.000	9.828120e-001	1.349914e-002
50589420.000	9.827745e-001	1.348659e-002
50595414.000	9.828400e-001	1.343243e-002
50601408.000	9.828628e-001	1.343120e-002
50607402.000	9.828326e-001	1.342369e-002
50613396.000	9.828672e-001	1.341898e-002
50619390.000	9.828263e-001	1.336986e-002
50625384.000	9.828960e-001	1.337321e-002
50631378.000	9.828473e-001	1.329532e-002
50637372.000	9.828660e-001	1.329839e-002
50643366.000	9.828302e-001	1.325660e-002
50649360.000	9.828402e-001	1.324937e-002
50655354.000	9.828909e-001	1.322165e-002
50661348.000	9.828296e-001	1.318688e-002
50667342.000	9.828119e-001	1.315007e-002
50673336.000	9.828275e-001	1.314855e-002
50679330.000	9.828449e-001	1.311874e-002
50685324.000	9.828239e-001	1.309280e-002
50691318.000	9.828415e-001	1.308171e-002
50697312.000	9.827911e-001	1.303286e-002
50703306.000	9.828695e-001	1.301031e-002
50709300.000	9.828276e-001	1.297950e-002
50715294.000	9.828685e-001	1.299990e-002
50721288.000	9.828468e-001	1.294786e-002
50727282.000	9.828443e-001	1.289917e-002
50733276.000	9.828323e-001	1.289388e-002
50739270.000	9.828528e-001	1.286864e-002
50745264.000	9.828386e-001	1.283704e-002
50751258.000	9.828074e-001	1.280927e-002
50757252.000	9.828085e-001	1.281290e-002
50763246.000	9.828054e-001	1.273992e-002
50769240.000	9.828670e-001	1.275593e-002
50775234.000	9.828680e-001	1.272036e-002
50781228.000	9.828622e-001	1.269596e-002
50787222.000	9.828506e-001	1.265818e-002
50793216.000	9.828309e-001	1.263948e-002
50799210.000	9.828765e-001	1.262244e-002
50805204.000	9.828540e-001	1.260125e-002
50811198.000	9.828555e-001	1.257067e-002
50817192.000	9.828142e-001	1.257155e-002
50823186.000	9.828838e-001	1.251346e-002
50829180.000	9.828552e-001	1.250646e-002
50835174.000	9.828117e-001	1.245818e-002
50841168.000	9.828440e-001	1.245759e-002
50847162.000	9.828358e-001	1.240719e-002
50853156.000	9.828343e-001	1.240193e-002
50859150.000	9.827940e-001	1.237092e-002
50865144.000	9.828977e-001	1.238270e-002
50871138.000	9.828712e-001	1.233510e-002
50877132.000	9.829426e-001	1.232562e-002
50883126.000	9.828879e-001	1.229521e-002
50889120.000	9.828545e-001	1.220118e-002
50895114.000	9.828223e-001	1.221872e-002
50901108.000	9.828577e-001	1.220549e-002
50907102.000	9.828886e-001	1.216268e-002
50913096.000	9.828689e-001	1.217528e-002
50919090.000	9.828908e-001	1.213327e-002
50925084.000	9.828335e-001	1.212252e-002
50931078.000	9.828513e-001	1.210667e-002
50937072.000	9.828874e-001	1.204323e-002
50943066.000	9.828575e-001	1.200792e-002
50949060.000	9.828372e-001	1.200286e-002
50955054.000	9.828912e-001	1.201471e-002
50961048.000	9.828871e-001	1.200779e-002
50967042.000	9.828392e-001	1.196855e-002
50973036.000	9.828758e-001	1.191567e-002
50979030.000	9.828716e-001	1.188383e-002
50985024.000	9.828471e-001	1.188064e-002
50991018.000	9.828473e-001	1.183088e-002
50997012.000	9.828603e-001	1.181710e-002
51003006.000	9.828561e-001	1.179743e-002
51009000.000	9.828624e-001	1.173374e-002
51014994.000	9.828272e-001	1.175475e-002
51020988.000	9.828460e-001	1.169201e-002
51026982.000	9.828261e-001	1.165279e-002
51032976.000	9.828217e-001	1.166751e-002
51038970.000	9.828544e-001	1.162009e-002
51044964.000	9.828335e-001	1.159573e-002
51050958.000	9.828261e-001	1.158520e-002
51056952.000	9.828827e-001	1.156016e-002
51062946.000	9.828401e-001	1.151486e-002
51068940.000	9.828292e-001	1.147066e-002
51074934.000	9.828280e-001	1.146151e-002
51080928.000	9.828191e-001	1.144353e-002
51086922.000	9.828074e-001	1.143178e-002
51092916.000	9.828207e-001	1.137518e-002
51098910.000	9.828357e-001	1.138069e-002
51104904.000	9.828564e-001	1.134407e-002
51110898.000	9.828629e-001	1.132455e-002
51116892.000	9.828599e-001	1.131603e-002
51122886.000	9.828070e-001	1.127640e-002
51128880.000	9.828181e-001	1.127640e-002
51134874.000	9.828545e-001	1.122127e-002
51140868.000	9.827869e-001	1.118337e-002
51146862.000	9.828167e-001	1.118505e-002
51152856.000	9.828323e-001	1.117051e-002
51158850.000	9.828427e-001	1.113547e-002
51164844.000	9.828660e-001	1.109329e-002
51170838.000	9.828339e-001	1.109882e-002
51176832.000	9.828191e-001	1.104941e-002
51182826.000	9.828580e-001	1.107489e-002
51188820.000	9.828681e-001	1.098601e-002
51194814.000	9.828573e-001	1.098745e-002
51200808.000	9.828322e-001	1.093492e-002
51206802.000	9.827952e-001	1.091098e-002
51212796.000	9.828222e-001	1.089648e-002
51218790.000	9.828460e-001	1.086077e-002
51224784.000	9.828235e-001	1.085575e-002
51230778.000	9.827839e-001	1.083949e-002
51236772.000	9.828494e-001	1.080941e-002
51242766.000	9.828263e-001	1.078011e-002
51248760.000	9.828818e-001	1.074149e-002
51254754.000	9.828212e-001	1.074607e-002
51260748.000	9.828537e-001	1.072561e-002
51266742.000	9.828286e-001	1.067373e-002
51272736.000	9.828351e-001	1.066969e-002
51278730.000	9.828169e-001	1.064781e-002
51284724.000	9.828157e-001	1.058156e-002
51290718.000	9.828316e-001	1.059914e-002
51296712.000	9.827937e-001	1.055596e-002
51302706.000	9.827953e-001	1.050435e-002
51308700.000	9.827547e-001	1.048276e-002
51314694.000	9.828145e-001	1.046480e-002
51320688.000	9.828339e-001	1.048377e-002
51326682.000	9.828323e-001	1.042644e-002
51332676.000	9.828275e-001	1.041914e-002
51338670.000	9.828046e-001	1.037518e-002
51344664.000	9.828308e-001	1.034357e-002
51350658.000	9.828565e-001	1.032993e-002
51356652.000	9.828368e-001	1.032413e-002
51362646.000	9.828070e-001	1.027935e-002
51368640.000	9.828327e-001	1.025180e-002
51374634.000	9.828307e-001	1.023843e-002
51380628.000	9.828436e-001	1.021037e-002
51386622.000	9.828469e-001	1.015971e-002
51392616.000	9.828025e-001	1.017652e-002
51398610.000	9.828304e-001	1.013962e-002
51404604.000	9.828355e-001	1.013973e-002
51410598.000	9.828572e-001	1.008578e-002
51416592.000	9.828343e-001	1.008464e-002
51422586.000	9.828984e-001	1.008168e-002
51428580.000	9.828397e-001	1.003296e-002
51434574.000	9.827965e-001	9.989367e-003
51440568.000	9.828179e-001	9.967621e-003
51446562.000	9.828482e-001	9.915330e-003
51452556.000	9.827946e-001	9.897847e-003
51458550.000	9.828171e-001	9.872220e-003
51464544.000	9.828064e-001	9.870734e-003
51470538.000	9.828439e-001	9.884844e-003
51476532.000	9.828228e-001	9.823271e-003
51482526.000	9.828506e-001	9.819385e-003
51488520.000	9.828189e-001	9.763315e-003
51494514.000	9.827983e-001	9.733106e-003
51500508.000	9.828054e-001	9.756359e-003
51506502.000	9.828098e-001	9.660142e-003
51512496.000	9.828536e-001	9.663756e-003
51518490.000	9.828657e-001	9.659733e-003
51524484.000	9.827937e-001	9.607095e-003
51530478.000	9.828222e-001	9.577811e-003
51536472.000	9.828280e-001	9.586018e-003
51542466.000	9.828547e-001	9.556980e-003
51548460.000	9.828475e-001	9.562707e-003
51554454.000	9.828419e-001	9.491060e-003
51560448.000	9.828264e-001	9.490141e-003
51566442.000	9.828627e-001	9.456674e-003
51572436.000	9.828194e-001	9.408208e-003
51578430.000	9.828559e-001	9.420313e-003
51584424.000	9.828168e-001	9.409118e-003
51590418.000	9.827928e-001	9.367350e-003
51596412.000	9.828421e-001	9.356336e-003
51602406.000	9.828945e-001	9.301819e-003
51608400.000	9.828738e-001	9.303318e-003
51614394.000	9.828612e-001	9.253998e-003
51620388.000	9.828853e-001	9.230153e-003
51626382.000	9.828621e-001	9.217097e-003
51632376.000	9.828353e-001	9.169245e-003
51638370.000	9.828619e-001	9.158213e-003
51644364.000	9.828394e-001	9.146806e-003
51650358.000	9.828722e-001	9.085193e-003
51656352.000	9.828536e-001	9.090445e-003
51662346.000	9.828531e-001	9.046105e-003
51668340.000	9.828543e-001	9.016478e-003
51674334.000	9.828671e-001	8.986622e-003
51680328.000	9.828309e-001	8.973082e-003
51686322.000	9.828456e-001	8.958253e-003
51692316.000	9.828388e-001	8.926993e-003
51698310.000	9.828473e-001	8.930050e-003
51704304.000	9.828139e-001	8.890739e-003
51710298.000	9.828467e-001	8.882214e-003
51716292.000	9.828216e-001	8.858597e-003
51722286.000	9.828089e-001	8.810868e-003
51728280.000	9.828534e-001	8.761309e-003
51734274.000	9.828114e-001	8.770624e-003
51740268.000	9.828041e-001	8.784076e-003
51746262.000	9.828761e-001	8.711349e-003
51752256.000	9.828275e-001	8.687698e-003
51758250.000	9.828407e-001	8.630489e-003
51764244.000	9.828308e-001	8.663028e-003
51770238.000	9.828177e-001	8.614287e-003
51776232.000	9.828382e-001	8.620771e-003
51782226.000	9.828368e-001	8.559358e-003
51788220.000	9.828011e-001	8.524456e-003
51794214.000	9.827831e-001	8.518483e-003
51800208.000	9.828202e-001	8.502195e-003
51806202.000	9.827790e-001	8.458057e-003
51812196.000	9.828137e-001	8.403257e-003
51818190.000	9.828353e-001	8.405092e-003
51824184.000	9.827583e-001	8.403429e-003
51830178.000	9.828212e-001	8.381702e-003
51836172.000	9.828405e-001	8.353273e-003
51842166.000	9.828321e-001	8.315760e-003
51848160.000	9.828592e-001	8.298316e-003
51854154.000	9.828644e-001	8.291539e-003
51860148.000	9.828291e-001	8.263294e-003
51866142.000	9.828226e-001	8.207923e-003
51872136.000	9.828109e-001	8.193755e-003
51878130.000	9.828178e-001	8.197723e-003
51884124.000	9.828158e-001	8.142116e-003
51890118.000	9.828516e-001	8.130373e-003
51896112.000	9.828526e-001	8.137845e-003
51902106.000	9.828074e-001	8.057785e-003
51908100.000	9.827993e-001	8.059781e-003
51914094.000	9.827993e-001	8.010645e-003
51920088.000	9.828489e-001	8.032159e-003
51926082.000	9.828104e-001	7.984501e-003
51932076.000	9.828122e-001	7.936580e-003
51938070.000	9.828078e-001	7.918642e-003
51944064.000	9.828112e-001	7.909754e-003
51950058.000	9.828574e-001	7.883609e-003
51956052.000	9.828747e-001	7.861351e-003
51962046.000	9.828125e-001	7.851563e-003
51968040.000	9.828019e-001	7.777933e-003
51974034.000	9.828138e-001	7.796092e-003
51980028.000	9.828313e-001	7.776876e-003
51986022.000	9.828622e-001	7.745185e-003
51992016.000	9.828116e-001	7.730851e-003
51998010.000	9.828079e-001	7.689083e-003
52004004.000	9.827638e-001	7.692932e-003
52009998.000	9.828190e-001	7.626463e-003
52015992.000	9.827906e-001	7.619830e-003
52021986.000	9.828294e-001	7.591326e-003
52027980.000	9.828347e-001	7.583866e-003
52033974.000	9.828508e-001	7.541402e-003
52039968.000	9.828418e-001	7.477096e-003
52045962.000	9.827849e-001	7.483834e-003
52051956.000	9.828140e-001	7.490793e-003
52057950.000	9.828117e-001	7.430337e-003
52063944.000	9.828359e-001	7.402390e-003
52069938.000	9.828466e-001	7.429891e-003
52075932.000	9.828664e-001	7.392109e-003
52081926.000	9.828485e-001	7.327600e-003
52087920.000	9.828334e-001	7.311384e-003
52093914.000	9.828334e-001	7.284264e-003
52099908.000	9.828070e-001	7.263432e-003
52105902.000	9.828425e-001	7.236086e-003
52111896.000	9.828221e-001	7.224460e-003
52117890.000	9.828242e-001	7.185025e-003
52123884.000	9.828111e-001	7.197912e-003
52129878.000	9.828557e-001	7.176612e-003
52135872.000	9.828100e-001	7.116353e-003
52141866.000	9.827931e-001	7.059997e-003
52147860.000	9.828196e-001	7.082699e-003
52153854.000	9.827880e-001	7.061713e-003
52159848.000	9.828016e-001	6.995885e-003
52165842.000	9.828210e-001	7.021929e-003
52171836.000	9.827884e-001	6.986076e-003
52177830.000	9.827965e-001	6.972222e-003
52183824.000	9.828335e-001	6.935693e-003
52189818.000	9.828173e-001	6.910371e-003
52195812.000	9.828198e-001	6.872791e-003
52201806.000	9.828619e-001	6.845562e-003
52207800.000	9.827944e-001	6.833512e-003
52213794.000	9.828140e-001	6.797523e-003
52219788.000	9.828273e-001	6.765375e-003
52225782.000	9.827742e-001	6.761067e-003
52231776.000	9.828113e-001	6.720133e-003
52237770.000	9.828113e-001	6.696010e-003
52243764.000	9.827461e-001	6.662964e-003
52249758.000	9.827861e-001	6.687098e-003
52255752.000	9.827829e-001	6.647460e-003
52261746.000	9.827892e-001	6.631939e-003
52267740.000	9.827820e-001	6.589724e-003
52273734.000	9.827905e-001	6.567403e-003
52279728.000	9.827547e-001	6.562505e-003
52285722.000	9.828058e-001	6.526729e-003
52291716.000	9.828126e-001	6.504744e-003
52297710.000	9.828372e-001	6.480487e-003
52303704.000	9.828077e-001	6.438638e-003
52309698.000	9.828290e-001	6.416810e-003
52315692.000	9.828212e-001	6.421927e-003
52321686.000	9.827827e-001	6.388027e-003
52327680.000	9.828580e-001	6.382609e-003
52333674.000	9.828274e-001	6.337250e-003
52339668.000	9.828250e-001	6.311609e-003
52345662.000	9.828375e-001	6.278108e-003
52351656.000	9.827795e-001	6.233857e-003
52357650.000	9.828106e-001	6.226576e-003
52363644.000	9.827998e-001	6.173324e-003
52369638.000	9.827731e-001	6.175098e-003
52375632.000	9.828103e-001	6.152782e-003
52381626.000	9.827715e-001	6.113092e-003
52387620.000	9.827400e-001	6.130756e-003
52393614.000	9.828215e-001	6.055060e-003
52399608.000	9.827540e-001	6.073079e-003
52405602.000	9.828211e-001	6.030406e-003
52411596.000	9.828021e-001	6.003435e-003
52417590.000	9.827549e-001	5.984024e-003
52423584.000	9.827855e-001	5.981234e-003
52429578.000	9.828013e-001	5.931836e-003
52435572.000	9.828027e-001	5.932605e-003
52441566.000	9.827827e-001	5.880736e-003
52447560.000	9.828413e-001	5.861628e-003
52453554.000	9.827777e-001	5.860556e-003
52459548.000	9.827730e-001	5.833558e-003
52465542.000	9.828616e-001	5.822285e-003
52471536.000	9.827890e-001	5.774308e-003
52477530.000	9.828026e-001	5.738489e-003
52483524.000	9.828112e-001	5.724188e-003
52489518.000	9.828178e-001	5.712805e-003
52495512.000	9.828233e-001	5.646656e-003
52501506.000	9.827490e-001	5.630843e-003
52507500.000	9.828101e-001	5.609531e-003
52513494.000	9.827757e-001	5.575901e-003
52519488.000	9.827777e-001	5.568910e-003
52525482.000	9.827982e-001	5.540042e-003
52531476.000	9.827865e-001	5.539060e-003
52537470.000	9.827604e-001	5.503218e-003
52543464.000	9.827726e-001	5.481194e-003
52549458.000	9.827856e-001	5.468534e-003
52555452.000	9.827676e-001	5.433210e-003
52561446.000	9.827913e-001	5.413707e-003
52567440.000	9.828229e-001	5.367813e-003
52573434.000	9.827934e-001	5.322766e-003
52579428.000	9.827529e-001	5.340192e-003
52585422.000	9.827583e-001	5.314057e-003
52591416.000	9.827566e-001	5.263821e-003
52597410.000	9.827774e-001	5.256327e-003
52603404.000	9.828176e-001	5.252134e-003
52609398.000	9.827877e-001	5.211362e-003
52615392.000	9.827490e-001	5.182744e-003
52621386.000	9.827932e-001	5.189967e-003
52627380.000	9.828185e-001	5.132872e-003
52633374.000	9.828226e-001	5.167590e-003
52639368.000	9.827698e-001	5.075348e-003
52645362.000	9.827862e-001	5.043260e-003
52651356.000	9.828408e-001	5.072441e-003
52657350.000	9.828237e-001	5.042301e-003
52663344.000	9.828114e-001	4.991305e-003
52669338.000	9.827583e-001	4.986096e-003
52675332.000	9.827751e-001	4.938941e-003
52681326.000	9.827688e-001	4.914190e-003
52687320.000	9.828170e-001	4.923001e-003
52693314.000	9.827894e-001	4.911731e-003
52699308.000	9.827953e-001	4.815865e-003
52705302.000	9.828206e-001	4.842950e-003
52711296.000	9.828266e-001	4.812429e-003
52717290.000	9.828143e-001	4.798224e-003
52723284.000	9.827780e-001	4.754016e-003
52729278.000	9.827955e-001	4.733796e-003
52735272.000	9.828191e-001	4.690578e-003
52741266.000	9.828064e-001	4.680962e-003
52747260.000	9.827756e-001	4.682302e-003
52753254.000	9.827656e-001	4.652519e-003
52759248.000	9.827988e-001	4.631923e-003
52765242.000	9.827780e-001	4.565004e-003
52771236.000	9.827074e-001	4.521665e-003
52777230.000	9.827597e-001	4.539105e-003
52783224.000	9.827689e-001	4.520633e-003
52789218.000	9.828307e-001	4.494510e-003
52795212.000	9.828223e-001	4.456766e-003
52801206.000	9.827756e-001	4.418746e-003
52807200.000	9.827553e-001	4.392891e-003
52813194.000	9.827750e-001	4.409807e-003
52819188.000	9.827746e-001	4.378892e-003
52825182.000	9.827784e-001	4.376547e-003
52831176.000	9.827817e-001	4.288875e-003
52837170.000	9.827716e-001	4.291200e-003
52843164.000	9.827643e-001	4.267428e-003
52849158.000	9.827815e-001	4.247088e-003
52855152.000	9.827638e-001	4.241065e-003
52861146.000	9.827850e-001	4.184456e-003
52867140.000	9.827326e-001	4.183675e-003
52873134.000	9.827811e-001	4.168158e-003
52879128.000	9.828265e-001	4.102079e-003
52885122.000	9.827758e-001	4.091770e-003
52891116.000	9.827899e-001	4.075081e-003
52897110.000	9.828074e-001	4.088050e-003
52903104.000	9.827830e-001	4.054359e-003
52909098.000	9.827837e-001	4.016126e-003
52915092.000	9.827574e-001	3.977985e-003
52921086.000	9.827880e-001	3.994660e-003
52927080.000	9.828101e-001	3.947950e-003
52933074.000	9.828205e-001	3.907953e-003
52939068.000	9.827918e-001	3.906126e-003
52945062.000	9.828191e-001	3.866817e-003
52951056.000	9.828190e-001	3.836173e-003
52957050.000	9.827693e-001	3.855782e-003
52963044.000	9.827828e-001	3.769069e-003
52969038.000	9.827197e-001	3.749770e-003
52975032.000	9.827230e-001	3.732502e-003
52981026.000	9.827865e-001	3.727169e-003
52987020.000	9.827242e-001	3.673612e-003
52993014.000	9.827956e-001	3.686350e-003
52999008.000	9.827870e-001	3.667067e-003
53005002.000	9.827776e-001	3.643156e-003
53010996.000	9.827877e-001	3.606343e-003
53016990.000	9.828206e-001	3.600218e-003
53022984.000	9.827897e-001	3.569886e-003
53028978.000	9.827849e-001	3.543915e-003
53034972.000	9.827664e-001	3.474910e-003
53040966.000	9.827955e-001	3.510138e-003
53046960.000	9.827889e-001	3.447913e-003
53052954.000	9.827824e-001	3.426013e-003
53058948.000	9.827831e-001	3.398691e-003
53064942.000	9.827826e-001	3.425902e-003
53070936.000	9.827137e-001	3.387449e-003
53076930.000	9.827180e-001	3.321074e-003
53082924.000	9.827537e-001	3.280210e-003
53088918.000	9.827689e-001	3.289108e-003
53094912.000	9.828275e-001	3.266076e-003
53100906.000	9.827483e-001	3.260978e-003
53106900.000	9.827307e-001	3.229050e-003
53112894.000	9.827823e-001	3.199514e-003
53118888.000	9.827696e-001	3.176102e-003
53124882.000	9.827556e-001	3.132442e-003
53130876.000	9.827829e-001	3.127695e-003
53136870.000	9.827692e-001	3.114121e-003
53142864.000	9.827618e-001	3.089381e-003
53148858.000	9.827521e-001	3.024246e-003
53154852.000	9.827328e-001	3.010311e-003
53160846.000	9.827687e-001	2.988666e-003
53166840.000	9.827578e-001	2.949669e-003
53172834.000	9.827167e-001	2.905012e-003
53178828.000	9.827210e-001	2.907359e-003
53184822.000	9.827809e-001	2.904433e-003
53190816.000	9.827470e-001	2.908336e-003
53196810.000	9.827643e-001	2.874211e-003
53202804.000	9.827797e-001	2.872320e-003
53208798.000	9.827908e-001	2.794337e-003
53214792.000	9.827816e-001	2.821090e-003
53220786.000	9.827267e-001	2.761627e-003
53226780.000	9.827239e-001	2.724456e-003
53232774.000	9.827663e-001	2.736211e-003
53238768.000	9.828009e-001	2.670331e-003
53244762.000	9.827501e-001	2.696428e-003
53250756.000	9.827398e-001	2.644845e-003
53256750.000	9.827529e-001	2.653140e-003
53262744.000	9.827243e-001	2.561457e-003
53268738.000	9.827412e-001	2.555881e-003
53274732.000	9.827426e-001	2.533743e-003
53280726.000	9.827241e-001	2.490142e-003
53286720.000	9.827402e-001	2.511710e-003
53292714.000	9.827715e-001	2.485417e-003
53298708.000	9.827539e-001	2.461071e-003
53304702.000	9.827348e-001	2.411182e-003
53310696.000	9.827434e-001	2.407019e-003
53316690.000	9.827980e-001	2.397507e-003
53322684.000	9.827422e-001	2.389382e-003
53328678.000	9.827811e-001	2.331794e-003
53334672.000	9.827476e-001	2.320935e-003
53340666.000	9.827477e-001	2.261921e-003
53346660.000	9.827382e-001	2.260304e-003
53352654.000	9.827493e-001	2.232238e-003
53358648.000	9.827468e-001	2.180058e-003
53364642.000	9.827264e-001	2.199036e-003
53370636.000	9.827417e-001	2.168726e-003
53376630.000	9.827182e-001	2.143715e-003
53382624.000	9.826705e-001	2.101484e-003
53388618.000	9.827511e-001	2.095745e-003
53394612.000	9.827596e-001	2.082490e-003
53400606.000	9.827436e-001	2.056835e-003
53406600.000	9.827412e-001	2.011247e-003
53412594.000	9.827130e-001	2.026791e-003
53418588.000	9.827905e-001	1.977631e-003
53424582.000	9.827495e-001	1.982249e-003
53430576.000	9.827251e-001	1.902850e-003
53436570.000	9.827427e-001	1.925340e-003
53442564.000	9.827332e-001	1.873778e-003
53448558.000	9.826727e-001	1.852778e-003
53454552.000	9.827013e-001	1.825147e-003
53460546.000	9.827246e-001	1.817412e-003
53466540.000	9.827180e-001	1.788645e-003
53472534.000	9.827576e-001	1.791832e-003
53478528.000	9.827185e-001	1.748168e-003
53484522.000	9.827653e-001	1.744327e-003
53490516.000	9.827400e-001	1.700846e-003
53496510.000	9.827910e-001	1.668002e-003
53502504.000	9.827544e-001	1.608205e-003
53508498.000	9.827075e-001	1.611871e-003
53514492.000	9.827093e-001	1.587609e-003
53520486.000	9.827033e-001	1.573448e-003
53526480.000	9.827323e-001	1.553194e-003
53532474.000	9.827671e-001	1.530759e-003
53538468.000	9.827270e-001	1.471668e-003
53544462.000	9.827619e-001	1.468806e-003
53550456.000	9.827509e-001	1.434232e-003
53556450.000	9.827755e-001	1.433124e-003
53562444.000	9.827731e-001	1.388418e-003
53568438.000	9.827862e-001	1.376587e-003
53574432.000	9.827297e-001	1.336773e-003
53580426.000	9.827362e-001	1.327222e-003
53586420.000	9.827424e-001	1.308113e-003
53592414.000	9.827368e-001	1.286638e-003
53598408.000	9.827167e-001	1.280618e-003
53604402.000	9.826973e-001	1.231348e-003
53610396.000	9.827440e-001	1.212086e-003
53616390.000	9.826983e-001	1.206335e-003
53622384.000	9.827416e-001	1.190004e-003
53628378.000	9.827054e-001	1.157805e-003
53634372.000	9.826913e-001	1.117297e-003
53640366.000	9.827715e-001	1.092521e-003
53646360.000	9.826960e-001	1.034527e-003
53652354.000	9.827425e-001	1.040941e-003
53658348.000	9.827346e-001	1.036727e-003
53664342.000	9.827099e-001	1.025357e-003
53670336.000	9.827227e-001	9.877828e-004
53676330.000	9.827488e-001	9.511868e-004
53682324.000	9.827579e-001	9.299561e-004
53688318.000	9.827560e-001	9.220440e-004
53694312.000	9.827967e-001	9.203414e-004
53700306.000	9.827755e-001	8.782739e-004
53706300.000	9.827565e-001	8.175912e-004
53712294.000	9.827651e-001	8.132567e-004
53718288.000	9.827325e-001	7.712652e-004
53724282.000	9.827140e-001	7.705337e-004
53730276.000	9.827818e-001	7.641770e-004
53736270.000	9.827841e-001	7.389599e-004
53742264.000	9.827517e-001	6.947650e-004
53748258.000	9.827426e-001	6.551325e-004
53754252.000	9.827207e-001	6.531217e-004
53760246.000	9.826974e-001	6.388797e-004
53766240.000	9.826864e-001	6.083866e-004
53772234.000	9.827130e-001	5.605339e-004
53778228.000	9.827529e-001	5.707098e-004
53784222.000	9.827504e-001	5.109049e-004
53790216.000	9.827231e-001	5.180658e-004
53796210.000	9.827285e-001	4.648962e-004
53802204.000	9.827515e-001	4.372316e-004
53808198.000	9.827593e-001	4.235647e-004
53814192.000	9.827031e-001	4.356588e-004
53820186.000	9.827348e-001	3.587212e-004
53826180.000	9.827193e-001	3.390176e-004
53832174.000	9.826973e-001	3.302656e-004
53838168.000	9.826826e-001	2.614596e-004
53844162.000	9.827172e-001	2.887637e-004
53850156.000	9.827527e-001	2.429502e-004
53856150.000	9.827370e-001	2.570394e-004
53862144.000	9.827138e-001	2.089034e-004
53868138.000	9.827128e-001	2.075557e-004
53874132.000	9.826819e-001	1.502218e-004
53880126.000	9.827017e-001	1.330876e-004
53886120.000	9.827400e-001	1.348938e-004
53892114.000	9.827602e-001	1.077653e-004
53898108.000	9.827467e-001	7.776637e-005
53904102.000	9.827298e-001	2.230520e-005
53910096.000	9.827324e-001	1.425346e-005
53916090.000	9.827479e-001	2.211414e-005
53922084.000	9.827427e-001	-2.535927e-005
53928078.000	9.827308e-001	-4.617044e-005
53934072.000	9.826799e-001	-5.147331e-005
53940066.000	9.827170e-001	-8.151522e-005
53946060.000	9.827586e-001	-1.342895e-004
53952054.000	9.827375e-001	-1.362008e-004
53958048.000	9.826961e-001	-1.733366e-004
53964042.000	9.826799e-001	-2.247461e-004
53970036.000	9.826980e-001	-2.161453e-004
53976030.000	9.826830e-001	-2.242949e-004
53982024.000	9.827351e-001	-2.713777e-004
53988018.000	9.826886e-001	-2.551167e-004
53994012.000	9.826912e-001	-3.048102e-004
54000006.000	9.826945e-001	-2.924495e-004
54006000.000	9.827196e-001	-3.465080e-004
54011994.000	9.826887e-001	-3.692053e-004
54017988.000	9.827212e-001	-3.982186e-004
54023982.000	9.827209e-001	-4.012289e-004
54029976.000	9.827247e-001	-4.497597e-004
54035970.000	9.826969e-001	-4.588110e-004
54041964.000	9.827178e-001	-4.836301e-004
54047958.000	9.827348e-001	-5.017159e-004
54053952.000	9.827251e-001	-5.252295e-004
54059946.000	9.826829e-001	-5.574930e-004
54065940.000	9.826771e-001	-5.910415e-004
54071934.000	9.827378e-001	-5.843345e-004
54077928.000	9.827171e-001	-6.622286e-004
54083922.000	9.826928e-001	-6.770954e-004
54089916.000	9.826943e-001	-6.534387e-004
54095910.000	9.827440e-001	-7.056607e-004
54101904.000	9.826918e-001	-7.046735e-004
54107898.000	9.826837e-001	-7.622917e-004
54113892.000	9.827294e-001	-7.548950e-004
54119886.000	9.826554e-001	-7.854576e-004
54125880.000	9.826713e-001	-8.078297e-004
54131874.000	9.826851e-001	-8.490139e-004
54137868.000	9.827178e-001	-8.748002e-004
54143862.000	9.826767e-001	-9.052170e-004
54149856.000	9.826935e-001	-9.172339e-004
54155850.000	9.826617e-001	-9.240653e-004
54161844.000	9.827084e-001	-9.498476e-004
54167838.000	9.827476e-001	-9.696238e-004
54173832.000	9.827200e-001	-1.031059e-003
54179826.000	9.826863e-001	-1.038814e-003
54185820.000	9.826769e-001	-1.037921e-003
54191814.000	9.826660e-001	-1.098605e-003
54197808.000	9.826839e-001	-1.106298e-003
54203802.000	9.826689e-001	-1.133687e-003
54209796.000	9.826373e-001	-1.129306e-003
54215790.000	9.827135e-001	-1.166477e-003
54221784.000	9.827410e-001	-1.188535e-003
54227778.000	9.827444e-001	-1.209323e-003
54233772.000	9.827251e-001	-1.276749e-003
54239766.000	9.826592e-001	-1.267653e-003
54245760.000	9.826519e-001	-1.323340e-003
54251754.000	9.826733e-001	-1.316807e-003
54257748.000	9.826319e-001	-1.348253e-003
54263742.000	9.826996e-001	-1.372886e-003
54269736.000	9.826624e-001	-1.341391e-003
54275730.000	9.826773e-001	-1.408700e-003
54281724.000	9.826641e-001	-1.419796e-003
54287718.000	9.827147e-001	-1.440208e-003
54293712.000	9.827080e-001	-1.486249e-003
54299706.000	9.827412e-001	-1.508303e-003
54305700.000	9.827133e-001	-1.517311e-003
54311694.000	9.827101e-001	-1.533747e-003
54317688.000	9.827183e-001	-1.554316e-003
54323682.000	9.826852e-001	-1.583039e-003
54329676.000	9.827083e-001	-1.625399e-003
54335670.000	9.826634e-001	-1.640481e-003
54341664.000	9.827114e-001	-1.647261e-003
54347658.000	9.826920e-001	-1.708843e-003
54353652.000	9.826979e-001	-1.714385e-003
54359646.000	9.826979e-001	-1.692877e-003
54365640.000	9.827131e-001	-1.743131e-003
54371634.000	9.827315e-001	-1.761549e-003
54377628.000	9.826798e-001	-1.765708e-003
54383622.000	9.827119e-001	-1.847550e-003
54389616.000	9.826778e-001	-1.872586e-003
54395610.000	9.827261e-001	-1.855711e-003
54401604.000	9.827032e-001	-1.882982e-003
54407598.000	9.827639e-001	-1.915500e-003
54413592.000	9.827335e-001	-1.961420e-003
54419586.000	9.827075e-001	-1.953822e-003
54425580.000	9.826916e-001	-1.972238e-003
54431574.000	9.826892e-001	-2.000931e-003
54437568.000	9.826475e-001	-2.060957e-003
54443562.000	9.826998e-001	-2.039365e-003
54449556.000	9.826256e-001	-2.102467e-003
54455550.000	9.826564e-001	-2.114761e-003
54461544.000	9.826767e-001	-2.132030e-003
54467538.000	9.826953e-001	-2.142481e-003
54473532.000	9.826941e-001	-2.184661e-003
54479526.000	9.826507e-001	-2.185217e-003
54485520.000	9.826614e-001	-2.240584e-003
54491514.000	9.826032e-001	-2.243134e-003
54497508.000	9.826446e-001	-2.280712e-003
54503502.000	9.826290e-001	-2.326632e-003
54509496.000	9.826439e-001	-2.334302e-003
54515490.000	9.826365e-001	-2.349805e-003
54521484.000	9.826481e-001	-2.350012e-003
54527478.000	9.826624e-001	-2.393227e-003
54533472.000	9.826697e-001	-2.389506e-003
54539466.000	9.826983e-001	-2.430748e-003
54545460.000	9.826406e-001	-2.455867e-003
54551454.000	9.826694e-001	-2.468293e-003
54557448.000	9.826551e-001	-2.493621e-003
54563442.000	9.826166e-001	-2.514316e-003
54569436.000	9.826986e-001	-2.541064e-003
54575430.000	9.826731e-001	-2.579201e-003
54581424.000	9.827086e-001	-2.587416e-003
54587418.000	9.826626e-001	-2.661879e-003
54593412.000	9.826691e-001	-2.653908e-003
54599406.000	9.826591e-001	-2.654818e-003
54605400.000	9.826985e-001	-2.703455e-003
54611394.000	9.826806e-001	-2.712442e-003
54617388.000	9.826583e-001	-2.742191e-003
54623382.000	9.826855e-001	-2.743164e-003
54629376.000	9.826939e-001	-2.766650e-003
54635370.000	9.826957e-001	-2.781336e-003
54641364.000	9.826970e-001	-2.846106e-003
54647358.000	9.826772e-001	-2.852094e-003
54653352.000	9.826813e-001	-2.858230e-003
54659346.000	9.826755e-001	-2.924393e-003
54665340.000	9.826493e-001	-2.942297e-003
54671334.000	9.826257e-001	-2.985934e-003
54677328.000	9.826195e-001	-3.017731e-003
54683322.000	9.826773e-001	-2.984959e-003
54689316.000	9.826514e-001	-3.025635e-003
54695310.000	9.826146e-001	-3.011530e-003
54701304.000	9.826431e-001	-3.074791e-003
54707298.000	9.826214e-001	-3.075449e-003
54713292.000	9.826457e-001	-3.083650e-003
54719286.000	9.825997e-001	-3.163510e-003
54725280.000	9.826651e-001	-3.167964e-003
54731274.000	9.826251e-001	-3.180103e-003
54737268.000	9.826689e-001	-3.224122e-003
54743262.000	9.826334e-001	-3.186877e-003
54749256.000	9.826236e-001	-3.245026e-003
54755250.000	9.826437e-001	-3.309609e-003
54761244.000	9.826197e-001	-3.311563e-003
54767238.000	9.826339e-001	-3.299046e-003
54773232.000	9.826288e-001	-3.353648e-003
54779226.000	9.826619e-001	-3.384795e-003
54785220.000	9.826329e-001	-3.365229e-003
54791214.000	9.826578e-001	-3.431470e-003
54797208.000	9.826485e-001	-3.413726e-003
54803202.000	9.826330e-001	-3.464987e-003
54809196.000	9.826468e-001	-3.504621e-003
54815190.000	9.826043e-001	-3.535523e-003
54821184.000	9.826353e-001	-3.571097e-003
54827178.000	9.825870e-001	-3.547229e-003
54833172.000	9.826191e-001	-3.597166e-003
54839166.000	9.826188e-001	-3.580645e-003
54845160.000	9.826526e-001	-3.630892e-003
54851154.000	9.826227e-001	-3.659486e-003
54857148.000	9.826395e-001	-3.675930e-003
54863142.000	9.826970e-001	-3.727744e-003
54869136.000	9.826181e-001	-3.706631e-003
54875130.000	9.826449e-001	-3.756090e-003
54881124.000	9.826384e-001	-3.791331e-003
54887118.000	9.826508e-001	-3.792820e-003
54893112.000	9.826549e-001	-3.785850e-003
54899106.000	9.826878e-001	-3.824390e-003
54905100.000	9.826466e-001	-3.871790e-003
54911094.000	9.826943e-001	-3.882793e-003
54917088.000	9.826729e-001	-3.924906e-003
54923082.000	9.826929e-001	-3.891376e-003
54929076.000	9.826803e-001	-3.939052e-003
54935070.000	9.826936e-001	-3.972360e-003
54941064.000	9.827110e-001	-4.039135e-003
54947058.000	9.826169e-001	-4.030440e-003
54953052.000	9.826725e-001	-4.048119e-003
54959046.000	9.826846e-001	-4.058969e-003
54965040.000	9.826262e-001	-4.078213e-003
54971034.000	9.826930e-001	-4.127043e-003
54977028.000	9.826974e-001	-4.117850e-003
54983022.000	9.827109e-001	-4.136862e-003
54989016.000	9.826514e-001	-4.166262e-003
54995010.000	9.826529e-001	-4.192698e-003
55001004.000	9.826842e-001	-4.249300e-003
55006998.000	9.826630e-001	-4.236936e-003
55012992.000	9.826680e-001	-4.268339e-003
55018986.000	9.826719e-001	-4.303371e-003
55024980.000	9.826380e-001	-4.299494e-003
55030974.000	9.826407e-001	-4.339725e-003
55036968.000	9.826484e-001	-4.369221e-003
55042962.000	9.826482e-001	-4.384127e-003
55048956.000	9.826035e-001	-4.404849e-003
55054950.000	9.825957e-001	-4.447670e-003
55060944.000	9.826357e-001	-4.471329e-003
55066938.000	9.826284e-001	-4.531706e-003
55072932.000	9.825861e-001	-4.516766e-003
55078926.000	9.826024e-001	-4.528473e-003
55084920.000	9.826313e-001	-4.577604e-003
55090914.000	9.825761e-001	-4.622062e-003
55096908.000	9.826092e-001	-4.623615e-003
55102902.000	9.826213e-001	-4.616245e-003
55108896.000	9.826420e-001	-4.671169e-003
55114890.000	9.825804e-001	-4.666197e-003
55120884.000	9.826262e-001	-4.709894e-003
55126878.000	9.826089e-001	-4.718448e-003
55132872.000	9.826399e-001	-4.717111e-003
55138866.000	9.826425e-001	-4.768404e-003
55144860.000	9.826354e-001	-4.807406e-003
55150854.000	9.825800e-001	-4.803444e-003
55156848.000	9.826082e-001	-4.827451e-003
55162842.000	9.826228e-001	-4.862172e-003
55168836.000	9.826293e-001	-4.880113e-003
55174830.000	9.826202e-001	-4.892803e-003
55180824.000	9.826356e-001	-4.933553e-003
55186818.000	9.826220e-001	-4.963742e-003
55192812.000	9.826446e-001	-4.993143e-003
55198806.000	9.825890e-001	-5.005175e-003
55204800.000	9.825909e-001	-5.038359e-003
55210794.000	9.826015e-001	-5.073947e-003
55216788.000	9.826692e-001	-5.041496e-003
55222782.000	9.826486e-001	-5.105986e-003
55228776.000	9.826566e-001	-5.076728e-003
55234770.000	9.826262e-001	-5.163052e-003
55240764.000	9.826396e-001	-5.145381e-003
55246758.000	9.826051e-001	-5.169293e-003
55252752.000	9.826264e-001	-5.197463e-003
55258746.000	9.826006e-001	-5.233720e-003
55264740.000	9.826502e-001	-5.238971e-003
55270734.000	9.826186e-001	-5.291557e-003
55276728.000	9.826450e-001	-5.281710e-003
55282722.000	9.826363e-001	-5.300299e-003
55288716.000	9.826332e-001	-5.334867e-003
55294710.000	9.826148e-001	-5.369959e-003
55300704.000	9.825983e-001	-5.373037e-003
55306698.000	9.826054e-001	-5.402872e-003
55312692.000	9.826263e-001	-5.404736e-003
55318686.000	9.826302e-001	-5.435991e-003
55324680.000	9.826191e-001	-5.491586e-003
55330674.000	9.825768e-001	-5.503110e-003
55336668.000	9.826049e-001	-5.526505e-003
55342662.000	9.826199e-001	-5.547845e-003
55348656.000	9.825703e-001	-5.582962e-003
55354650.000	9.826141e-001	-5.629365e-003
55360644.000	9.826192e-001	-5.612715e-003
55366638.000	9.826355e-001	-5.643883e-003
55372632.000	9.825744e-001	-5.660200e-003
55378626.000	9.826154e-001	-5.701264e-003
55384620.000	9.826439e-001	-5.680126e-003
55390614.000	9.826444e-001	-5.742548e-003
55396608.000	9.826048e-001	-5.751891e-003
55402602.000	9.826213e-001	-5.783185e-003
55408596.000	9.825473e-001	-5.826604e-003
55414590.000	9.826019e-001	-5.855622e-003
55420584.000	9.826168e-001	-5.870541e-003
55426578.000	9.825870e-001	-5.903415e-003
55432572.000	9.825830e-001	-5.917999e-003
55438566.000	9.826039e-001	-5.918971e-003
55444560.000	9.825916e-001	-5.942892e-003
55450554.000	9.826517e-001	-5.984387e-003
55456548.000	9.826073e-001	-6.012408e-003
55462542.000	9.826448e-001	-6.032483e-003
55468536.000	9.825819e-001	-6.043693e-003
55474530.000	9.826088e-001	-6.067958e-003
55480524.000	9.826086e-001	-6.078663e-003
55486518.000	9.826296e-001	-6.090978e-003
55492512.000	9.826032e-001	-6.133974e-003
55498506.000	9.825786e-001	-6.158430e-003
55504500.000	9.825972e-001	-6.186289e-003
55510494.000	9.825771e-001	-6.196190e-003
55516488.000	9.826054e-001	-6.230632e-003
55522482.000	9.825793e-001	-6.240007e-003
55528476.000	9.825573e-001	-6.298839e-003
55534470.000	9.826262e-001	-6.290907e-003
55540464.000	9.825518e-001	-6.305063e-003
55546458.000	9.826347e-001	-6.330332e-003
55552452.000	9.826296e-001	-6.353260e-003
55558446.000	9.826108e-001	-6.395681e-003
55564440.000	9.825857e-001	-6.404307e-003
55570434.000	9.825756e-001	-6.460123e-003
55576428.000	9.826185e-001	-6.443377e-003
55582422.000	9.825899e-001	-6.475473e-003
55588416.000	9.825731e-001	-6.510656e-003
55594410.000	9.825353e-001	-6.540944e-003
55600404.000	9.825892e-001	-6.532827e-003
55606398.000	9.826069e-001	-6.551917e-003
55612392.000	9.825987e-001	-6.573295e-003
55618386.000	9.825853e-001	-6.624838e-003
55624380.000	9.825958e-001	-6.617139e-003
55630374.000	9.826045e-001	-6.666116e-003
55636368.000	9.826101e-001	-6.649021e-003
55642362.000	9.826059e-001	-6.693487e-003
55648356.000	9.826173e-001	-6.749447e-003
55654350.000	9.825883e-001	-6.757082e-003
55660344.000	9.826305e-001	-6.777452e-003
55666338.000	9.825847e-001	-6.800040e-003
55672332.000	9.826258e-001	-6.830941e-003
55678326.000	9.826287e-001	-6.846250e-003
55684320.000	9.825628e-001	-6.847668e-003
55690314.000	9.826023e-001	-6.852274e-003
55696308.000	9.826661e-001	-6.883136e-003
55702302.000	9.826460e-001	-6.905747e-003
55708296.000	9.825609e-001	-6.977759e-003
55714290.000	9.826273e-001	-6.977486e-003
55720284.000	9.826069e-001	-6.986853e-003
55726278.000	9.826315e-001	-7.033082e-003
55732272.000	9.826250e-001	-7.085171e-003
55738266.000	9.825766e-001	-7.070901e-003
55744260.000	9.825610e-001	-7.069015e-003
55750254.000	9.825792e-001	-7.096617e-003
55756248.000	9.825564e-001	-7.128509e-003
55762242.000	9.825652e-001	-7.162290e-003
55768236.000	9.825953e-001	-7.168490e-003
55774230.000	9.826196e-001	-7.205938e-003
55780224.000	9.825755e-001	-7.226003e-003
55786218.000	9.826195e-001	-7.274773e-003
55792212.000	9.826202e-001	-7.277693e-003
55798206.000	9.825674e-001	-7.288693e-003
55804200.000	9.825634e-001	-7.318798e-003
55810194.000	9.826096e-001	-7.356909e-003
55816188.000	9.826034e-001	-7.358313e-003
55822182.000	9.825999e-001	-7.423289e-003
55828176.000	9.826033e-001	-7.427279e-003
55834170.000	9.825737e-001	-7.460441e-003
55840164.000	9.825447e-001	-7.488302e-003
55846158.000	9.825974e-001	-7.508005e-003
55852152.000	9.826273e-001	-7.501117e-003
55858146.000	9.826047e-001	-7.511269e-003
55864140.000	9.825669e-001	-7.567967e-003
55870134.000	9.825884e-001	-7.583346e-003
55876128.000	9.825897e-001	-7.592701e-003
55882122.000	9.825690e-001	-7.607920e-003
55888116.000	9.825676e-001	-7.588243e-003
55894110.000	9.826301e-001	-7.638486e-003
55900104.000	9.825464e-001	-7.695013e-003
55906098.000	9.825845e-001	-7.725114e-003
55912092.000	9.826196e-001	-7.726240e-003
55918086.000	9.825825e-001	-7.736121e-003
55924080.000	9.825817e-001	-7.760031e-003
55930074.000	9.825756e-001	-7.772213e-003
55936068.000	9.826160e-001	-7.784100e-003
55942062.000	9.825832e-001	-7.847564e-003
55948056.000	9.826034e-001	-7.862071e-003
55954050.000	9.825605e-001	-7.871549e-003
55960044.000	9.826113e-001	-7.899317e-003
55966038.000	9.826077e-001	-7.918196e-003
55972032.000	9.825560e-001	-7.937190e-003
55978026.000	9.825626e-001	-8.000675e-003
55984020.000	9.825685e-001	-7.984948e-003
55990014.000	9.825864e-001	-7.993403e-003
55996008.000	9.825855e-001	-8.040241e-003
56002002.000	9.825669e-001	-8.076336e-003
56007996.000	9.825694e-001	-8.088796e-003
56013990.000	9.826116e-001	-8.121132e-003
56019984.000	9.825772e-001	-8.125134e-003
56025978.000	9.826146e-001	-8.190583e-003
56031972.000	9.825943e-001	-8.200839e-003
56037966.000	9.826050e-001	-8.194280e-003
56043960.000	9.825732e-001	-8.238160e-003
56049954.000	9.825721e-001	-8.240605e-003
56055948.000	9.825758e-001	-8.245512e-003
56061942.000	9.825968e-001	-8.310415e-003
56067936.000	9.825466e-001	-8.316882e-003
56073930.000	9.825540e-001	-8.354633e-003
56079924.000	9.825984e-001	-8.365942e-003
56085918.000	9.825766e-001	-8.402454e-003
56091912.000	9.826089e-001	-8.407290e-003
56097906.000	9.826044e-001	-8.454584e-003
56103900.000	9.825824e-001	-8.468907e-003
56109894.000	9.825562e-001	-8.473781e-003
56115888.000	9.825532e-001	-8.493168e-003
56121882.000	9.825511e-001	-8.566062e-003
56127876.000	9.825359e-001	-8.582052e-003
56133870.000	9.825196e-001	-8.597171e-003
56139864.000	9.825542e-001	-8.599804e-003
56145858.000	9.825535e-001	-8.641205e-003
56151852.000	9.825721e-001	-8.652476e-003
56157846.000	9.825478e-001	-8.686073e-003
56163840.000	9.825702e-001	-8.711293e-003
56169834.000	9.825652e-001	-8.705793e-003
56175828.000	9.825538e-001	-8.719024e-003
56181822.000	9.825651e-001	-8.781745e-003
56187816.000	9.825683e-001	-8.803668e-003
56193810.000	9.825512e-001	-8.834631e-003
56199804.000	9.825290e-001	-8.852629e-003
56205798.000	9.825329e-001	-8.879627e-003
56211792.000	9.825297e-001	-8.909542e-003
56217786.000	9.825673e-001	-8.913092e-003
56223780.000	9.825257e-001	-8.924613e-003
56229774.000	9.825661e-001	-8.930644e-003
56235768.000	9.825301e-001	-8.999641e-003
56241762.000	9.825937e-001	-9.005960e-003
56247756.000	9.825805e-001	-9.017933e-003
56253750.000	9.825559e-001	-9.050183e-003
56259744.000	9.825211e-001	-9.077682e-003
56265738.000	9.825318e-001	-9.069226e-003
56271732.000	9.825763e-001	-9.120420e-003
56277726.000	9.825395e-001	-9.149825e-003
56283720.000	9.825428e-001	-9.179437e-003
56289714.000	9.825662e-001	-9.168004e-003
56295708.000	9.824848e-001	-9.215925e-003
56301702.000	9.825151e-001	-9.275999e-003
56307696.000	9.825113e-001	-9.260961e-003
56313690.000	9.825498e-001	-9.279354e-003
56319684.000	9.825094e-001	-9.300082e-003
56325678.000	9.825043e-001	-9.336045e-003
56331672.000	9.824920e-001	-9.362781e-003
56337666.000	9.825368e-001	-9.349290e-003
56343660.000	9.825130e-001	-9.394376e-003
56349654.000	9.824974e-001	-9.414512e-003
56355648.000	9.825027e-001	-9.430545e-003
56361642.000	9.825100e-001	-9.478505e-003
56367636.000	9.825035e-001	-9.462717e-003
56373630.000	9.825183e-001	-9.509487e-003
56379624.000	9.825303e-001	-9.516374e-003
56385618.000	9.825024e-001	-9.559517e-003
56391612.000	9.825347e-001	-9.573774e-003
56397606.000	9.824971e-001	-9.599399e-003
56403600.000	9.825145e-001	-9.599084e-003
56409594.000	9.824991e-001	-9.625218e-003
56415588.000	9.825002e-001	-9.677173e-003
56421582.000	9.825023e-001	-9.702869e-003
56427576.000	9.825229e-001	-9.699348e-003
56433570.000	9.825042e-001	-9.722320e-003
56439564.000	9.825297e-001	-9.778890e-003
56445558.000	9.825036e-001	-9.782285e-003
56451552.000	9.825446e-001	-9.809533e-003
56457546.000	9.825228e-001	-9.849401e-003
56463540.000	9.824899e-001	-9.824034e-003
56469534.000	9.825673e-001	-9.866390e-003
56475528.000	9.824976e-001	-9.862771e-003
56481522.000	9.824967e-001	-9.884334e-003
56487516.000	9.824896e-001	-9.909341e-003
56493510.000	9.824979e-001	-9.999176e-003
56499504.000	9.825239e-001	-1.000802e-002
56505498.000	9.825006e-001	-1.001395e-002
56511492.000	9.824792e-001	-1.004829e-002
56517486.000	9.825157e-001	-1.005716e-002
56523480.000	9.825100e-001	-1.006823e-002
56529474.000	9.825320e-001	-1.012098e-002
56535468.000	9.825403e-001	-1.012488e-002
56541462.000	9.824836e-001	-1.013399e-002
56547456.000	9.824674e-001	-1.020471e-002
56553450.000	9.824984e-001	-1.017862e-002
56559444.000	9.824909e-001	-1.020296e-002
56565438.000	9.825167e-001	-1.019900e-002
56571432.000	9.825200e-001	-1.022467e-002
56577426.000	9.825416e-001	-1.027104e-002
56583420.000	9.825289e-001	-1.029197e-002
56589414.000	9.824860e-001	-1.031937e-002
56595408.000	9.825004e-001	-1.033651e-002
56601402.000	9.825053e-001	-1.040329e-002
56607396.000	9.825244e-001	-1.039557e-002
56613390.000	9.825024e-001	-1.040102e-002
56619384.000	9.825120e-001	-1.042316e-002
56625378.000	9.825232e-001	-1.048226e-002
56631372.000	9.824707e-001	-1.048747e-002
56637366.000	9.824885e-001	-1.053281e-002
56643360.000	9.824571e-001	-1.056043e-002
56649354.000	9.824768e-001	-1.055632e-002
56655348.000	9.824813e-001	-1.059848e-002
56661342.000	9.825524e-001	-1.061877e-002
56667336.000	9.825145e-001	-1.062283e-002
56673330.000	9.825256e-001	-1.062743e-002
56679324.000	9.824975e-001	-1.066085e-002
56685318.000	9.824890e-001	-1.066947e-002
56691312.000	9.824750e-001	-1.071638e-002
56697306.000	9.825332e-001	-1.074675e-002
56703300.000	9.824596e-001	-1.072290e-002
56709294.000	9.825227e-001	-1.077545e-002
56715288.000	9.824662e-001	-1.077580e-002
56721282.000	9.825151e-001	-1.084489e-002
56727276.000	9.824825e-001	-1.083795e-002
56733270.000	9.824990e-001	-1.085417e-002
56739264.000	9.825075e-001	-1.086166e-002
56745258.000	9.824969e-001	-1.088992e-002
56751252.000	9.825465e-001	-1.096197e-002
56757246.000	9.824773e-001	-1.094991e-002
56763240.000	9.824624e-001	-1.097758e-002
56769234.000	9.824747e-001	-1.100393e-002
56775228.000	9.824718e-001	-1.102273e-002
56781222.000	9.825172e-001	-1.106521e-002
56787216.000	9.824942e-001	-1.107518e-002
56793210.000	9.824917e-001	-1.108997e-002
56799204.000	9.824919e-001	-1.111665e-002
56805198.000	9.824284e-001	-1.115329e-002
56811192.000	9.824668e-001	-1.117351e-002
56817186.000	9.825104e-001	-1.118686e-002
56823180.000	9.824979e-001	-1.120994e-002
56829174.000	9.824397e-001	-1.124531e-002
56835168.000	9.824536e-001	-1.126298e-002
56841162.000	9.824432e-001	-1.124795e-002
56847156.000	9.824242e-001	-1.129461e-002
56853150.000	9.824604e-001	-1.130998e-002
56859144.000	9.824612e-001	-1.134934e-002
56865138.000	9.825030e-001	-1.136909e-002
56871132.000	9.824905e-001	-1.138228e-002
56877126.000	9.824757e-001	-1.142607e-002
56883120.000	9.824709e-001	-1.142461e-002
56889114.000	9.824392e-001	-1.142914e-002
56895108.000	9.824345e-001	-1.148283e-002
56901102.000	9.825148e-001	-1.148900e-002
56907096.000	9.824510e-001	-1.151413e-002
56913090.000	9.824673e-001	-1.153631e-002
56919084.000	9.824761e-001	-1.158287e-002
56925078.000	9.824145e-001	-1.160624e-002
56931072.000	9.824734e-001	-1.160838e-002
56937066.000	9.824578e-001	-1.167178e-002
56943060.000	9.824361e-001	-1.166668e-002
56949054.000	9.824408e-001	-1.164361e-002
56955048.000	9.824844e-001	-1.169683e-002
56961042.000	9.824201e-001	-1.173768e-002
56967036.000	9.824312e-001	-1.174966e-002
56973030.000	9.824259e-001	-1.180141e-002
56979024.000	9.824098e-001	-1.181447e-002
56985018.000	9.824363e-001	-1.185438e-002
56991012.000	9.824172e-001	-1.186016e-002
56997006.000	9.824416e-001	-1.191190e-002
57003000.000	9.824319e-001	-1.190901e-002
57008994.000	9.823887e-001	-1.194548e-002
57014988.000	9.823740e-001	-1.199113e-002
57020982.000	9.824701e-001	-1.192245e-002
57026976.000	9.824095e-001	-1.197727e-002
57032970.000	9.824039e-001	-1.203976e-002
57038964.000	9.824172e-001	-1.203562e-002
57044958.000	9.824243e-001	-1.204510e-002
57050952.000	9.823946e-001	-1.208260e-002
57056946.000	9.824312e-001	-1.208444e-002
57062940.000	9.824056e-001	-1.210947e-002
57068934.000	9.824463e-001	-1.214157e-002
57074928.000	9.824742e-001	-1.211488e-002
57080922.000	9.824944e-001	-1.216811e-002
57086916.000	9.824665e-001	-1.219087e-002
57092910.000	9.824488e-001	-1.222027e-002
57098904.000	9.823929e-001	-1.225639e-002
57104898.000	9.823872e-001	-1.229319e-002
57110892.000	9.824241e-001	-1.231487e-002
57116886.000	9.824543e-001	-1.232478e-002
57122880.000	9.824121e-001	-1.231478e-002
57128874.000	9.824267e-001	-1.232613e-002
57134868.000	9.824397e-001	-1.235112e-002
57140862.000	9.824220e-001	-1.242780e-002
57146856.000	9.824302e-001	-1.243058e-002
57152850.000	9.824603e-001	-1.243563e-002
57158844.000	9.824710e-001	-1.251235e-002
57164838.000	9.824102e-001	-1.249359e-002
57170832.000	9.824475e-001	-1.250687e-002
57176826.000	9.825153e-001	-1.253140e-002
57182820.000	9.824621e-001	-1.259031e-002
57188814.000	9.824151e-001	-1.259525e-002
57194808.000	9.824529e-001	-1.262108e-002
57200802.000	9.824673e-001	-1.263371e-002
57206796.000	9.824592e-001	-1.264289e-002
57212790.000	9.823784e-001	-1.265784e-002
57218784.000	9.824054e-001	-1.270861e-002
57224778.000	9.824520e-001	-1.272046e-002
57230772.000	9.823747e-001	-1.274176e-002
57236766.000	9.824275e-001	-1.275999e-002
57242760.000	9.823809e-001	-1.281600e-002
57248754.000	9.823866e-001	-1.282153e-002
57254748.000	9.824230e-001	-1.284264e-002
57260742.000	9.824502e-001	-1.287826e-002
57266736.000	9.824237e-001	-1.289631e-002
57272730.000	9.823762e-001	-1.293325e-002
57278724.000	9.824118e-001	-1.295081e-002
57284718.000	9.823924e-001	-1.293663e-002
57290712.000	9.823876e-001	-1.297669e-002
57296706.000	9.824285e-001	-1.300100e-002
57302700.000	9.824018e-001	-1.301152e-002
57308694.000	9.824067e-001	-1.303542e-002
57314688.000	9.824075e-001	-1.305831e-002
57320682.000	9.823985e-001	-1.307572e-002
57326676.000	9.823960e-001	-1.309616e-002
57332670.000	9.823743e-001	-1.314445e-002
57338664.000	9.823879e-001	-1.316046e-002
57344658.000	9.824149e-001	-1.321351e-002
57350652.000	9.824611e-001	-1.315955e-002
57356646.000	9.824008e-001	-1.325336e-002
57362640.000	9.823936e-001	-1.323996e-002
57368634.000	9.824237e-001	-1.324829e-002
57374628.000	9.824227e-001	-1.328321e-002
57380622.000	9.823703e-001	-1.331601e-002
57386616.000	9.824024e-001	-1.334706e-002
57392610.000	9.824000e-001	-1.334951e-002
57398604.000	9.823679e-001	-1.333554e-002
57404598.000	9.824055e-001	-1.343163e-002
57410592.000	9.824016e-001	-1.342571e-002
57416586.000	9.823976e-001	-1.346741e-002
57422580.000	9.824308e-001	-1.348987e-002
57428574.000	9.823961e-001	-1.349180e-002
57434568.000	9.824211e-001	-1.351583e-002
57440562.000	9.824407e-001	-1.352160e-002
57446556.000	9.824030e-001	-1.356249e-002
57452550.000	9.824504e-001	-1.358831e-002
57458544.000	9.824231e-001	-1.360716e-002
57464538.000	9.823878e-001	-1.360969e-002
57470532.000	9.823948e-001	-1.367559e-002
57476526.000	9.823884e-001	-1.365620e-002
57482520.000	9.823896e-001	-1.368432e-002
57488514.000	9.824254e-001	-1.367667e-002
57494508.000	9.824022e-001	-1.371038e-002
57500502.000	9.824022e-001	-1.374953e-002
57506496.000	9.824142e-001	-1.377062e-002
57512490.000	9.824207e-001	-1.379023e-002
57518484.000	9.824385e-001	-1.381322e-002
57524478.000	9.824185e-001	-1.381870e-002
57530472.000	9.824065e-001	-1.385559e-002
57536466.000	9.824149e-001	-1.388892e-002
57542460.000	9.824394e-001	-1.390634e-002
57548454.000	9.823814e-001	-1.391969e-002
57554448.000	9.824202e-001	-1.394694e-002
57560442.000	9.824218e-001	-1.397408e-002
57566436.000	9.824258e-001	-1.399040e-002
57572430.000	9.824427e-001	-1.400906e-002
57578424.000	9.824141e-001	-1.406188e-002
57584418.000	9.824082e-001	-1.406681e-002
57590412.000	9.824023e-001	-1.409953e-002
57596406.000	9.823816e-001	-1.411891e-002
57602400.000	9.823585e-001	-1.413221e-002
57608394.000	9.824189e-001	-1.415475e-002
57614388.000	9.824119e-001	-1.417143e-002
57620382.000	9.824439e-001	-1.420219e-002
57626376.000	9.823925e-001	-1.421853e-002
57632370.000	9.824129e-001	-1.424853e-002
57638364.000	9.823718e-001	-1.429186e-002
57644358.000	9.823879e-001	-1.431364e-002
57650352.000	9.824237e-001	-1.427516e-002
57656346.000	9.824065e-001	-1.431955e-002
57662340.000	9.823884e-001	-1.435031e-002
57668334.000	9.824307e-001	-1.436738e-002
57674328.000	9.824668e-001	-1.437743e-002
57680322.000	9.823774e-001	-1.441075e-002
57686316.000	9.824276e-001	-1.444259e-002
57692310.000	9.823962e-001	-1.446788e-002
57698304.000	9.823530e-001	-1.449383e-002
57704298.000	9.823324e-001	-1.451671e-002
57710292.000	9.823945e-001	-1.452623e-002
57716286.000	9.823781e-001	-1.457115e-002
57722280.000	9.824329e-001	-1.456367e-002
57728274.000	9.823672e-001	-1.459210e-002
57734268.000	9.823824e-001	-1.465042e-002
57740262.000	9.823789e-001	-1.463025e-002
57746256.000	9.823441e-001	-1.466719e-002
57752250.000	9.824027e-001	-1.470902e-002
57758244.000	9.824082e-001	-1.467561e-002
57764238.000	9.823731e-001	-1.470568e-002
57770232.000	9.823946e-001	-1.472030e-002
57776226.000	9.823929e-001	-1.476978e-002
57782220.000	9.824009e-001	-1.478526e-002
57788214.000	9.823680e-001	-1.479822e-002
57794208.000	9.823450e-001	-1.485357e-002
57800202.000	9.823356e-001	-1.486513e-002
57806196.000	9.823550e-001	-1.487059e-002
57812190.000	9.823731e-001	-1.491462e-002
57818184.000	9.823762e-001	-1.493598e-002
57824178.000	9.823834e-001	-1.497556e-002
57830172.000	9.824057e-001	-1.493931e-002
57836166.000	9.823889e-001	-1.498351e-002
57842160.000	9.823651e-001	-1.500546e-002
57848154.000	9.824090e-001	-1.502865e-002
57854148.000	9.823555e-001	-1.505866e-002
57860142.000	9.823261e-001	-1.508625e-002
57866136.000	9.823602e-001	-1.511382e-002
57872130.000	9.823396e-001	-1.512683e-002
57878124.000	9.823259e-001	-1.514102e-002
57884118.000	9.824053e-001	-1.515010e-002
57890112.000	9.823638e-001	-1.518754e-002
57896106.000	9.823364e-001	-1.523190e-002
57902100.000	9.824090e-001	-1.523441e-002
57908094.000	9.823144e-001	-1.526805e-002
57914088.000	9.823227e-001	-1.526616e-002
57920082.000	9.823041e-001	-1.532021e-002
57926076.000	9.823672e-001	-1.530847e-002
57932070.000	9.823426e-001	-1.534183e-002
57938064.000	9.823724e-001	-1.534605e-002
57944058.000	9.823563e-001	-1.540544e-002
57950052.000	9.823776e-001	-1.543011e-002
57956046.000	9.824058e-001	-1.544076e-002
57962040.000	9.823615e-001	-1.547752e-002
57968034.000	9.823618e-001	-1.547280e-002
57974028.000	9.823863e-001	-1.549908e-002
57980022.000	9.824109e-001	-1.554770e-002
57986016.000	9.823659e-001	-1.552660e-002
57992010.000	9.823549e-001	-1.558081e-002
57998004.000	9.823664e-001	-1.561738e-002
58003998.000	9.824003e-001	-1.561342e-002
58009992.000	9.823360e-001	-1.565342e-002
58015986.000	9.823367e-001	-1.565958e-002
58021980.000	9.823142e-001	-1.570328e-002
58027974.000	9.823438e-001	-1.572582e-002
58033968.000	9.823513e-001	-1.574784e-002
58039962.000	9.823862e-001	-1.575410e-002
58045956.000	9.823508e-001	-1.576167e-002
58051950.000	9.823721e-001	-1.577201e-002
58057944.000	9.823479e-001	-1.579658e-002
58063938.000	9.823559e-001	-1.583071e-002
58069932.000	9.823459e-001	-1.586560e-002
58075926.000	9.823617e-001	-1.589345e-002
58081920.000	9.823409e-001	-1.589435e-002
58087914.000	9.823575e-001	-1.593935e-002
58093908.000	9.823239e-001	-1.597148e-002
58099902.000	9.823517e-001	-1.596542e-002
58105896.000	9.823763e-001	-1.594278e-002
58111890.000	9.824008e-001	-1.598690e-002
58117884.000	9.823704e-001	-1.603774e-002
58123878.000	9.823623e-001	-1.607307e-002
58129872.000	9.823228e-001	-1.608850e-002
58135866.000	9.823175e-001	-1.612108e-002
58141860.000	9.823213e-001	-1.616284e-002
58147854.000	9.823080e-001	-1.618881e-002
58153848.000	9.823452e-001	-1.617831e-002
58159842.000	9.823295e-001	-1.622035e-002
58165836.000	9.823833e-001	-1.620720e-002
58171830.000	9.823367e-001	-1.623065e-002
58177824.000	9.823350e-001	-1.623278e-002
58183818.000	9.823663e-001	-1.626629e-002
58189812.000	9.823667e-001	-1.629980e-002
58195806.000	9.823078e-001	-1.634280e-002
58201800.000	9.823196e-001	-1.634603e-002
58207794.000	9.823380e-001	-1.637065e-002
58213788.000	9.823331e-001	-1.640522e-002
58219782.000	9.823532e-001	-1.641185e-002
58225776.000	9.823606e-001	-1.644136e-002
58231770.000	9.823619e-001	-1.646911e-002
58237764.000	9.823451e-001	-1.651103e-002
58243758.000	9.822945e-001	-1.651730e-002
58249752.000	9.823194e-001	-1.655597e-002
58255746.000	9.823490e-001	-1.655300e-002
58261740.000	9.823524e-001	-1.657126e-002
58267734.000	9.823337e-001	-1.660057e-002
58273728.000	9.823541e-001	-1.658780e-002
58279722.000	9.823144e-001	-1.663951e-002
58285716.000	9.823414e-001	-1.664517e-002
58291710.000	9.823693e-001	-1.666814e-002
58297704.000	9.823738e-001	-1.668953e-002
58303698.000	9.823027e-001	-1.671202e-002
58309692.000	9.823731e-001	-1.674028e-002
58315686.000	9.823365e-001	-1.676803e-002
58321680.000	9.823278e-001	-1.679534e-002
58327674.000	9.823452e-001	-1.684076e-002
58333668.000	9.823056e-001	-1.684903e-002
58339662.000	9.823381e-001	-1.687028e-002
58345656.000	9.823402e-001	-1.690636e-002
58351650.000	9.823276e-001	-1.690821e-002
58357644.000	9.823390e-001	-1.691400e-002
58363638.000	9.823492e-001	-1.692092e-002
58369632.000	9.823326e-001	-1.698029e-002
58375626.000	9.823207e-001	-1.700093e-002
58381620.000	9.823563e-001	-1.702421e-002
58387614.000	9.823229e-001	-1.704636e-002
58393608.000	9.823269e-001	-1.703687e-002
58399602.000	9.823870e-001	-1.708009e-002
58405596.000	9.823296e-001	-1.708898e-002
58411590.000	9.823337e-001	-1.708277e-002
58417584.000	9.823186e-001	-1.713159e-002
58423578.000	9.823061e-001	-1.716876e-002
58429572.000	9.823175e-001	-1.720527e-002
58435566.000	9.822874e-001	-1.720803e-002
58441560.000	9.823361e-001	-1.724463e-002
58447554.000	9.822650e-001	-1.727398e-002
58453548.000	9.823113e-001	-1.728599e-002
58459542.000	9.823060e-001	-1.731291e-002
58465536.000	9.823147e-001	-1.735246e-002
58471530.000	9.822985e-001	-1.739220e-002
58477524.000	9.823169e-001	-1.733585e-002
58483518.000	9.822636e-001	-1.735805e-002
58489512.000	9.822781e-001	-1.742808e-002
58495506.000	9.822894e-001	-1.745709e-002
58501500.000	9.822948e-001	-1.746210e-002
58507494.000	9.822941e-001	-1.748712e-002
58513488.000	9.823092e-001	-1.752596e-002
58519482.000	9.823027e-001	-1.750802e-002
58525476.000	9.822927e-001	-1.754164e-002
58531470.000	9.823163e-001	-1.754449e-002
58537464.000	9.822759e-001	-1.759847e-002
58543458.000	9.822773e-001	-1.762444e-002
58549452.000	9.822894e-001	-1.761038e-002
58555446.000	9.823136e-001	-1.767674e-002
58561440.000	9.822710e-001	-1.764839e-002
58567434.000	9.822753e-001	-1.772893e-002
58573428.000	9.823351e-001	-1.774248e-002
58579422.000	9.822451e-001	-1.774567e-002
58585416.000	9.822353e-001	-1.776362e-002
58591410.000	9.821994e-001	-1.778836e-002
58597404.000	9.822769e-001	-1.782908e-002
58603398.000	9.822533e-001	-1.784315e-002
58609392.000	9.822696e-001	-1.787089e-002
58615386.000	9.822279e-001	-1.785206e-002
58621380.000	9.822967e-001	-1.791362e-002
58627374.000	9.823012e-001	-1.793367e-002
58633368.000	9.822812e-001	-1.791915e-002
58639362.000	9.822987e-001	-1.795615e-002
58645356.000	9.822828e-001	-1.796955e-002
58651350.000	9.822719e-001	-1.800717e-002
58657344.000	9.822482e-001	-1.803834e-002
58663338.000	9.822307e-001	-1.807136e-002
58669332.000	9.822595e-001	-1.808130e-002
58675326.000	9.822610e-001	-1.812097e-002
58681320.000	9.822543e-001	-1.815603e-002
58687314.000	9.822388e-001	-1.813222e-002
58693308.000	9.822327e-001	-1.816546e-002
58699302.000	9.822301e-001	-1.820107e-002
58705296.000	9.822673e-001	-1.822299e-002
58711290.000	9.822847e-001	-1.823374e-002
58717284.000	9.822944e-001	-1.826715e-002
58723278.000	9.822617e-001	-1.828286e-002
58729272.000	9.822385e-001	-1.831626e-002
58735266.000	9.822634e-001	-1.833006e-002
58741260.000	9.821952e-001	-1.835843e-002
58747254.000	9.821967e-001	-1.836143e-002
58753248.000	9.822128e-001	-1.837427e-002
58759242.000	9.821986e-001	-1.837490e-002
58765236.000	9.822269e-001	-1.842109e-002
58771230.000	9.822325e-001	-1.845320e-002
58777224.000	9.822496e-001	-1.849043e-002
58783218.000	9.821989e-001	-1.853679e-002
58789212.000	9.822353e-001	-1.851992e-002
58795206.000	9.822371e-001	-1.855727e-002
58801200.000	9.822550e-001	-1.855136e-002
58807194.000	9.822343e-001	-1.857443e-002
58813188.000	9.822504e-001	-1.863494e-002
58819182.000	9.822344e-001	-1.863856e-002
58825176.000	9.822308e-001	-1.865562e-002
58831170.000	9.822217e-001	-1.869899e-002
58837164.000	9.821891e-001	-1.869921e-002
58843158.000	9.822309e-001	-1.871950e-002
58849152.000	9.822560e-001	-1.875318e-002
58855146.000	9.822251e-001	-1.878374e-002
58861140.000	9.822263e-001	-1.876877e-002
58867134.000	9.822694e-001	-1.878595e-002
58873128.000	9.822568e-001	-1.879923e-002
58879122.000	9.822351e-001	-1.888372e-002
58885116.000	9.822644e-001	-1.889710e-002
58891110.000	9.822140e-001	-1.888038e-002
58897104.000	9.822229e-001	-1.893542e-002
58903098.000	9.822397e-001	-1.895736e-002
58909092.000	9.822289e-001	-1.894253e-002
58915086.000	9.822534e-001	-1.896631e-002
58921080.000	9.821973e-001	-1.902798e-002
58927074.000	9.822250e-001	-1.904507e-002
58933068.000	9.822763e-001	-1.905710e-002
58939062.000	9.822577e-001	-1.907576e-002
58945056.000	9.822291e-001	-1.912414e-002
58951050.000	9.823012e-001	-1.911888e-002
58957044.000	9.822459e-001	-1.909718e-002
58963038.000	9.822682e-001	-1.915384e-002
58969032.000	9.822310e-001	-1.917125e-002
58975026.000	9.822805e-001	-1.920396e-002
58981020.000	9.822658e-001	-1.923233e-002
58987014.000	9.822702e-001	-1.924847e-002
58993008.000	9.822883e-001	-1.922433e-002
58999002.000	9.822399e-001	-1.929448e-002
59004996.000	9.822637e-001	-1.928400e-002
59010990.000	9.822646e-001	-1.932431e-002
59016984.000	9.822559e-001	-1.934210e-002
59022978.000	9.823105e-001	-1.936978e-002
59028972.000	9.822613e-001	-1.939981e-002
59034966.000	9.822778e-001	-1.940364e-002
59040960.000	9.822895e-001	-1.943325e-002
59046954.000	9.822619e-001	-1.948031e-002
59052948.000	9.822602e-001	-1.945920e-002
59058942.000	9.822737e-001	-1.949704e-002
59064936.000	9.822722e-001	-1.950529e-002
59070930.000	9.822675e-001	-1.955852e-002
59076924.000	9.822366e-001	-1.954081e-002
59082918.000	9.822816e-001	-1.958672e-002
59088912.000	9.822341e-001	-1.964063e-002
59094906.000	9.822277e-001	-1.961683e-002
59100900.000	9.822715e-001	-1.968603e-002
59106894.000	9.822711e-001	-1.966522e-002
59112888.000	9.822306e-001	-1.968879e-002
59118882.000	9.822011e-001	-1.974090e-002
59124876.000	9.822373e-001	-1.975412e-002
59130870.000	9.822063e-001	-1.977159e-002
59136864.000	9.822636e-001	-1.976627e-002
59142858.000	9.821968e-001	-1.977881e-002
59148852.000	9.822795e-001	-1.982895e-002
59154846.000	9.822167e-001	-1.986740e-002
59160840.000	9.821922e-001	-1.988995e-002
59166834.000	9.821927e-001	-1.992427e-002
59172828.000	9.821979e-001	-1.996846e-002
59178822.000	9.822145e-001	-1.993216e-002
59184816.000	9.821932e-001	-1.995299e-002
59190810.000	9.821940e-001	-1.998306e-002
59196804.000	9.822230e-001	-1.999995e-002
59202798.000	9.822018e-001	-2.001639e-002
59208792.000	9.821983e-001	-2.005039e-002
59214786.000	9.822224e-001	-2.005753e-002
59220780.000	9.822447e-001	-2.009418e-002
59226774.000	9.822387e-001	-2.010843e-002
59232768.000	9.821702e-001	-2.015193e-002
59238762.000	9.822030e-001	-2.015056e-002
59244756.000	9.821932e-001	-2.019495e-002
59250750.000	9.822138e-001	-2.020398e-002
59256744.000	9.822282e-001	-2.023542e-002
59262738.000	9.821867e-001	-2.024468e-002
59268732.000	9.821700e-001	-2.023967e-002
59274726.000	9.821765e-001	-2.030607e-002
59280720.000	9.821949e-001	-2.031246e-002
59286714.000	9.821289e-001	-2.034377e-002
59292708.000	9.821872e-001	-2.035886e-002
59298702.000	9.821582e-001	-2.037340e-002
59304696.000	9.821625e-001	-2.040851e-002
59310690.000	9.821902e-001	-2.044310e-002
59316684.000	9.821914e-001	-2.045611e-002
59322678.000	9.821961e-001	-2.046819e-002
59328672.000	9.822174e-001	-2.048598e-002
59334666.000	9.821893e-001	-2.051921e-002
59340660.000	9.821758e-001	-2.054794e-002
59346654.000	9.821843e-001	-2.054400e-002
59352648.000	9.821499e-001	-2.058735e-002
59358642.000	9.821499e-001	-2.060435e-002
59364636.000	9.821466e-001	-2.063905e-002
59370630.000	9.821903e-001	-2.063246e-002
59376624.000	9.822041e-001	-2.063466e-002
59382618.000	9.821963e-001	-2.069413e-002
59388612.000	9.821746e-001	-2.071409e-002
59394606.000	9.821823e-001	-2.075080e-002
59400600.000	9.822198e-001	-2.074267e-002
59406594.000	9.822228e-001	-2.076571e-002
59412588.000	9.821810e-001	-2.079067e-002
59418582.000	9.821442e-001	-2.083602e-002
59424576.000	9.821718e-001	-2.086936e-002
59430570.000	9.822135e-001	-2.085599e-002
59436564.000	9.821762e-001	-2.090927e-002
59442558.000	9.821904e-001	-2.088859e-002
59448552.000	9.821910e-001	-2.091707e-002
59454546.000	9.821952e-001	-2.095949e-002
59460540.000	9.822189e-001	-2.092416e-002
59466534.000	9.821842e-001	-2.098760e-002
59472528.000	9.821856e-001	-2.102338e-002
59478522.000	9.822058e-001	-2.106778e-002
59484516.000	9.821964e-001	-2.106761e-002
59490510.000	9.822255e-001	-2.106947e-002
59496504.000	9.821666e-001	-2.110976e-002
59502498.000	9.822203e-001	-2.111778e-002
59508492.000	9.822034e-001	-2.112604e-002
59514486.000	9.822167e-001	-2.113142e-002
59520480.000	9.822004e-001	-2.119956e-002
59526474.000	9.821337e-001	-2.123124e-002
59532468.000	9.821394e-001	-2.124841e-002
59538462.000	9.822170e-001	-2.128904e-002
59544456.000	9.821626e-001	-2.126800e-002
59550450.000	9.822178e-001	-2.130558e-002
59556444.000	9.822030e-001	-2.129089e-002
59562438.000	9.822216e-001	-2.135034e-002
59568432.000	9.821698e-001	-2.134352e-002
59574426.000	9.821917e-001	-2.136192e-002
59580420.000	9.822063e-001	-2.139024e-002
59586414.000	9.822030e-001	-2.143960e-002
59592408.000	9.821988e-001	-2.143382e-002
59598402.000	9.821980e-001	-2.147221e-002
59604396.000	9.821999e-001	-2.147660e-002
59610390.000	9.821475e-001	-2.153877e-002
59616384.000	9.822307e-001	-2.152172e-002
59622378.000	9.822073e-001	-2.154846e-002
59628372.000	9.821188e-001	-2.157740e-002
59634366.000	9.822136e-001	-2.160789e-002
59640360.000	9.821838e-001	-2.164105e-002
59646354.000	9.821718e-001	-2.161055e-002
59652348.000	9.821880e-001	-2.163250e-002
59658342.000	9.822103e-001	-2.170139e-002
59664336.000	9.821516e-001	-2.170840e-002
59670330.000	9.821891e-001	-2.172291e-002
59676324.000	9.821391e-001	-2.178022e-002
59682318.000	9.821740e-001	-2.177605e-002
59688312.000	9.821948e-001	-2.180804e-002
59694306.000	9.821864e-001	-2.180956e-002
59700300.000	9.821620e-001	-2.182952e-002
59706294.000	9.822052e-001	-2.188225e-002
59712288.000	9.821509e-001	-2.188115e-002
59718282.000	9.821663e-001	-2.189153e-002
59724276.000	9.821772e-001	-2.192712e-002
59730270.000	9.821894e-001	-2.193889e-002
59736264.000	9.821569e-001	-2.196461e-002
59742258.000	9.821385e-001	-2.200208e-002
59748252.000	9.821695e-001	-2.199986e-002
59754246.000	9.821453e-001	-2.201427e-002
59760240.000	9.821744e-001	-2.204746e-002
59766234.000	9.821158e-001	-2.208797e-002
59772228.000	9.821391e-001	-2.209064e-002
59778222.000	9.821127e-001	-2.214613e-002
59784216.000	9.821535e-001	-2.215711e-002
59790210.000	9.821657e-001	-2.217416e-002
59796204.000	9.821758e-001	-2.218079e-002
59802198.000	9.821612e-001	-2.220371e-002
59808192.000	9.821287e-001	-2.225396e-002
59814186.000	9.821221e-001	-2.222385e-002
59820180.000	9.822052e-001	-2.228049e-002
59826174.000	9.821702e-001	-2.227083e-002
59832168.000	9.821657e-001	-2.229736e-002
59838162.000	9.821551e-001	-2.231515e-002
59844156.000	9.821683e-001	-2.236452e-002
59850150.000	9.821520e-001	-2.237689e-002
59856144.000	9.821084e-001	-2.238923e-002
59862138.000	9.821829e-001	-2.245030e-002
59868132.000	9.821628e-001	-2.243839e-002
59874126.000	9.822022e-001	-2.243094e-002
59880120.000	9.821652e-001	-2.250628e-002
59886114.000	9.821724e-001	-2.250252e-002
59892108.000	9.821704e-001	-2.253166e-002
59898102.000	9.821837e-001	-2.252454e-002
59904096.000	9.821903e-001	-2.259590e-002
59910090.000	9.821454e-001	-2.260715e-002
59916084.000	9.821016e-001	-2.262507e-002
59922078.000	9.821299e-001	-2.265527e-002
59928072.000	9.821460e-001	-2.267708e-002
59934066.000	9.821631e-001	-2.267139e-002
59940060.000	9.821443e-001	-2.270780e-002
59946054.000	9.821587e-001	-2.273532e-002
59952048.000	9.821595e-001	-2.276950e-002
59958042.000	9.821378e-001	-2.275694e-002
59964036.000	9.821346e-001	-2.279749e-002
59970030.000	9.821580e-001	-2.284137e-002
59976024.000	9.820993e-001	-2.283778e-002
59982018.000	9.821310e-001	-2.284927e-002
59988012.000	9.821436e-001	-2.291591e-002
59994006.000	9.821291e-001	-2.292365e-002
60000000.000	9.821046e-001	-2.294426e-002
