!Keysight Technologies,E5063A,MY54100949,A.07.30
!Date: Wed Dec 31 03:27:39 2025
!Data & Calibration Information:
!Freq	S11:SOLT1(ON)
# Hz S RI R 50
60000.000	-9.894655e-001	4.611023e-002
65994.000	-9.901641e-001	5.006932e-002
71988.000	-9.897005e-001	5.422014e-002
77982.000	-9.898699e-001	5.785967e-002
83976.000	-9.892235e-001	6.194041e-002
89970.000	-9.886758e-001	6.590477e-002
95964.000	-9.884641e-001	7.000540e-002
101958.000	-9.879332e-001	7.413319e-002
107952.000	-9.875620e-001	7.807589e-002
113946.000	-9.873256e-001	8.199928e-002
119940.000	-9.867762e-001	8.595691e-002
125934.000	-9.864375e-001	9.020586e-002
131928.000	-9.856342e-001	9.423436e-002
137922.000	-9.852441e-001	9.805909e-002
143916.000	-9.848492e-001	1.022449e-001
149910.000	-9.842713e-001	1.062942e-001
155904.000	-9.841951e-001	1.105826e-001
161898.000	-9.834695e-001	1.143514e-001
167892.000	-9.828948e-001	1.182949e-001
173886.000	-9.823008e-001	1.226729e-001
179880.000	-9.817036e-001	1.265293e-001
185874.000	-9.810664e-001	1.308052e-001
191868.000	-9.804869e-001	1.346539e-001
197862.000	-9.799384e-001	1.389210e-001
203856.000	-9.792229e-001	1.426031e-001
209850.000	-9.789048e-001	1.468703e-001
215844.000	-9.781289e-001	1.508399e-001
221838.000	-9.773683e-001	1.552146e-001
227832.000	-9.768158e-001	1.590222e-001
233826.000	-9.757506e-001	1.628043e-001
239820.000	-9.752812e-001	1.668013e-001
245814.000	-9.743796e-001	1.710672e-001
251808.000	-9.736714e-001	1.748790e-001
257802.000	-9.728989e-001	1.789341e-001
263796.000	-9.721932e-001	1.828685e-001
269790.000	-9.712008e-001	1.868852e-001
275784.000	-9.705688e-001	1.910121e-001
281778.000	-9.695411e-001	1.946264e-001
287772.000	-9.688696e-001	1.987003e-001
293766.000	-9.682199e-001	2.028770e-001
299760.000	-9.671200e-001	2.067734e-001
305754.000	-9.661789e-001	2.106153e-001
311748.000	-9.653648e-001	2.146495e-001
317742.000	-9.643061e-001	2.188157e-001
323736.000	-9.635980e-001	2.227557e-001
329730.000	-9.624867e-001	2.265517e-001
335724.000	-9.615130e-001	2.305990e-001
341718.000	-9.605308e-001	2.342174e-001
347712.000	-9.595266e-001	2.384823e-001
353706.000	-9.584329e-001	2.422731e-001
359700.000	-9.572761e-001	2.464771e-001
365694.000	-9.565312e-001	2.497409e-001
371688.000	-9.553876e-001	2.538002e-001
377682.000	-9.543900e-001	2.578449e-001
383676.000	-9.533311e-001	2.616582e-001
389670.000	-9.522017e-001	2.655445e-001
395664.000	-9.511466e-001	2.694609e-001
401658.000	-9.497382e-001	2.733021e-001
407652.000	-9.487557e-001	2.769065e-001
413646.000	-9.476570e-001	2.809220e-001
419640.000	-9.464492e-001	2.846974e-001
425634.000	-9.451600e-001	2.886564e-001
431628.000	-9.439829e-001	2.927122e-001
437622.000	-9.427913e-001	2.960396e-001
443616.000	-9.414544e-001	3.001411e-001
449610.000	-9.402012e-001	3.037277e-001
455604.000	-9.391125e-001	3.077286e-001
461598.000	-9.378931e-001	3.114562e-001
467592.000	-9.362682e-001	3.153059e-001
473586.000	-9.350872e-001	3.185474e-001
479580.000	-9.340597e-001	3.226406e-001
485574.000	-9.325068e-001	3.265832e-001
491568.000	-9.311573e-001	3.301665e-001
497562.000	-9.298730e-001	3.339348e-001
503556.000	-9.284769e-001	3.376212e-001
509550.000	-9.271269e-001	3.414136e-001
515544.000	-9.257210e-001	3.450069e-001
521538.000	-9.243749e-001	3.489374e-001
527532.000	-9.227244e-001	3.527317e-001
533526.000	-9.212681e-001	3.564285e-001
539520.000	-9.199462e-001	3.600474e-001
545514.000	-9.183608e-001	3.630489e-001
551508.000	-9.169456e-001	3.671454e-001
557502.000	-9.155921e-001	3.707733e-001
563496.000	-9.139077e-001	3.743580e-001
569490.000	-9.124505e-001	3.783992e-001
575484.000	-9.112311e-001	3.817635e-001
581478.000	-9.094632e-001	3.855235e-001
587472.000	-9.077231e-001	3.889417e-001
593466.000	-9.062375e-001	3.925705e-001
599460.000	-9.047955e-001	3.960027e-001
605454.000	-9.028384e-001	3.995466e-001
611448.000	-9.014824e-001	4.033214e-001
617442.000	-8.997529e-001	4.071013e-001
623436.000	-8.980431e-001	4.102469e-001
629430.000	-8.965270e-001	4.139551e-001
635424.000	-8.948516e-001	4.176043e-001
641418.000	-8.930960e-001	4.209343e-001
647412.000	-8.914769e-001	4.241799e-001
653406.000	-8.896788e-001	4.281484e-001
659400.000	-8.880522e-001	4.313185e-001
665394.000	-8.862401e-001	4.348462e-001
671388.000	-8.844568e-001	4.382054e-001
677382.000	-8.829183e-001	4.418702e-001
683376.000	-8.811585e-001	4.453758e-001
689370.000	-8.791280e-001	4.485978e-001
695364.000	-8.776387e-001	4.522902e-001
701358.000	-8.757837e-001	4.555779e-001
707352.000	-8.739208e-001	4.590466e-001
713346.000	-8.719544e-001	4.626313e-001
719340.000	-8.697700e-001	4.659238e-001
725334.000	-8.686508e-001	4.689498e-001
731328.000	-8.665911e-001	4.724529e-001
737322.000	-8.647429e-001	4.757965e-001
743316.000	-8.628605e-001	4.792318e-001
749310.000	-8.609816e-001	4.826560e-001
755304.000	-8.590494e-001	4.858902e-001
761298.000	-8.571191e-001	4.891864e-001
767292.000	-8.551438e-001	4.925367e-001
773286.000	-8.529789e-001	4.961918e-001
779280.000	-8.513588e-001	4.988205e-001
785274.000	-8.495451e-001	5.019654e-001
791268.000	-8.475594e-001	5.053603e-001
797262.000	-8.454957e-001	5.089244e-001
803256.000	-8.436587e-001	5.121534e-001
809250.000	-8.415470e-001	5.150834e-001
815244.000	-8.394085e-001	5.185307e-001
821238.000	-8.374853e-001	5.217159e-001
827232.000	-8.355825e-001	5.250385e-001
833226.000	-8.333227e-001	5.281147e-001
839220.000	-8.314743e-001	5.311128e-001
845214.000	-8.293452e-001	5.342423e-001
851208.000	-8.273696e-001	5.373744e-001
857202.000	-8.251978e-001	5.406536e-001
863196.000	-8.232314e-001	5.437063e-001
869190.000	-8.211424e-001	5.468953e-001
875184.000	-8.184354e-001	5.493723e-001
881178.000	-8.169857e-001	5.531007e-001
887172.000	-8.146745e-001	5.559396e-001
893166.000	-8.126759e-001	5.590141e-001
899160.000	-8.107690e-001	5.624022e-001
905154.000	-8.083453e-001	5.651675e-001
911148.000	-8.059848e-001	5.681651e-001
917142.000	-8.043227e-001	5.711306e-001
923136.000	-8.019316e-001	5.740764e-001
929130.000	-7.998137e-001	5.771926e-001
935124.000	-7.976781e-001	5.801945e-001
941118.000	-7.955139e-001	5.831989e-001
947112.000	-7.932512e-001	5.862173e-001
953106.000	-7.910672e-001	5.892975e-001
959100.000	-7.888342e-001	5.921774e-001
965094.000	-7.864928e-001	5.951586e-001
971088.000	-7.843718e-001	5.976217e-001
977082.000	-7.820704e-001	6.006178e-001
983076.000	-7.798300e-001	6.035661e-001
989070.000	-7.777273e-001	6.065472e-001
995064.000	-7.753613e-001	6.091723e-001
1001058.000	-7.729696e-001	6.122947e-001
1007052.000	-7.707693e-001	6.150618e-001
1013046.000	-7.686471e-001	6.177365e-001
1019040.000	-7.664494e-001	6.206066e-001
1025034.000	-7.639475e-001	6.233626e-001
1031028.000	-7.617289e-001	6.260288e-001
1037022.000	-7.594752e-001	6.290427e-001
1043016.000	-7.568589e-001	6.317032e-001
1049010.000	-7.546998e-001	6.345207e-001
1055004.000	-7.524325e-001	6.373617e-001
1060998.000	-7.501176e-001	6.398779e-001
1066992.000	-7.476342e-001	6.425778e-001
1072986.000	-7.454555e-001	6.455233e-001
1078980.000	-7.429694e-001	6.481108e-001
1084974.000	-7.406610e-001	6.508692e-001
1090968.000	-7.383144e-001	6.533283e-001
1096962.000	-7.359486e-001	6.562998e-001
1102956.000	-7.335752e-001	6.588355e-001
1108950.000	-7.310489e-001	6.615732e-001
1114944.000	-7.286883e-001	6.640362e-001
1120938.000	-7.262620e-001	6.667307e-001
1126932.000	-7.236604e-001	6.691196e-001
1132926.000	-7.216280e-001	6.717437e-001
1138920.000	-7.191664e-001	6.743912e-001
1144914.000	-7.168465e-001	6.771304e-001
1150908.000	-7.141139e-001	6.794707e-001
1156902.000	-7.117859e-001	6.819120e-001
1162896.000	-7.094579e-001	6.845314e-001
1168890.000	-7.070734e-001	6.868854e-001
1174884.000	-7.045637e-001	6.895709e-001
1180878.000	-7.020621e-001	6.919875e-001
1186872.000	-6.996311e-001	6.945537e-001
1192866.000	-6.971267e-001	6.966823e-001
1198860.000	-6.944856e-001	6.989667e-001
1204854.000	-6.922351e-001	7.015915e-001
1210848.000	-6.896877e-001	7.041434e-001
1216842.000	-6.875207e-001	7.067771e-001
1222836.000	-6.846005e-001	7.088800e-001
1228830.000	-6.822654e-001	7.113536e-001
1234824.000	-6.798947e-001	7.139101e-001
1240818.000	-6.774768e-001	7.160865e-001
1246812.000	-6.749440e-001	7.184930e-001
1252806.000	-6.723587e-001	7.208736e-001
1258800.000	-6.698546e-001	7.229925e-001
1264794.000	-6.673082e-001	7.254836e-001
1270788.000	-6.648368e-001	7.279414e-001
1276782.000	-6.620453e-001	7.301456e-001
1282776.000	-6.597898e-001	7.322683e-001
1288770.000	-6.570780e-001	7.347018e-001
1294764.000	-6.545180e-001	7.369148e-001
1300758.000	-6.521607e-001	7.390835e-001
1306752.000	-6.496844e-001	7.413336e-001
1312746.000	-6.468544e-001	7.435133e-001
1318740.000	-6.444579e-001	7.458963e-001
1324734.000	-6.417611e-001	7.480901e-001
1330728.000	-6.393958e-001	7.500791e-001
1336722.000	-6.369092e-001	7.523957e-001
1342716.000	-6.340584e-001	7.542653e-001
1348710.000	-6.314414e-001	7.565163e-001
1354704.000	-6.289515e-001	7.586246e-001
1360698.000	-6.266287e-001	7.608382e-001
1366692.000	-6.238671e-001	7.628174e-001
1372686.000	-6.212881e-001	7.652147e-001
1378680.000	-6.187064e-001	7.672177e-001
1384674.000	-6.161735e-001	7.691907e-001
1390668.000	-6.134029e-001	7.713952e-001
1396662.000	-6.108402e-001	7.732174e-001
1402656.000	-6.085279e-001	7.747857e-001
1408650.000	-6.058487e-001	7.772290e-001
1414644.000	-6.032634e-001	7.793404e-001
1420638.000	-6.005458e-001	7.810509e-001
1426632.000	-5.979730e-001	7.832939e-001
1432626.000	-5.953871e-001	7.853391e-001
1438620.000	-5.928761e-001	7.872279e-001
1444614.000	-5.901493e-001	7.891791e-001
1450608.000	-5.875859e-001	7.910090e-001
1456602.000	-5.848197e-001	7.930809e-001
1462596.000	-5.822529e-001	7.948789e-001
1468590.000	-5.797358e-001	7.970640e-001
1474584.000	-5.769375e-001	7.987130e-001
1480578.000	-5.743261e-001	8.005748e-001
1486572.000	-5.714734e-001	8.023624e-001
1492566.000	-5.694961e-001	8.042060e-001
1498560.000	-5.665377e-001	8.062652e-001
1504554.000	-5.638480e-001	8.081225e-001
1510548.000	-5.614179e-001	8.096494e-001
1516542.000	-5.588311e-001	8.116731e-001
1522536.000	-5.561637e-001	8.136613e-001
1528530.000	-5.534443e-001	8.152681e-001
1534524.000	-5.508198e-001	8.169477e-001
1540518.000	-5.481308e-001	8.186874e-001
1546512.000	-5.456663e-001	8.206095e-001
1552506.000	-5.430648e-001	8.224237e-001
1558500.000	-5.401420e-001	8.240456e-001
1564494.000	-5.377754e-001	8.257577e-001
1570488.000	-5.349842e-001	8.272120e-001
1576482.000	-5.326452e-001	8.293513e-001
1582476.000	-5.296002e-001	8.309087e-001
1588470.000	-5.268555e-001	8.325222e-001
1594464.000	-5.243604e-001	8.343318e-001
1600458.000	-5.218456e-001	8.357494e-001
1606452.000	-5.191593e-001	8.375077e-001
1612446.000	-5.164973e-001	8.391033e-001
1618440.000	-5.138717e-001	8.408020e-001
1624434.000	-5.112862e-001	8.425757e-001
1630428.000	-5.085196e-001	8.439173e-001
1636422.000	-5.059465e-001	8.455741e-001
1642416.000	-5.031638e-001	8.472340e-001
1648410.000	-5.003857e-001	8.486120e-001
1654404.000	-4.978843e-001	8.503112e-001
1660398.000	-4.951440e-001	8.517772e-001
1666392.000	-4.926926e-001	8.534912e-001
1672386.000	-4.901466e-001	8.549648e-001
1678380.000	-4.872956e-001	8.563588e-001
1684374.000	-4.847347e-001	8.578351e-001
1690368.000	-4.820584e-001	8.595369e-001
1696362.000	-4.795608e-001	8.608470e-001
1702356.000	-4.767773e-001	8.623744e-001
1708350.000	-4.741090e-001	8.639370e-001
1714344.000	-4.717330e-001	8.651984e-001
1720338.000	-4.689204e-001	8.666272e-001
1726332.000	-4.663279e-001	8.679612e-001
1732326.000	-4.636108e-001	8.695503e-001
1738320.000	-4.609254e-001	8.709165e-001
1744314.000	-4.582628e-001	8.722562e-001
1750308.000	-4.554164e-001	8.736842e-001
1756302.000	-4.530477e-001	8.748708e-001
1762296.000	-4.504703e-001	8.763508e-001
1768290.000	-4.477665e-001	8.776757e-001
1774284.000	-4.453030e-001	8.788552e-001
1780278.000	-4.424042e-001	8.803036e-001
1786272.000	-4.399453e-001	8.815528e-001
1792266.000	-4.371235e-001	8.830338e-001
1798260.000	-4.345411e-001	8.842850e-001
1804254.000	-4.319885e-001	8.855942e-001
1810248.000	-4.293377e-001	8.867707e-001
1816242.000	-4.267262e-001	8.879822e-001
1822236.000	-4.241177e-001	8.894128e-001
1828230.000	-4.212176e-001	8.907126e-001
1834224.000	-4.188225e-001	8.919589e-001
1840218.000	-4.160672e-001	8.930996e-001
1846212.000	-4.135034e-001	8.944142e-001
1852206.000	-4.108319e-001	8.957178e-001
1858200.000	-4.082080e-001	8.968329e-001
1864194.000	-4.055892e-001	8.979050e-001
1870188.000	-4.030584e-001	8.991654e-001
1876182.000	-4.004633e-001	9.002804e-001
1882176.000	-3.977918e-001	9.014195e-001
1888170.000	-3.951046e-001	9.026866e-001
1894164.000	-3.926685e-001	9.037074e-001
1900158.000	-3.898275e-001	9.049165e-001
1906152.000	-3.874047e-001	9.060680e-001
1912146.000	-3.847543e-001	9.072004e-001
1918140.000	-3.822093e-001	9.083488e-001
1924134.000	-3.795560e-001	9.092639e-001
1930128.000	-3.769359e-001	9.104188e-001
1936122.000	-3.743518e-001	9.115054e-001
1942116.000	-3.717061e-001	9.126501e-001
1948110.000	-3.692600e-001	9.135471e-001
1954104.000	-3.664123e-001	9.147624e-001
1960098.000	-3.639591e-001	9.157484e-001
1966092.000	-3.611097e-001	9.167360e-001
1972086.000	-3.587302e-001	9.177070e-001
1978080.000	-3.561260e-001	9.189166e-001
1984074.000	-3.535430e-001	9.198942e-001
1990068.000	-3.510174e-001	9.208373e-001
1996062.000	-3.483923e-001	9.218597e-001
2002056.000	-3.459118e-001	9.227224e-001
2008050.000	-3.432431e-001	9.236212e-001
2014044.000	-3.407869e-001	9.245176e-001
2020038.000	-3.380204e-001	9.256838e-001
2026032.000	-3.353907e-001	9.266184e-001
2032026.000	-3.330172e-001	9.274369e-001
2038020.000	-3.303381e-001	9.284431e-001
2044014.000	-3.279378e-001	9.292779e-001
2050008.000	-3.254038e-001	9.300600e-001
2056002.000	-3.225981e-001	9.311502e-001
2061996.000	-3.202634e-001	9.318085e-001
2067990.000	-3.176408e-001	9.326134e-001
2073984.000	-3.152115e-001	9.336171e-001
2079978.000	-3.125857e-001	9.346813e-001
2085972.000	-3.101656e-001	9.353673e-001
2091966.000	-3.074511e-001	9.363294e-001
2097960.000	-3.049899e-001	9.370161e-001
2103954.000	-3.024249e-001	9.378901e-001
2109948.000	-2.998732e-001	9.388132e-001
2115942.000	-2.973006e-001	9.396326e-001
2121936.000	-2.947783e-001	9.403087e-001
2127930.000	-2.923530e-001	9.410433e-001
2133924.000	-2.895264e-001	9.419949e-001
2139918.000	-2.871424e-001	9.427407e-001
2145912.000	-2.846471e-001	9.435982e-001
2151906.000	-2.823331e-001	9.441790e-001
2157900.000	-2.794463e-001	9.448958e-001
2163894.000	-2.771561e-001	9.457519e-001
2169888.000	-2.748223e-001	9.464897e-001
2175882.000	-2.720494e-001	9.471381e-001
2181876.000	-2.695516e-001	9.479675e-001
2187870.000	-2.671150e-001	9.485624e-001
2193864.000	-2.647495e-001	9.493983e-001
2199858.000	-2.621732e-001	9.500930e-001
2205852.000	-2.595810e-001	9.507199e-001
2211846.000	-2.569559e-001	9.513838e-001
2217840.000	-2.546085e-001	9.519178e-001
2223834.000	-2.523075e-001	9.528920e-001
2229828.000	-2.497442e-001	9.534569e-001
2235822.000	-2.472045e-001	9.541833e-001
2241816.000	-2.447356e-001	9.548994e-001
2247810.000	-2.422043e-001	9.555520e-001
2253804.000	-2.398577e-001	9.562287e-001
2259798.000	-2.372840e-001	9.564853e-001
2265792.000	-2.347644e-001	9.572362e-001
2271786.000	-2.323596e-001	9.578514e-001
2277780.000	-2.298909e-001	9.584221e-001
2283774.000	-2.272276e-001	9.589671e-001
2289768.000	-2.250711e-001	9.596252e-001
2295762.000	-2.225724e-001	9.600010e-001
2301756.000	-2.202456e-001	9.607278e-001
2307750.000	-2.178443e-001	9.612293e-001
2313744.000	-2.154695e-001	9.617753e-001
2319738.000	-2.129330e-001	9.623849e-001
2325732.000	-2.103005e-001	9.629268e-001
2331726.000	-2.080491e-001	9.631234e-001
2337720.000	-2.058305e-001	9.635425e-001
2343714.000	-2.034343e-001	9.644303e-001
2349708.000	-2.009637e-001	9.651481e-001
2355702.000	-1.985868e-001	9.655693e-001
2361696.000	-1.959752e-001	9.661746e-001
2367690.000	-1.937696e-001	9.666326e-001
2373684.000	-1.915310e-001	9.670806e-001
2379678.000	-1.888554e-001	9.676318e-001
2385672.000	-1.864450e-001	9.680564e-001
2391666.000	-1.841552e-001	9.684235e-001
2397660.000	-1.816151e-001	9.690623e-001
2403654.000	-1.793573e-001	9.694894e-001
2409648.000	-1.769073e-001	9.699973e-001
2415642.000	-1.748090e-001	9.702388e-001
2421636.000	-1.722259e-001	9.706466e-001
2427630.000	-1.698448e-001	9.711755e-001
2433624.000	-1.675833e-001	9.716716e-001
2439618.000	-1.652982e-001	9.720554e-001
2445612.000	-1.628610e-001	9.723902e-001
2451606.000	-1.604498e-001	9.728303e-001
2457600.000	-1.581901e-001	9.732530e-001
2463594.000	-1.558786e-001	9.736671e-001
2469588.000	-1.535607e-001	9.740062e-001
2475582.000	-1.512490e-001	9.742308e-001
2481576.000	-1.489293e-001	9.747337e-001
2487570.000	-1.465731e-001	9.750476e-001
2493564.000	-1.442800e-001	9.753991e-001
2499558.000	-1.418754e-001	9.757712e-001
2505552.000	-1.394578e-001	9.760611e-001
2511546.000	-1.371090e-001	9.764178e-001
2517540.000	-1.349378e-001	9.767618e-001
2523534.000	-1.326981e-001	9.772235e-001
2529528.000	-1.305069e-001	9.773340e-001
2535522.000	-1.281671e-001	9.777620e-001
2541516.000	-1.259020e-001	9.779490e-001
2547510.000	-1.235081e-001	9.784304e-001
2553504.000	-1.212346e-001	9.786571e-001
2559498.000	-1.188054e-001	9.788825e-001
2565492.000	-1.169141e-001	9.792188e-001
2571486.000	-1.144961e-001	9.795194e-001
2577480.000	-1.120873e-001	9.798500e-001
2583474.000	-1.099264e-001	9.801217e-001
2589468.000	-1.076480e-001	9.804031e-001
2595462.000	-1.054020e-001	9.803215e-001
2601456.000	-1.029421e-001	9.807592e-001
2607450.000	-1.008164e-001	9.810422e-001
2613444.000	-9.884775e-002	9.813251e-001
2619438.000	-9.628181e-002	9.813309e-001
2625432.000	-9.413474e-002	9.816085e-001
2631426.000	-9.202136e-002	9.818295e-001
2637420.000	-8.985828e-002	9.820774e-001
2643414.000	-8.753738e-002	9.824080e-001
2649408.000	-8.543317e-002	9.825305e-001
2655402.000	-8.329128e-002	9.828642e-001
2661396.000	-8.097290e-002	9.830954e-001
2667390.000	-7.866063e-002	9.832093e-001
2673384.000	-7.650871e-002	9.834139e-001
2679378.000	-7.438525e-002	9.835669e-001
2685372.000	-7.217131e-002	9.838938e-001
2691366.000	-7.003117e-002	9.839450e-001
2697360.000	-6.780473e-002	9.841451e-001
2703354.000	-6.577015e-002	9.842680e-001
2709348.000	-6.343302e-002	9.844466e-001
2715342.000	-6.143730e-002	9.844599e-001
2721336.000	-5.906839e-002	9.847034e-001
2727330.000	-5.692067e-002	9.848888e-001
2733324.000	-5.487410e-002	9.850474e-001
2739318.000	-5.250244e-002	9.852356e-001
2745312.000	-5.039424e-002	9.852034e-001
2751306.000	-4.830650e-002	9.853168e-001
2757300.000	-4.601698e-002	9.854765e-001
2763294.000	-4.382937e-002	9.855348e-001
2769288.000	-4.174511e-002	9.857506e-001
2775282.000	-3.989564e-002	9.858068e-001
2781276.000	-3.769564e-002	9.860319e-001
2787270.000	-3.559383e-002	9.861514e-001
2793264.000	-3.326674e-002	9.862011e-001
2799258.000	-3.131568e-002	9.860782e-001
2805252.000	-2.900618e-002	9.863168e-001
2811246.000	-2.693742e-002	9.862139e-001
2817240.000	-2.479114e-002	9.864837e-001
2823234.000	-2.272312e-002	9.864571e-001
2829228.000	-2.067496e-002	9.863104e-001
2835222.000	-1.873138e-002	9.863996e-001
2841216.000	-1.659449e-002	9.865150e-001
2847210.000	-1.457704e-002	9.865373e-001
2853204.000	-1.245699e-002	9.866237e-001
2859198.000	-1.045420e-002	9.866119e-001
2865192.000	-8.344550e-003	9.866904e-001
2871186.000	-6.219813e-003	9.866224e-001
2877180.000	-4.219941e-003	9.866795e-001
2883174.000	-1.929931e-003	9.862878e-001
2889168.000	-2.802976e-004	9.866683e-001
2895162.000	2.007794e-003	9.868027e-001
2901156.000	4.094709e-003	9.867394e-001
2907150.000	6.123832e-003	9.867800e-001
2913144.000	8.082475e-003	9.868107e-001
2919138.000	9.969639e-003	9.866527e-001
2925132.000	1.209582e-002	9.867432e-001
2931126.000	1.413434e-002	9.867622e-001
2937120.000	1.620834e-002	9.866849e-001
2943114.000	1.819803e-002	9.867360e-001
2949108.000	2.008066e-002	9.866749e-001
2955102.000	2.205025e-002	9.864744e-001
2961096.000	2.400943e-002	9.865371e-001
2967090.000	2.604761e-002	9.864959e-001
2973084.000	2.831661e-002	9.865605e-001
2979078.000	2.997755e-002	9.864851e-001
2985072.000	3.213072e-002	9.865852e-001
2991066.000	3.412004e-002	9.864422e-001
2997060.000	3.606484e-002	9.862825e-001
3003054.000	3.798769e-002	9.864798e-001
3009048.000	3.998483e-002	9.862658e-001
3015042.000	4.189176e-002	9.863305e-001
3021036.000	4.401225e-002	9.860970e-001
3027030.000	4.590482e-002	9.860753e-001
3033024.000	4.790949e-002	9.859317e-001
3039018.000	4.987115e-002	9.859248e-001
3045012.000	5.178249e-002	9.858906e-001
3051006.000	5.367894e-002	9.858139e-001
3057000.000	5.569926e-002	9.856521e-001
3062994.000	5.761573e-002	9.857128e-001
3068988.000	5.949247e-002	9.854583e-001
3074982.000	6.135260e-002	9.852923e-001
3080976.000	6.344218e-002	9.851467e-001
3086970.000	6.530011e-002	9.852034e-001
3092964.000	6.714638e-002	9.849523e-001
3098958.000	6.915777e-002	9.848984e-001
3104952.000	7.095990e-002	9.847796e-001
3110946.000	7.296645e-002	9.847345e-001
3116940.000	7.486408e-002	9.843888e-001
3122934.000	7.661489e-002	9.842984e-001
3128928.000	7.853120e-002	9.841315e-001
3134922.000	8.038179e-002	9.838295e-001
3140916.000	8.233419e-002	9.839575e-001
3146910.000	8.428034e-002	9.838601e-001
3152904.000	8.594705e-002	9.836741e-001
3158898.000	8.800595e-002	9.835264e-001
3164892.000	8.968753e-002	9.831892e-001
3170886.000	9.158534e-002	9.831687e-001
3176880.000	9.364246e-002	9.830196e-001
3182874.000	9.540599e-002	9.828824e-001
3188868.000	9.739770e-002	9.825767e-001
3194862.000	9.916793e-002	9.826708e-001
3200856.000	1.008282e-001	9.824318e-001
3206850.000	1.027679e-001	9.822029e-001
3212844.000	1.044237e-001	9.818625e-001
3218838.000	1.062780e-001	9.817520e-001
3224832.000	1.084100e-001	9.816274e-001
3230826.000	1.100420e-001	9.814035e-001
3236820.000	1.120135e-001	9.812526e-001
3242814.000	1.136807e-001	9.811198e-001
3248808.000	1.155501e-001	9.808220e-001
3254802.000	1.174457e-001	9.805622e-001
3260796.000	1.190700e-001	9.804497e-001
3266790.000	1.209536e-001	9.802431e-001
3272784.000	1.226737e-001	9.800475e-001
3278778.000	1.243785e-001	9.797897e-001
3284772.000	1.262473e-001	9.796148e-001
3290766.000	1.280874e-001	9.792551e-001
3296760.000	1.298427e-001	9.790353e-001
3302754.000	1.314859e-001	9.788700e-001
3308748.000	1.332959e-001	9.787845e-001
3314742.000	1.348749e-001	9.784551e-001
3320736.000	1.366804e-001	9.782201e-001
3326730.000	1.385548e-001	9.780085e-001
3332724.000	1.402574e-001	9.778301e-001
3338718.000	1.421570e-001	9.774991e-001
3344712.000	1.438821e-001	9.772227e-001
3350706.000	1.455340e-001	9.770101e-001
3356700.000	1.472360e-001	9.768575e-001
3362694.000	1.489819e-001	9.765624e-001
3368688.000	1.507827e-001	9.761953e-001
3374682.000	1.523674e-001	9.760534e-001
3380676.000	1.544481e-001	9.757855e-001
3386670.000	1.561118e-001	9.753119e-001
3392664.000	1.577192e-001	9.750915e-001
3398658.000	1.592285e-001	9.749383e-001
3404652.000	1.607791e-001	9.746141e-001
3410646.000	1.626356e-001	9.744586e-001
3416640.000	1.643733e-001	9.742402e-001
3422634.000	1.658584e-001	9.739507e-001
3428628.000	1.677670e-001	9.735977e-001
3434622.000	1.693828e-001	9.734164e-001
3440616.000	1.712226e-001	9.729815e-001
3446610.000	1.728877e-001	9.727773e-001
3452604.000	1.743316e-001	9.726320e-001
3458598.000	1.760499e-001	9.722610e-001
3464592.000	1.776871e-001	9.719189e-001
3470586.000	1.795748e-001	9.715003e-001
3476580.000	1.809845e-001	9.711191e-001
3482574.000	1.827134e-001	9.709532e-001
3488568.000	1.842200e-001	9.708121e-001
3494562.000	1.860882e-001	9.703193e-001
3500556.000	1.876380e-001	9.701771e-001
3506550.000	1.893287e-001	9.698829e-001
3512544.000	1.910039e-001	9.693693e-001
3518538.000	1.926952e-001	9.692430e-001
3524532.000	1.942558e-001	9.689756e-001
3530526.000	1.957919e-001	9.686009e-001
3536520.000	1.975880e-001	9.683732e-001
3542514.000	1.990741e-001	9.679027e-001
3548508.000	2.007728e-001	9.676328e-001
3554502.000	2.023128e-001	9.671486e-001
3560496.000	2.038658e-001	9.670314e-001
3566490.000	2.055792e-001	9.667153e-001
3572484.000	2.070490e-001	9.663496e-001
3578478.000	2.087490e-001	9.659037e-001
3584472.000	2.102865e-001	9.656287e-001
3590466.000	2.118490e-001	9.654344e-001
3596460.000	2.133373e-001	9.649919e-001
3602454.000	2.148925e-001	9.647517e-001
3608448.000	2.163855e-001	9.642207e-001
3614442.000	2.182699e-001	9.640985e-001
3620436.000	2.198663e-001	9.635653e-001
3626430.000	2.213111e-001	9.634411e-001
3632424.000	2.229264e-001	9.630456e-001
3638418.000	2.243937e-001	9.624659e-001
3644412.000	2.259964e-001	9.623469e-001
3650406.000	2.276318e-001	9.619113e-001
3656400.000	2.292367e-001	9.614572e-001
3662394.000	2.307154e-001	9.611687e-001
3668388.000	2.323318e-001	9.607378e-001
3674382.000	2.337514e-001	9.604400e-001
3680376.000	2.354260e-001	9.601801e-001
3686370.000	2.369137e-001	9.598793e-001
3692364.000	2.385539e-001	9.593985e-001
3698358.000	2.400017e-001	9.591206e-001
3704352.000	2.413642e-001	9.585967e-001
3710346.000	2.430207e-001	9.582548e-001
3716340.000	2.444857e-001	9.578679e-001
3722334.000	2.457433e-001	9.575940e-001
3728328.000	2.474061e-001	9.571395e-001
3734322.000	2.488795e-001	9.569969e-001
3740316.000	2.503983e-001	9.566083e-001
3746310.000	2.518129e-001	9.562212e-001
3752304.000	2.534253e-001	9.557076e-001
3758298.000	2.549445e-001	9.553209e-001
3764292.000	2.561989e-001	9.547800e-001
3770286.000	2.578925e-001	9.545671e-001
3776280.000	2.592913e-001	9.543059e-001
3782274.000	2.608241e-001	9.536254e-001
3788268.000	2.624122e-001	9.533869e-001
3794262.000	2.638800e-001	9.529320e-001
3800256.000	2.650458e-001	9.526254e-001
3806250.000	2.667319e-001	9.521868e-001
3812244.000	2.683242e-001	9.517827e-001
3818238.000	2.695874e-001	9.514373e-001
3824232.000	2.710927e-001	9.508826e-001
3830226.000	2.725489e-001	9.506088e-001
3836220.000	2.739411e-001	9.501715e-001
3842214.000	2.752777e-001	9.497611e-001
3848208.000	2.767883e-001	9.493930e-001
3854202.000	2.779819e-001	9.490431e-001
3860196.000	2.795730e-001	9.485743e-001
3866190.000	2.809905e-001	9.480812e-001
3872184.000	2.824045e-001	9.477018e-001
3878178.000	2.838389e-001	9.471979e-001
3884172.000	2.853489e-001	9.469599e-001
3890166.000	2.866660e-001	9.463257e-001
3896160.000	2.880223e-001	9.459881e-001
3902154.000	2.894673e-001	9.456159e-001
3908148.000	2.907383e-001	9.451533e-001
3914142.000	2.922355e-001	9.447496e-001
3920136.000	2.936863e-001	9.443618e-001
3926130.000	2.948661e-001	9.438139e-001
3932124.000	2.964698e-001	9.434474e-001
3938118.000	2.978720e-001	9.430916e-001
3944112.000	2.991294e-001	9.426723e-001
3950106.000	3.005514e-001	9.423179e-001
3956100.000	3.019136e-001	9.418697e-001
3962094.000	3.033278e-001	9.414206e-001
3968088.000	3.046200e-001	9.409540e-001
3974082.000	3.059791e-001	9.406671e-001
3980076.000	3.072709e-001	9.400812e-001
3986070.000	3.086667e-001	9.398411e-001
3992064.000	3.101423e-001	9.394083e-001
3998058.000	3.112743e-001	9.389056e-001
4004052.000	3.127743e-001	9.384649e-001
4010046.000	3.142214e-001	9.380820e-001
4016040.000	3.156431e-001	9.374736e-001
4022034.000	3.166932e-001	9.370492e-001
4028028.000	3.180409e-001	9.367153e-001
4034022.000	3.195936e-001	9.361478e-001
4040016.000	3.209047e-001	9.357348e-001
4046010.000	3.222508e-001	9.352750e-001
4052004.000	3.235809e-001	9.347767e-001
4057998.000	3.249479e-001	9.345127e-001
4063992.000	3.260861e-001	9.339038e-001
4069986.000	3.274224e-001	9.336055e-001
4075980.000	3.287191e-001	9.331482e-001
4081974.000	3.300436e-001	9.326818e-001
4087968.000	3.314491e-001	9.321926e-001
4093962.000	3.326494e-001	9.317242e-001
4099956.000	3.340080e-001	9.311990e-001
4105950.000	3.352596e-001	9.309119e-001
4111944.000	3.366601e-001	9.304565e-001
4117938.000	3.379100e-001	9.300180e-001
4123932.000	3.392196e-001	9.295578e-001
4129926.000	3.404846e-001	9.290971e-001
4135920.000	3.417580e-001	9.285309e-001
4141914.000	3.429861e-001	9.281134e-001
4147908.000	3.442449e-001	9.278065e-001
4153902.000	3.454671e-001	9.272426e-001
4159896.000	3.468457e-001	9.266927e-001
4165890.000	3.481572e-001	9.262706e-001
4171884.000	3.494221e-001	9.258611e-001
4177878.000	3.504437e-001	9.253262e-001
4183872.000	3.517138e-001	9.248934e-001
4189866.000	3.532832e-001	9.245961e-001
4195860.000	3.543757e-001	9.239241e-001
4201854.000	3.554037e-001	9.235085e-001
4207848.000	3.569307e-001	9.229934e-001
4213842.000	3.579821e-001	9.226091e-001
4219836.000	3.592572e-001	9.220464e-001
4225830.000	3.604652e-001	9.216037e-001
4231824.000	3.618589e-001	9.211026e-001
4237818.000	3.628739e-001	9.208175e-001
4243812.000	3.640714e-001	9.204075e-001
4249806.000	3.654476e-001	9.197129e-001
4255800.000	3.666703e-001	9.192336e-001
4261794.000	3.680025e-001	9.186069e-001
4267788.000	3.692898e-001	9.183319e-001
4273782.000	3.703391e-001	9.176039e-001
4279776.000	3.717518e-001	9.173204e-001
4285770.000	3.727130e-001	9.167899e-001
4291764.000	3.740265e-001	9.163544e-001
4297758.000	3.752937e-001	9.158685e-001
4303752.000	3.764505e-001	9.153520e-001
4309746.000	3.774907e-001	9.149659e-001
4315740.000	3.786529e-001	9.143016e-001
4321734.000	3.799925e-001	9.139626e-001
4327728.000	3.812765e-001	9.134462e-001
4333722.000	3.822520e-001	9.129726e-001
4339716.000	3.835220e-001	9.126033e-001
4345710.000	3.848344e-001	9.120962e-001
4351704.000	3.858150e-001	9.115768e-001
4357698.000	3.869982e-001	9.111842e-001
4363692.000	3.880933e-001	9.105596e-001
4369686.000	3.893726e-001	9.099625e-001
4375680.000	3.906003e-001	9.096073e-001
4381674.000	3.917576e-001	9.092002e-001
4387668.000	3.929039e-001	9.086156e-001
4393662.000	3.939883e-001	9.082439e-001
4399656.000	3.951597e-001	9.078068e-001
4405650.000	3.964097e-001	9.072417e-001
4411644.000	3.973643e-001	9.068683e-001
4417638.000	3.986049e-001	9.063205e-001
4423632.000	3.998916e-001	9.056210e-001
4429626.000	4.008835e-001	9.052765e-001
4435620.000	4.021053e-001	9.045472e-001
4441614.000	4.031421e-001	9.042258e-001
4447608.000	4.043435e-001	9.038160e-001
4453602.000	4.051837e-001	9.031692e-001
4459596.000	4.064963e-001	9.027150e-001
4465590.000	4.075683e-001	9.023002e-001
4471584.000	4.087269e-001	9.019115e-001
4477578.000	4.099538e-001	9.012607e-001
4483572.000	4.109362e-001	9.007302e-001
4489566.000	4.120987e-001	9.003892e-001
4495560.000	4.131431e-001	8.999086e-001
4501554.000	4.143205e-001	8.991094e-001
4507548.000	4.155340e-001	8.988864e-001
4513542.000	4.164433e-001	8.982809e-001
4519536.000	4.176873e-001	8.978374e-001
4525530.000	4.186706e-001	8.972304e-001
4531524.000	4.197497e-001	8.966914e-001
4537518.000	4.209222e-001	8.962818e-001
4543512.000	4.220372e-001	8.958910e-001
4549506.000	4.229460e-001	8.953250e-001
4555500.000	4.240751e-001	8.947996e-001
4561494.000	4.251818e-001	8.942819e-001
4567488.000	4.262707e-001	8.939644e-001
4573482.000	4.275121e-001	8.932215e-001
4579476.000	4.283616e-001	8.928285e-001
4585470.000	4.295841e-001	8.922579e-001
4591464.000	4.304865e-001	8.918335e-001
4597458.000	4.317739e-001	8.913580e-001
4603452.000	4.327033e-001	8.908337e-001
4609446.000	4.337067e-001	8.902560e-001
4615440.000	4.348086e-001	8.896551e-001
4621434.000	4.359453e-001	8.892845e-001
4627428.000	4.369287e-001	8.887987e-001
4633422.000	4.380741e-001	8.881268e-001
4639416.000	4.389665e-001	8.878912e-001
4645410.000	4.400770e-001	8.872982e-001
4651404.000	4.413775e-001	8.867653e-001
4657398.000	4.423835e-001	8.861799e-001
4663392.000	4.433287e-001	8.857267e-001
4669386.000	4.444219e-001	8.851745e-001
4675380.000	4.452317e-001	8.846015e-001
4681374.000	4.462591e-001	8.841787e-001
4687368.000	4.474923e-001	8.836838e-001
4693362.000	4.485386e-001	8.832186e-001
4699356.000	4.494850e-001	8.826613e-001
4705350.000	4.504524e-001	8.821671e-001
4711344.000	4.513840e-001	8.816142e-001
4717338.000	4.524525e-001	8.809972e-001
4723332.000	4.533738e-001	8.805522e-001
4729326.000	4.545332e-001	8.800703e-001
4735320.000	4.554579e-001	8.796053e-001
4741314.000	4.564319e-001	8.790583e-001
4747308.000	4.574676e-001	8.786067e-001
4753302.000	4.585812e-001	8.780603e-001
4759296.000	4.596519e-001	8.776306e-001
4765290.000	4.603288e-001	8.770773e-001
4771284.000	4.615852e-001	8.765493e-001
4777278.000	4.625469e-001	8.759618e-001
4783272.000	4.634256e-001	8.756448e-001
4789266.000	4.644886e-001	8.750842e-001
4795260.000	4.654516e-001	8.744950e-001
4801254.000	4.663526e-001	8.739895e-001
4807248.000	4.673825e-001	8.734595e-001
4813242.000	4.684229e-001	8.728913e-001
4819236.000	4.693455e-001	8.725932e-001
4825230.000	4.701676e-001	8.719863e-001
4831224.000	4.712505e-001	8.715608e-001
4837218.000	4.723180e-001	8.710704e-001
4843212.000	4.732647e-001	8.704730e-001
4849206.000	4.741414e-001	8.699060e-001
4855200.000	4.749524e-001	8.692833e-001
4861194.000	4.760854e-001	8.690393e-001
4867188.000	4.770227e-001	8.684580e-001
4873182.000	4.781128e-001	8.679590e-001
4879176.000	4.789997e-001	8.674238e-001
4885170.000	4.797945e-001	8.668502e-001
4891164.000	4.808377e-001	8.662627e-001
4897158.000	4.818388e-001	8.658694e-001
4903152.000	4.827389e-001	8.653465e-001
4909146.000	4.837477e-001	8.647379e-001
4915140.000	4.845910e-001	8.642349e-001
4921134.000	4.856709e-001	8.637340e-001
4927128.000	4.865667e-001	8.632764e-001
4933122.000	4.873771e-001	8.626168e-001
4939116.000	4.884188e-001	8.621338e-001
4945110.000	4.892885e-001	8.616433e-001
4951104.000	4.901468e-001	8.610610e-001
4957098.000	4.910051e-001	8.606994e-001
4963092.000	4.920805e-001	8.602359e-001
4969086.000	4.930134e-001	8.597672e-001
4975080.000	4.941492e-001	8.590357e-001
4981074.000	4.945386e-001	8.586626e-001
4987068.000	4.956553e-001	8.580429e-001
4993062.000	4.965765e-001	8.578434e-001
4999056.000	4.975186e-001	8.571139e-001
5005050.000	4.985153e-001	8.566201e-001
5011044.000	4.992450e-001	8.560390e-001
5017038.000	5.002737e-001	8.554383e-001
5023032.000	5.014293e-001	8.549848e-001
5029026.000	5.021462e-001	8.543916e-001
5035020.000	5.027593e-001	8.538169e-001
5041014.000	5.039624e-001	8.533924e-001
5047008.000	5.049167e-001	8.528867e-001
5053002.000	5.057239e-001	8.522838e-001
5058996.000	5.066132e-001	8.517486e-001
5064990.000	5.075086e-001	8.513942e-001
5070984.000	5.082750e-001	8.507787e-001
5076978.000	5.092023e-001	8.503838e-001
5082972.000	5.100997e-001	8.497943e-001
5088966.000	5.109951e-001	8.492426e-001
5094960.000	5.118001e-001	8.488391e-001
5100954.000	5.126934e-001	8.482100e-001
5106948.000	5.135401e-001	8.477753e-001
5112942.000	5.144768e-001	8.471681e-001
5118936.000	5.153763e-001	8.468163e-001
5124930.000	5.162354e-001	8.462543e-001
5130924.000	5.169603e-001	8.458049e-001
5136918.000	5.177741e-001	8.451917e-001
5142912.000	5.185300e-001	8.447434e-001
5148906.000	5.195046e-001	8.442408e-001
5154900.000	5.203317e-001	8.437755e-001
5160894.000	5.212124e-001	8.431237e-001
5166888.000	5.221090e-001	8.426062e-001
5172882.000	5.228832e-001	8.421769e-001
5178876.000	5.237799e-001	8.417222e-001
5184870.000	5.246200e-001	8.411453e-001
5190864.000	5.254804e-001	8.405391e-001
5196858.000	5.262927e-001	8.400240e-001
5202852.000	5.271026e-001	8.395865e-001
5208846.000	5.279615e-001	8.390318e-001
5214840.000	5.289569e-001	8.385449e-001
5220834.000	5.298107e-001	8.378907e-001
5226828.000	5.304977e-001	8.374983e-001
5232822.000	5.314089e-001	8.369069e-001
5238816.000	5.320923e-001	8.365076e-001
5244810.000	5.330430e-001	8.359825e-001
5250804.000	5.338279e-001	8.353140e-001
5256798.000	5.347817e-001	8.349424e-001
5262792.000	5.355626e-001	8.344132e-001
5268786.000	5.362423e-001	8.338541e-001
5274780.000	5.371317e-001	8.333352e-001
5280774.000	5.380744e-001	8.328214e-001
5286768.000	5.389105e-001	8.323110e-001
5292762.000	5.396145e-001	8.317149e-001
5298756.000	5.401822e-001	8.313527e-001
5304750.000	5.411391e-001	8.307289e-001
5310744.000	5.419820e-001	8.301846e-001
5316738.000	5.427205e-001	8.296985e-001
5322732.000	5.436456e-001	8.292474e-001
5328726.000	5.442220e-001	8.287631e-001
5334720.000	5.452459e-001	8.281713e-001
5340714.000	5.458456e-001	8.275730e-001
5346708.000	5.468471e-001	8.271261e-001
5352702.000	5.474685e-001	8.264943e-001
5358696.000	5.482971e-001	8.261084e-001
5364690.000	5.490883e-001	8.256933e-001
5370684.000	5.500103e-001	8.250875e-001
5376678.000	5.508101e-001	8.245573e-001
5382672.000	5.515799e-001	8.240553e-001
5388666.000	5.522501e-001	8.236034e-001
5394660.000	5.530522e-001	8.229835e-001
5400654.000	5.538387e-001	8.225526e-001
5406648.000	5.546261e-001	8.219777e-001
5412642.000	5.554682e-001	8.214180e-001
5418636.000	5.561492e-001	8.211924e-001
5424630.000	5.568729e-001	8.205954e-001
5430624.000	5.576551e-001	8.200745e-001
5436618.000	5.584540e-001	8.194735e-001
5442612.000	5.592759e-001	8.190074e-001
5448606.000	5.601333e-001	8.183329e-001
5454600.000	5.608348e-001	8.178956e-001
5460594.000	5.616620e-001	8.175039e-001
5466588.000	5.622818e-001	8.169526e-001
5472582.000	5.629348e-001	8.163539e-001
5478576.000	5.637752e-001	8.159127e-001
5484570.000	5.644382e-001	8.153231e-001
5490564.000	5.653478e-001	8.147582e-001
5496558.000	5.660669e-001	8.143396e-001
5502552.000	5.668110e-001	8.139036e-001
5508546.000	5.674433e-001	8.133904e-001
5514540.000	5.682391e-001	8.128030e-001
5520534.000	5.690961e-001	8.123695e-001
5526528.000	5.697635e-001	8.118620e-001
5532522.000	5.705102e-001	8.113723e-001
5538516.000	5.712941e-001	8.107951e-001
5544510.000	5.720633e-001	8.103472e-001
5550504.000	5.726954e-001	8.097058e-001
5556498.000	5.734833e-001	8.092303e-001
5562492.000	5.743617e-001	8.088181e-001
5568486.000	5.748875e-001	8.082117e-001
5574480.000	5.757360e-001	8.076593e-001
5580474.000	5.763815e-001	8.072784e-001
5586468.000	5.770291e-001	8.067245e-001
5592462.000	5.779566e-001	8.062367e-001
5598456.000	5.784222e-001	8.056474e-001
5604450.000	5.792677e-001	8.051308e-001
5610444.000	5.800010e-001	8.047433e-001
5616438.000	5.806298e-001	8.042647e-001
5622432.000	5.813604e-001	8.036596e-001
5628426.000	5.821071e-001	8.032431e-001
5634420.000	5.828423e-001	8.026438e-001
5640414.000	5.834610e-001	8.020443e-001
5646408.000	5.842150e-001	8.016390e-001
5652402.000	5.849942e-001	8.011851e-001
5658396.000	5.857508e-001	8.007244e-001
5664390.000	5.861881e-001	8.001442e-001
5670384.000	5.871438e-001	7.996357e-001
5676378.000	5.877370e-001	7.990666e-001
5682372.000	5.886869e-001	7.986069e-001
5688366.000	5.891901e-001	7.981286e-001
5694360.000	5.899642e-001	7.974520e-001
5700354.000	5.905263e-001	7.971040e-001
5706348.000	5.913080e-001	7.966635e-001
5712342.000	5.920154e-001	7.961503e-001
5718336.000	5.926394e-001	7.956426e-001
5724330.000	5.932412e-001	7.950353e-001
5730324.000	5.940389e-001	7.945654e-001
5736318.000	5.949263e-001	7.939843e-001
5742312.000	5.954354e-001	7.936466e-001
5748306.000	5.960046e-001	7.931066e-001
5754300.000	5.966345e-001	7.927107e-001
5760294.000	5.975224e-001	7.922781e-001
5766288.000	5.981817e-001	7.917544e-001
5772282.000	5.987826e-001	7.910944e-001
5778276.000	5.995310e-001	7.907220e-001
5784270.000	6.000896e-001	7.900653e-001
5790264.000	6.008359e-001	7.897160e-001
5796258.000	6.015526e-001	7.891681e-001
5802252.000	6.022544e-001	7.885366e-001
5808246.000	6.027069e-001	7.880867e-001
5814240.000	6.035440e-001	7.875475e-001
5820234.000	6.040669e-001	7.871241e-001
5826228.000	6.049119e-001	7.866230e-001
5832222.000	6.055036e-001	7.861736e-001
5838216.000	6.061570e-001	7.855693e-001
5844210.000	6.068583e-001	7.849903e-001
5850204.000	6.074032e-001	7.846041e-001
5856198.000	6.081416e-001	7.842214e-001
5862192.000	6.089106e-001	7.835837e-001
5868186.000	6.094490e-001	7.831046e-001
5874180.000	6.100259e-001	7.825136e-001
5880174.000	6.107024e-001	7.820288e-001
5886168.000	6.113937e-001	7.814715e-001
5892162.000	6.120158e-001	7.810758e-001
5898156.000	6.127596e-001	7.805259e-001
5904150.000	6.134380e-001	7.801003e-001
5910144.000	6.139109e-001	7.795483e-001
5916138.000	6.146571e-001	7.791036e-001
5922132.000	6.152114e-001	7.785763e-001
5928126.000	6.159623e-001	7.781285e-001
5934120.000	6.164671e-001	7.776285e-001
5940114.000	6.171425e-001	7.772292e-001
5946108.000	6.179333e-001	7.765308e-001
5952102.000	6.185333e-001	7.761348e-001
5958096.000	6.191679e-001	7.757074e-001
5964090.000	6.197151e-001	7.752190e-001
5970084.000	6.202565e-001	7.746672e-001
5976078.000	6.209998e-001	7.740828e-001
5982072.000	6.216076e-001	7.737282e-001
5988066.000	6.222934e-001	7.731674e-001
5994060.000	6.229149e-001	7.726427e-001
6000054.000	6.233178e-001	7.722732e-001
6006048.000	6.240775e-001	7.717347e-001
6012042.000	6.247334e-001	7.712089e-001
6018036.000	6.252473e-001	7.706672e-001
6024030.000	6.259005e-001	7.702510e-001
6030024.000	6.264511e-001	7.698008e-001
6036018.000	6.271151e-001	7.692526e-001
6042012.000	6.278520e-001	7.687053e-001
6048006.000	6.283877e-001	7.682862e-001
6054000.000	6.289379e-001	7.678117e-001
6059994.000	6.295358e-001	7.672574e-001
6065988.000	6.302051e-001	7.668074e-001
6071982.000	6.306938e-001	7.663286e-001
6077976.000	6.314064e-001	7.658474e-001
6083970.000	6.319589e-001	7.655316e-001
6089964.000	6.326288e-001	7.648067e-001
6095958.000	6.331340e-001	7.644864e-001
6101952.000	6.338476e-001	7.638476e-001
6107946.000	6.344805e-001	7.633303e-001
6113940.000	6.350551e-001	7.629220e-001
6119934.000	6.355742e-001	7.623767e-001
6125928.000	6.361914e-001	7.619568e-001
6131922.000	6.368164e-001	7.614491e-001
6137916.000	6.373850e-001	7.610962e-001
6143910.000	6.379490e-001	7.604829e-001
6149904.000	6.385922e-001	7.599585e-001
6155898.000	6.389875e-001	7.594564e-001
6161892.000	6.395178e-001	7.591818e-001
6167886.000	6.403696e-001	7.585778e-001
6173880.000	6.409745e-001	7.581603e-001
6179874.000	6.413842e-001	7.576303e-001
6185868.000	6.420280e-001	7.571309e-001
6191862.000	6.425973e-001	7.564937e-001
6197856.000	6.432496e-001	7.561218e-001
6203850.000	6.437688e-001	7.556473e-001
6209844.000	6.444160e-001	7.551452e-001
6215838.000	6.451058e-001	7.546600e-001
6221832.000	6.456099e-001	7.541625e-001
6227826.000	6.459604e-001	7.536779e-001
6233820.000	6.468138e-001	7.532734e-001
6239814.000	6.471992e-001	7.526509e-001
6245808.000	6.479009e-001	7.522262e-001
6251802.000	6.484491e-001	7.517317e-001
6257796.000	6.490647e-001	7.512023e-001
6263790.000	6.495033e-001	7.508196e-001
6269784.000	6.500277e-001	7.503164e-001
6275778.000	6.507583e-001	7.498133e-001
6281772.000	6.512357e-001	7.493500e-001
6287766.000	6.518151e-001	7.490131e-001
6293760.000	6.524246e-001	7.485033e-001
6299754.000	6.528679e-001	7.479743e-001
6305748.000	6.533011e-001	7.475598e-001
6311742.000	6.539702e-001	7.470339e-001
6317736.000	6.544529e-001	7.465487e-001
6323730.000	6.550362e-001	7.461894e-001
6329724.000	6.556144e-001	7.456523e-001
6335718.000	6.561495e-001	7.451032e-001
6341712.000	6.566597e-001	7.445942e-001
6347706.000	6.572843e-001	7.441436e-001
6353700.000	6.577481e-001	7.435362e-001
6359694.000	6.584260e-001	7.432527e-001
6365688.000	6.589448e-001	7.428224e-001
6371682.000	6.593125e-001	7.423529e-001
6377676.000	6.598294e-001	7.417423e-001
6383670.000	6.604107e-001	7.413407e-001
6389664.000	6.610863e-001	7.408717e-001
6395658.000	6.616063e-001	7.404332e-001
6401652.000	6.622324e-001	7.399006e-001
6407646.000	6.627177e-001	7.395452e-001
6413640.000	6.632521e-001	7.389757e-001
6419634.000	6.638332e-001	7.385799e-001
6425628.000	6.642968e-001	7.380410e-001
6431622.000	6.648463e-001	7.376501e-001
6437616.000	6.653826e-001	7.371309e-001
6443610.000	6.658419e-001	7.366851e-001
6449604.000	6.663113e-001	7.362307e-001
6455598.000	6.669828e-001	7.356507e-001
6461592.000	6.675204e-001	7.353168e-001
6467586.000	6.680197e-001	7.347987e-001
6473580.000	6.684581e-001	7.342228e-001
6479574.000	6.690516e-001	7.337894e-001
6485568.000	6.696019e-001	7.334084e-001
6491562.000	6.700193e-001	7.329386e-001
6497556.000	6.705786e-001	7.324391e-001
6503550.000	6.710829e-001	7.320942e-001
6509544.000	6.716095e-001	7.315083e-001
6515538.000	6.720756e-001	7.311451e-001
6521532.000	6.726985e-001	7.305943e-001
6527526.000	6.732322e-001	7.301153e-001
6533520.000	6.736831e-001	7.295910e-001
6539514.000	6.742500e-001	7.290578e-001
6545508.000	6.746921e-001	7.287121e-001
6551502.000	6.752330e-001	7.282994e-001
6557496.000	6.757615e-001	7.278426e-001
6563490.000	6.761738e-001	7.272638e-001
6569484.000	6.766614e-001	7.269242e-001
6575478.000	6.772478e-001	7.263970e-001
6581472.000	6.777258e-001	7.259494e-001
6587466.000	6.781900e-001	7.255326e-001
6593460.000	6.787867e-001	7.250159e-001
6599454.000	6.791956e-001	7.245357e-001
6605448.000	6.798624e-001	7.240498e-001
6611442.000	6.802928e-001	7.236365e-001
6617436.000	6.807977e-001	7.231420e-001
6623430.000	6.812505e-001	7.226659e-001
6629424.000	6.816692e-001	7.222418e-001
6635418.000	6.822084e-001	7.218205e-001
6641412.000	6.827437e-001	7.212442e-001
6647406.000	6.831246e-001	7.209078e-001
6653400.000	6.836706e-001	7.203751e-001
6659394.000	6.841759e-001	7.200066e-001
6665388.000	6.847098e-001	7.194973e-001
6671382.000	6.851165e-001	7.190769e-001
6677376.000	6.856991e-001	7.186397e-001
6683370.000	6.862310e-001	7.180438e-001
6689364.000	6.865712e-001	7.176189e-001
6695358.000	6.871633e-001	7.171191e-001
6701352.000	6.876098e-001	7.167318e-001
6707346.000	6.880526e-001	7.163665e-001
6713340.000	6.886437e-001	7.158863e-001
6719334.000	6.891841e-001	7.154077e-001
6725328.000	6.895277e-001	7.149443e-001
6731322.000	6.900110e-001	7.145639e-001
6737316.000	6.904915e-001	7.140080e-001
6743310.000	6.909806e-001	7.136439e-001
6749304.000	6.914491e-001	7.132036e-001
6755298.000	6.920035e-001	7.128035e-001
6761292.000	6.924660e-001	7.122594e-001
6767286.000	6.928260e-001	7.118106e-001
6773280.000	6.932924e-001	7.112676e-001
6779274.000	6.938990e-001	7.109856e-001
6785268.000	6.943443e-001	7.104502e-001
6791262.000	6.948260e-001	7.098543e-001
6797256.000	6.951710e-001	7.096089e-001
6803250.000	6.956560e-001	7.091388e-001
6809244.000	6.961631e-001	7.086745e-001
6815238.000	6.965186e-001	7.081697e-001
6821232.000	6.971260e-001	7.078690e-001
6827226.000	6.976340e-001	7.072842e-001
6833220.000	6.979962e-001	7.069147e-001
6839214.000	6.984553e-001	7.063589e-001
6845208.000	6.988666e-001	7.059402e-001
6851202.000	6.994497e-001	7.056360e-001
6857196.000	6.998914e-001	7.051109e-001
6863190.000	7.003057e-001	7.046815e-001
6869184.000	7.007932e-001	7.041311e-001
6875178.000	7.012899e-001	7.038325e-001
6881172.000	7.018325e-001	7.032861e-001
6887166.000	7.021030e-001	7.027268e-001
6893160.000	7.025083e-001	7.024501e-001
6899154.000	7.030445e-001	7.018773e-001
6905148.000	7.034928e-001	7.015059e-001
6911142.000	7.039537e-001	7.010707e-001
6917136.000	7.044227e-001	7.005447e-001
6923130.000	7.048579e-001	7.002281e-001
6929124.000	7.051864e-001	6.997219e-001
6935118.000	7.057679e-001	6.992680e-001
6941112.000	7.061777e-001	6.988258e-001
6947106.000	7.066373e-001	6.984467e-001
6953100.000	7.069863e-001	6.979919e-001
6959094.000	7.073893e-001	6.974640e-001
6965088.000	7.080322e-001	6.971089e-001
6971082.000	7.084819e-001	6.966292e-001
6977076.000	7.088331e-001	6.962215e-001
6983070.000	7.092535e-001	6.957901e-001
6989064.000	7.097457e-001	6.953914e-001
6995058.000	7.102602e-001	6.949243e-001
7001052.000	7.105394e-001	6.944249e-001
7007046.000	7.108779e-001	6.940241e-001
7013040.000	7.114622e-001	6.935997e-001
7019034.000	7.119766e-001	6.930801e-001
7025028.000	7.122027e-001	6.927514e-001
7031022.000	7.127063e-001	6.923559e-001
7037016.000	7.132184e-001	6.918576e-001
7043010.000	7.135033e-001	6.914162e-001
7049004.000	7.140167e-001	6.908645e-001
7054998.000	7.143546e-001	6.904951e-001
7060992.000	7.147757e-001	6.899807e-001
7066986.000	7.153743e-001	6.895832e-001
7072980.000	7.156601e-001	6.892211e-001
7078974.000	7.162701e-001	6.888600e-001
7084968.000	7.165467e-001	6.882719e-001
7090962.000	7.170980e-001	6.879086e-001
7096956.000	7.175091e-001	6.874187e-001
7102950.000	7.179715e-001	6.870280e-001
7108944.000	7.182745e-001	6.866217e-001
7114938.000	7.187795e-001	6.861309e-001
7120932.000	7.191701e-001	6.858509e-001
7126926.000	7.195694e-001	6.852053e-001
7132920.000	7.199354e-001	6.848503e-001
7138914.000	7.203027e-001	6.845071e-001
7144908.000	7.207902e-001	6.840394e-001
7150902.000	7.213042e-001	6.836059e-001
7156896.000	7.217741e-001	6.831997e-001
7162890.000	7.220640e-001	6.826916e-001
7168884.000	7.224085e-001	6.822678e-001
7174878.000	7.228894e-001	6.820107e-001
7180872.000	7.232559e-001	6.814767e-001
7186866.000	7.236589e-001	6.810470e-001
7192860.000	7.241358e-001	6.805824e-001
7198854.000	7.244261e-001	6.801126e-001
7204848.000	7.250710e-001	6.796901e-001
7210842.000	7.252651e-001	6.792639e-001
7216836.000	7.257529e-001	6.788271e-001
7222830.000	7.261701e-001	6.784491e-001
7228824.000	7.265245e-001	6.779954e-001
7234818.000	7.268447e-001	6.776260e-001
7240812.000	7.272990e-001	6.771915e-001
7246806.000	7.278048e-001	6.768264e-001
7252800.000	7.281270e-001	6.763667e-001
7258794.000	7.286705e-001	6.758421e-001
7264788.000	7.289216e-001	6.754895e-001
7270782.000	7.292522e-001	6.750910e-001
7276776.000	7.297351e-001	6.746689e-001
7282770.000	7.301069e-001	6.742291e-001
7288764.000	7.304799e-001	6.736686e-001
7294758.000	7.308172e-001	6.733696e-001
7300752.000	7.314256e-001	6.730164e-001
7306746.000	7.316769e-001	6.725622e-001
7312740.000	7.321557e-001	6.721108e-001
7318734.000	7.324455e-001	6.717373e-001
7324728.000	7.328325e-001	6.712405e-001
7330722.000	7.332008e-001	6.707961e-001
7336716.000	7.336228e-001	6.704665e-001
7342710.000	7.339611e-001	6.700249e-001
7348704.000	7.344904e-001	6.695173e-001
7354698.000	7.348121e-001	6.691391e-001
7360692.000	7.352625e-001	6.687592e-001
7366686.000	7.355458e-001	6.683740e-001
7372680.000	7.360591e-001	6.678890e-001
7378674.000	7.363520e-001	6.673458e-001
7384668.000	7.368305e-001	6.670636e-001
7390662.000	7.371571e-001	6.666843e-001
7396656.000	7.375753e-001	6.663118e-001
7402650.000	7.378259e-001	6.659021e-001
7408644.000	7.382454e-001	6.655219e-001
7414638.000	7.385770e-001	6.651182e-001
7420632.000	7.391095e-001	6.647869e-001
7426626.000	7.394931e-001	6.641905e-001
7432620.000	7.398908e-001	6.638050e-001
7438614.000	7.401658e-001	6.633312e-001
7444608.000	7.406019e-001	6.628561e-001
7450602.000	7.409466e-001	6.625497e-001
7456596.000	7.413562e-001	6.620094e-001
7462590.000	7.416553e-001	6.615959e-001
7468584.000	7.421297e-001	6.612323e-001
7474578.000	7.423293e-001	6.607674e-001
7480572.000	7.427608e-001	6.604457e-001
7486566.000	7.431857e-001	6.599212e-001
7492560.000	7.435715e-001	6.595990e-001
7498554.000	7.438685e-001	6.591044e-001
7504548.000	7.442474e-001	6.588450e-001
7510542.000	7.447788e-001	6.584523e-001
7516536.000	7.450822e-001	6.580265e-001
7522530.000	7.455016e-001	6.576516e-001
7528524.000	7.457848e-001	6.572078e-001
7534518.000	7.460529e-001	6.567109e-001
7540512.000	7.464825e-001	6.563902e-001
7546506.000	7.468409e-001	6.558957e-001
7552500.000	7.472319e-001	6.555033e-001
7558494.000	7.475909e-001	6.551491e-001
7564488.000	7.480256e-001	6.547078e-001
7570482.000	7.482859e-001	6.542990e-001
7576476.000	7.486823e-001	6.538795e-001
7582470.000	7.490842e-001	6.535495e-001
7588464.000	7.494104e-001	6.530120e-001
7594458.000	7.498613e-001	6.527069e-001
7600452.000	7.500875e-001	6.522614e-001
7606446.000	7.504462e-001	6.519399e-001
7612440.000	7.509121e-001	6.515167e-001
7618434.000	7.512160e-001	6.510078e-001
7624428.000	7.515097e-001	6.507052e-001
7630422.000	7.517873e-001	6.503394e-001
7636416.000	7.522840e-001	6.497646e-001
7642410.000	7.524272e-001	6.494838e-001
7648404.000	7.529092e-001	6.490186e-001
7654398.000	7.533137e-001	6.486538e-001
7660392.000	7.537050e-001	6.482921e-001
7666386.000	7.540236e-001	6.477019e-001
7672380.000	7.543472e-001	6.474008e-001
7678374.000	7.548161e-001	6.469592e-001
7684368.000	7.550270e-001	6.466424e-001
7690362.000	7.553556e-001	6.465273e-001
7696356.000	7.557252e-001	6.458787e-001
7702350.000	7.561047e-001	6.455262e-001
7708344.000	7.563981e-001	6.450956e-001
7714338.000	7.566897e-001	6.446949e-001
7720332.000	7.570916e-001	6.442607e-001
7726326.000	7.574591e-001	6.439565e-001
7732320.000	7.578225e-001	6.435065e-001
7738314.000	7.581803e-001	6.431310e-001
7744308.000	7.585235e-001	6.426298e-001
7750302.000	7.589071e-001	6.422065e-001
7756296.000	7.590045e-001	6.419419e-001
7762290.000	7.595404e-001	6.415192e-001
7768284.000	7.597844e-001	6.411709e-001
7774278.000	7.601768e-001	6.406835e-001
7780272.000	7.605831e-001	6.403966e-001
7786266.000	7.609486e-001	6.399035e-001
7792260.000	7.611261e-001	6.396125e-001
7798254.000	7.616365e-001	6.392844e-001
7804248.000	7.619887e-001	6.388697e-001
7810242.000	7.622440e-001	6.383629e-001
7816236.000	7.624744e-001	6.380258e-001
7822230.000	7.627908e-001	6.375308e-001
7828224.000	7.631687e-001	6.372054e-001
7834218.000	7.635341e-001	6.367972e-001
7840212.000	7.637345e-001	6.365564e-001
7846206.000	7.642209e-001	6.361202e-001
7852200.000	7.646124e-001	6.356440e-001
7858194.000	7.648070e-001	6.353178e-001
7864188.000	7.650952e-001	6.349669e-001
7870182.000	7.655459e-001	6.344528e-001
7876176.000	7.658596e-001	6.340643e-001
7882170.000	7.662290e-001	6.337407e-001
7888164.000	7.664776e-001	6.333000e-001
7894158.000	7.669055e-001	6.328899e-001
7900152.000	7.672781e-001	6.323906e-001
7906146.000	7.675620e-001	6.322230e-001
7912140.000	7.678551e-001	6.317055e-001
7918134.000	7.681183e-001	6.314028e-001
7924128.000	7.684364e-001	6.309848e-001
7930122.000	7.688522e-001	6.305593e-001
7936116.000	7.691672e-001	6.302202e-001
7942110.000	7.694785e-001	6.298434e-001
7948104.000	7.697449e-001	6.293864e-001
7954098.000	7.700376e-001	6.291159e-001
7960092.000	7.702578e-001	6.286316e-001
7966086.000	7.706824e-001	6.283203e-001
7972080.000	7.709014e-001	6.279616e-001
7978074.000	7.712632e-001	6.275142e-001
7984068.000	7.716845e-001	6.270905e-001
7990062.000	7.719560e-001	6.267950e-001
7996056.000	7.720997e-001	6.263210e-001
8002050.000	7.724942e-001	6.260327e-001
8008044.000	7.727075e-001	6.257587e-001
8014038.000	7.730752e-001	6.253134e-001
8020032.000	7.735315e-001	6.249469e-001
8026026.000	7.738113e-001	6.245959e-001
8032020.000	7.741146e-001	6.242740e-001
8038014.000	7.744530e-001	6.237278e-001
8044008.000	7.748093e-001	6.233631e-001
8050002.000	7.749498e-001	6.229506e-001
8055996.000	7.754195e-001	6.227097e-001
8061990.000	7.757181e-001	6.222135e-001
8067984.000	7.759129e-001	6.219050e-001
8073978.000	7.762898e-001	6.216101e-001
8079972.000	7.766091e-001	6.211360e-001
8085966.000	7.768823e-001	6.207592e-001
8091960.000	7.771719e-001	6.203073e-001
8097954.000	7.774636e-001	6.199603e-001
8103948.000	7.778251e-001	6.196186e-001
8109942.000	7.782014e-001	6.191589e-001
8115936.000	7.783893e-001	6.187665e-001
8121930.000	7.786695e-001	6.185217e-001
8127924.000	7.789192e-001	6.181036e-001
8133918.000	7.792365e-001	6.176978e-001
8139912.000	7.797313e-001	6.173024e-001
8145906.000	7.799049e-001	6.169977e-001
8151900.000	7.803990e-001	6.165379e-001
8157894.000	7.805567e-001	6.162196e-001
8163888.000	7.807872e-001	6.158545e-001
8169882.000	7.811517e-001	6.154773e-001
8175876.000	7.814669e-001	6.150812e-001
8181870.000	7.817366e-001	6.147438e-001
8187864.000	7.822163e-001	6.143691e-001
8193858.000	7.824084e-001	6.139472e-001
8199852.000	7.825947e-001	6.135647e-001
8205846.000	7.830119e-001	6.133195e-001
8211840.000	7.831706e-001	6.128588e-001
8217834.000	7.835780e-001	6.125505e-001
8223828.000	7.838257e-001	6.121048e-001
8229822.000	7.840690e-001	6.116882e-001
8235816.000	7.843271e-001	6.114020e-001
8241810.000	7.845979e-001	6.110210e-001
8247804.000	7.849814e-001	6.106138e-001
8253798.000	7.852919e-001	6.102047e-001
8259792.000	7.854617e-001	6.099404e-001
8265786.000	7.857933e-001	6.095493e-001
8271780.000	7.861151e-001	6.091375e-001
8277774.000	7.864760e-001	6.087460e-001
8283768.000	7.867493e-001	6.082674e-001
8289762.000	7.869712e-001	6.080434e-001
8295756.000	7.872984e-001	6.076225e-001
8301750.000	7.875646e-001	6.073370e-001
8307744.000	7.879146e-001	6.069344e-001
8313738.000	7.881308e-001	6.065835e-001
8319732.000	7.883497e-001	6.062390e-001
8325726.000	7.886730e-001	6.058612e-001
8331720.000	7.889386e-001	6.055601e-001
8337714.000	7.892836e-001	6.051597e-001
8343708.000	7.896100e-001	6.048022e-001
8349702.000	7.897335e-001	6.044275e-001
8355696.000	7.899901e-001	6.041116e-001
8361690.000	7.903660e-001	6.037323e-001
8367684.000	7.906748e-001	6.031749e-001
8373678.000	7.909982e-001	6.029791e-001
8379672.000	7.912461e-001	6.025573e-001
8385666.000	7.914472e-001	6.023204e-001
8391660.000	7.916904e-001	6.018739e-001
8397654.000	7.920390e-001	6.015902e-001
8403648.000	7.922688e-001	6.012326e-001
8409642.000	7.926331e-001	6.007354e-001
8415636.000	7.928327e-001	6.004129e-001
8421630.000	7.931238e-001	6.000264e-001
8427624.000	7.933892e-001	5.996749e-001
8433618.000	7.936751e-001	5.993741e-001
8439612.000	7.940178e-001	5.989652e-001
8445606.000	7.942470e-001	5.987509e-001
8451600.000	7.945004e-001	5.982350e-001
8457594.000	7.948048e-001	5.979914e-001
8463588.000	7.950970e-001	5.975106e-001
8469582.000	7.954086e-001	5.971869e-001
8475576.000	7.956619e-001	5.967999e-001
8481570.000	7.961623e-001	5.964079e-001
8487564.000	7.963543e-001	5.958382e-001
8493558.000	7.966293e-001	5.955755e-001
8499552.000	7.969116e-001	5.951758e-001
8505546.000	7.971769e-001	5.948171e-001
8511540.000	7.973868e-001	5.944147e-001
8517534.000	7.977656e-001	5.941282e-001
8523528.000	7.979795e-001	5.937057e-001
8529522.000	7.981970e-001	5.933812e-001
8535516.000	7.985026e-001	5.930482e-001
8541510.000	7.987871e-001	5.926743e-001
8547504.000	7.990187e-001	5.923503e-001
8553498.000	7.993041e-001	5.920089e-001
8559492.000	7.995875e-001	5.916072e-001
8565486.000	7.998430e-001	5.912659e-001
8571480.000	8.001232e-001	5.909339e-001
8577474.000	8.003712e-001	5.905708e-001
8583468.000	8.006331e-001	5.902354e-001
8589462.000	8.008696e-001	5.898222e-001
8595456.000	8.011321e-001	5.895647e-001
8601450.000	8.014276e-001	5.891654e-001
8607444.000	8.016138e-001	5.888484e-001
8613438.000	8.018405e-001	5.884558e-001
8619432.000	8.021584e-001	5.881743e-001
8625426.000	8.024457e-001	5.878058e-001
8631420.000	8.027346e-001	5.874246e-001
8637414.000	8.029787e-001	5.870641e-001
8643408.000	8.033020e-001	5.867141e-001
8649402.000	8.034803e-001	5.863593e-001
8655396.000	8.037412e-001	5.859670e-001
8661390.000	8.040243e-001	5.856794e-001
8667384.000	8.042690e-001	5.853109e-001
8673378.000	8.044858e-001	5.849834e-001
8679372.000	8.047692e-001	5.846723e-001
8685366.000	8.050683e-001	5.843029e-001
8691360.000	8.052766e-001	5.839522e-001
8697354.000	8.055380e-001	5.836000e-001
8703348.000	8.057467e-001	5.832548e-001
8709342.000	8.060718e-001	5.829014e-001
8715336.000	8.063070e-001	5.825845e-001
8721330.000	8.065314e-001	5.822535e-001
8727324.000	8.067490e-001	5.819001e-001
8733318.000	8.070779e-001	5.815598e-001
8739312.000	8.072983e-001	5.811345e-001
8745306.000	8.075525e-001	5.807603e-001
8751300.000	8.077518e-001	5.804966e-001
8757294.000	8.080589e-001	5.801276e-001
8763288.000	8.082401e-001	5.798263e-001
8769282.000	8.085072e-001	5.794843e-001
8775276.000	8.087103e-001	5.790610e-001
8781270.000	8.089946e-001	5.787347e-001
8787264.000	8.092581e-001	5.784266e-001
8793258.000	8.095243e-001	5.781091e-001
8799252.000	8.097665e-001	5.777911e-001
8805246.000	8.099726e-001	5.774614e-001
8811240.000	8.101943e-001	5.771404e-001
8817234.000	8.105050e-001	5.767784e-001
8823228.000	8.106915e-001	5.763765e-001
8829222.000	8.109368e-001	5.760671e-001
8835216.000	8.112144e-001	5.757562e-001
8841210.000	8.114488e-001	5.753905e-001
8847204.000	8.116697e-001	5.750203e-001
8853198.000	8.119289e-001	5.747191e-001
8859192.000	8.122165e-001	5.743461e-001
8865186.000	8.124390e-001	5.740408e-001
8871180.000	8.126339e-001	5.736905e-001
8877174.000	8.129142e-001	5.733461e-001
8883168.000	8.131604e-001	5.729767e-001
8889162.000	8.134438e-001	5.726688e-001
8895156.000	8.136167e-001	5.723438e-001
8901150.000	8.138922e-001	5.719706e-001
8907144.000	8.141101e-001	5.716792e-001
8913138.000	8.143385e-001	5.713273e-001
8919132.000	8.145711e-001	5.710086e-001
8925126.000	8.148377e-001	5.706445e-001
8931120.000	8.150291e-001	5.703669e-001
8937114.000	8.152766e-001	5.700125e-001
8943108.000	8.155311e-001	5.696503e-001
8949102.000	8.157234e-001	5.693199e-001
8955096.000	8.159593e-001	5.690083e-001
8961090.000	8.161821e-001	5.686560e-001
8967084.000	8.164490e-001	5.683032e-001
8973078.000	8.166610e-001	5.680279e-001
8979072.000	8.168918e-001	5.676641e-001
8985066.000	8.171143e-001	5.673451e-001
8991060.000	8.173464e-001	5.669907e-001
8997054.000	8.176085e-001	5.666787e-001
9003048.000	8.178752e-001	5.663182e-001
9009042.000	8.180754e-001	5.660728e-001
9015036.000	8.183240e-001	5.656880e-001
9021030.000	8.185379e-001	5.653349e-001
9027024.000	8.186733e-001	5.650445e-001
9033018.000	8.189801e-001	5.647445e-001
9039012.000	8.192058e-001	5.643868e-001
9045006.000	8.194648e-001	5.640522e-001
9051000.000	8.196707e-001	5.637634e-001
9056994.000	8.199109e-001	5.634218e-001
9062988.000	8.201094e-001	5.630142e-001
9068982.000	8.203389e-001	5.627719e-001
9074976.000	8.206148e-001	5.624043e-001
9080970.000	8.208531e-001	5.621049e-001
9086964.000	8.210480e-001	5.617387e-001
9092958.000	8.212413e-001	5.614413e-001
9098952.000	8.215126e-001	5.610782e-001
9104946.000	8.217387e-001	5.608290e-001
9110940.000	8.219694e-001	5.603731e-001
9116934.000	8.221337e-001	5.601106e-001
9122928.000	8.223934e-001	5.598091e-001
9128922.000	8.225984e-001	5.594981e-001
9134916.000	8.228255e-001	5.591386e-001
9140910.000	8.230315e-001	5.588452e-001
9146904.000	8.232668e-001	5.586082e-001
9152898.000	8.234725e-001	5.582212e-001
9158892.000	8.237059e-001	5.578951e-001
9164886.000	8.239843e-001	5.575999e-001
9170880.000	8.241687e-001	5.572771e-001
9176874.000	8.243552e-001	5.568958e-001
9182868.000	8.245848e-001	5.565433e-001
9188862.000	8.248512e-001	5.562555e-001
9194856.000	8.250842e-001	5.559838e-001
9200850.000	8.252668e-001	5.556266e-001
9206844.000	8.255162e-001	5.553042e-001
9212838.000	8.257451e-001	5.549640e-001
9218832.000	8.258960e-001	5.546344e-001
9224826.000	8.261620e-001	5.543165e-001
9230820.000	8.263624e-001	5.539889e-001
9236814.000	8.265405e-001	5.536855e-001
9242808.000	8.267549e-001	5.534128e-001
9248802.000	8.270132e-001	5.529863e-001
9254796.000	8.272637e-001	5.527769e-001
9260790.000	8.274757e-001	5.523849e-001
9266784.000	8.276685e-001	5.520706e-001
9272778.000	8.278963e-001	5.518222e-001
9278772.000	8.281203e-001	5.515092e-001
9284766.000	8.283323e-001	5.511616e-001
9290760.000	8.285214e-001	5.508187e-001
9296754.000	8.287014e-001	5.505195e-001
9302748.000	8.289563e-001	5.501919e-001
9308742.000	8.291672e-001	5.498989e-001
9314736.000	8.293912e-001	5.495986e-001
9320730.000	8.296088e-001	5.492351e-001
9326724.000	8.297964e-001	5.489385e-001
9332718.000	8.300436e-001	5.485822e-001
9338712.000	8.302149e-001	5.483339e-001
9344706.000	8.304031e-001	5.479763e-001
9350700.000	8.306073e-001	5.476935e-001
9356694.000	8.308632e-001	5.473489e-001
9362688.000	8.310675e-001	5.470311e-001
9368682.000	8.312974e-001	5.467414e-001
9374676.000	8.314333e-001	5.463940e-001
9380670.000	8.317133e-001	5.460504e-001
9386664.000	8.318637e-001	5.457683e-001
9392658.000	8.321058e-001	5.454909e-001
9398652.000	8.322242e-001	5.451661e-001
9404646.000	8.325140e-001	5.448313e-001
9410640.000	8.327185e-001	5.445077e-001
9416634.000	8.328744e-001	5.442017e-001
9422628.000	8.331538e-001	5.439153e-001
9428622.000	8.333119e-001	5.435642e-001
9434616.000	8.335001e-001	5.432600e-001
9440610.000	8.337883e-001	5.430202e-001
9446604.000	8.339368e-001	5.427046e-001
9452598.000	8.341146e-001	5.423937e-001
9458592.000	8.343411e-001	5.420712e-001
9464586.000	8.345496e-001	5.417396e-001
9470580.000	8.348105e-001	5.414435e-001
9476574.000	8.349441e-001	5.411357e-001
9482568.000	8.351901e-001	5.408400e-001
9488562.000	8.353150e-001	5.404885e-001
9494556.000	8.355536e-001	5.401769e-001
9500550.000	8.357319e-001	5.398291e-001
9506544.000	8.359700e-001	5.395312e-001
9512538.000	8.361966e-001	5.393090e-001
9518532.000	8.363552e-001	5.390206e-001
9524526.000	8.365818e-001	5.386404e-001
9530520.000	8.367525e-001	5.383942e-001
9536514.000	8.369430e-001	5.380856e-001
9542508.000	8.371430e-001	5.377716e-001
9548502.000	8.373567e-001	5.374557e-001
9554496.000	8.375116e-001	5.371587e-001
9560490.000	8.377695e-001	5.368515e-001
9566484.000	8.380095e-001	5.365325e-001
9572478.000	8.381742e-001	5.362208e-001
9578472.000	8.383259e-001	5.358788e-001
9584466.000	8.385055e-001	5.355778e-001
9590460.000	8.387245e-001	5.353487e-001
9596454.000	8.388935e-001	5.350203e-001
9602448.000	8.391687e-001	5.347565e-001
9608442.000	8.392891e-001	5.343976e-001
9614436.000	8.395191e-001	5.341059e-001
9620430.000	8.397453e-001	5.338136e-001
9626424.000	8.399513e-001	5.335019e-001
9632418.000	8.400949e-001	5.332236e-001
9638412.000	8.403252e-001	5.328226e-001
9644406.000	8.404428e-001	5.325444e-001
9650400.000	8.406603e-001	5.322129e-001
9656394.000	8.408787e-001	5.319343e-001
9662388.000	8.411387e-001	5.316816e-001
9668382.000	8.412177e-001	5.313299e-001
9674376.000	8.414590e-001	5.310719e-001
9680370.000	8.416964e-001	5.307790e-001
9686364.000	8.418329e-001	5.304656e-001
9692358.000	8.420600e-001	5.302097e-001
9698352.000	8.422789e-001	5.298738e-001
9704346.000	8.424100e-001	5.295456e-001
9710340.000	8.425976e-001	5.292608e-001
9716334.000	8.427446e-001	5.290015e-001
9722328.000	8.429871e-001	5.286787e-001
9728322.000	8.431606e-001	5.283486e-001
9734316.000	8.433714e-001	5.280836e-001
9740310.000	8.435324e-001	5.277667e-001
9746304.000	8.436814e-001	5.274330e-001
9752298.000	8.438530e-001	5.271939e-001
9758292.000	8.440610e-001	5.268590e-001
9764286.000	8.442652e-001	5.265742e-001
9770280.000	8.444680e-001	5.263474e-001
9776274.000	8.446489e-001	5.259880e-001
9782268.000	8.448070e-001	5.256709e-001
9788262.000	8.449966e-001	5.254189e-001
9794256.000	8.451901e-001	5.250696e-001
9800250.000	8.453792e-001	5.248182e-001
9806244.000	8.455537e-001	5.244915e-001
9812238.000	8.457497e-001	5.242333e-001
9818232.000	8.459739e-001	5.238780e-001
9824226.000	8.461378e-001	5.235808e-001
9830220.000	8.463165e-001	5.233083e-001
9836214.000	8.465230e-001	5.230174e-001
9842208.000	8.466988e-001	5.227495e-001
9848202.000	8.468849e-001	5.224199e-001
9854196.000	8.470188e-001	5.221443e-001
9860190.000	8.472240e-001	5.218791e-001
9866184.000	8.473945e-001	5.215983e-001
9872178.000	8.475977e-001	5.212866e-001
9878172.000	8.477455e-001	5.209635e-001
9884166.000	8.479322e-001	5.206478e-001
9890160.000	8.481039e-001	5.203616e-001
9896154.000	8.483263e-001	5.200488e-001
9902148.000	8.485316e-001	5.197918e-001
9908142.000	8.487078e-001	5.195191e-001
9914136.000	8.488631e-001	5.192485e-001
9920130.000	8.490410e-001	5.190137e-001
9926124.000	8.492354e-001	5.186202e-001
9932118.000	8.493976e-001	5.183270e-001
9938112.000	8.495488e-001	5.180274e-001
9944106.000	8.497204e-001	5.177577e-001
9950100.000	8.498980e-001	5.174853e-001
9956094.000	8.500730e-001	5.171970e-001
9962088.000	8.502642e-001	5.169052e-001
9968082.000	8.504734e-001	5.165839e-001
9974076.000	8.506406e-001	5.163462e-001
9980070.000	8.508031e-001	5.160372e-001
9986064.000	8.509848e-001	5.157275e-001
9992058.000	8.511476e-001	5.154810e-001
9998052.000	8.513721e-001	5.151717e-001
10004046.000	8.514618e-001	5.149039e-001
10010040.000	8.516228e-001	5.146341e-001
10016034.000	8.519351e-001	5.143173e-001
10022028.000	8.519929e-001	5.139999e-001
10028022.000	8.522609e-001	5.137558e-001
10034016.000	8.523707e-001	5.134123e-001
10040010.000	8.525398e-001	5.131898e-001
10046004.000	8.527824e-001	5.129124e-001
10051998.000	8.529261e-001	5.126340e-001
10057992.000	8.530979e-001	5.122955e-001
10063986.000	8.532261e-001	5.120430e-001
10069980.000	8.534159e-001	5.117355e-001
10075974.000	8.535634e-001	5.114110e-001
10081968.000	8.537516e-001	5.111322e-001
10087962.000	8.539320e-001	5.108738e-001
10093956.000	8.540472e-001	5.105825e-001
10099950.000	8.542525e-001	5.102934e-001
10105944.000	8.544341e-001	5.100455e-001
10111938.000	8.546694e-001	5.098153e-001
10117932.000	8.548207e-001	5.095217e-001
10123926.000	8.549892e-001	5.092744e-001
10129920.000	8.551778e-001	5.089280e-001
10135914.000	8.553160e-001	5.086569e-001
10141908.000	8.554862e-001	5.083176e-001
10147902.000	8.556373e-001	5.080421e-001
10153896.000	8.558049e-001	5.078119e-001
10159890.000	8.559929e-001	5.075011e-001
10165884.000	8.561785e-001	5.072483e-001
10171878.000	8.563253e-001	5.069729e-001
10177872.000	8.564931e-001	5.066217e-001
10183866.000	8.566528e-001	5.063880e-001
10189860.000	8.567424e-001	5.060335e-001
10195854.000	8.569756e-001	5.058174e-001
10201848.000	8.571291e-001	5.055543e-001
10207842.000	8.572577e-001	5.052569e-001
10213836.000	8.574776e-001	5.050225e-001
10219830.000	8.576617e-001	5.046961e-001
10225824.000	8.578358e-001	5.044310e-001
10231818.000	8.579403e-001	5.041437e-001
10237812.000	8.581241e-001	5.039105e-001
10243806.000	8.582741e-001	5.036019e-001
10249800.000	8.584591e-001	5.032481e-001
10255794.000	8.586894e-001	5.032165e-001
10261788.000	8.587942e-001	5.027829e-001
10267782.000	8.589975e-001	5.024754e-001
10273776.000	8.591168e-001	5.022123e-001
10279770.000	8.592579e-001	5.018636e-001
10285764.000	8.594364e-001	5.016794e-001
10291758.000	8.596111e-001	5.013320e-001
10297752.000	8.597863e-001	5.010340e-001
10303746.000	8.599137e-001	5.008166e-001
10309740.000	8.600521e-001	5.005443e-001
10315734.000	8.602076e-001	5.002327e-001
10321728.000	8.603980e-001	4.999898e-001
10327722.000	8.605106e-001	4.997048e-001
10333716.000	8.607348e-001	4.993638e-001
10339710.000	8.608707e-001	4.991495e-001
10345704.000	8.610395e-001	4.988920e-001
10351698.000	8.612057e-001	4.986029e-001
10357692.000	8.612949e-001	4.983530e-001
10363686.000	8.614822e-001	4.980586e-001
10369680.000	8.616460e-001	4.977657e-001
10375674.000	8.617895e-001	4.974793e-001
10381668.000	8.619246e-001	4.972355e-001
10387662.000	8.621050e-001	4.969922e-001
10393656.000	8.622815e-001	4.967083e-001
10399650.000	8.624080e-001	4.964134e-001
10405644.000	8.625317e-001	4.961604e-001
10411638.000	8.627151e-001	4.958303e-001
10417632.000	8.628751e-001	4.955643e-001
10423626.000	8.630940e-001	4.953404e-001
10429620.000	8.632034e-001	4.950535e-001
10435614.000	8.633600e-001	4.948161e-001
10441608.000	8.635390e-001	4.945147e-001
10447602.000	8.636589e-001	4.942208e-001
10453596.000	8.638355e-001	4.939548e-001
10459590.000	8.640115e-001	4.936668e-001
10465584.000	8.641129e-001	4.934245e-001
10471578.000	8.643235e-001	4.931189e-001
10477572.000	8.644289e-001	4.928888e-001
10483566.000	8.646149e-001	4.926194e-001
10489560.000	8.647149e-001	4.923797e-001
10495554.000	8.649112e-001	4.920488e-001
10501548.000	8.650680e-001	4.917942e-001
10507542.000	8.652653e-001	4.915302e-001
10513536.000	8.653440e-001	4.912559e-001
10519530.000	8.655579e-001	4.910153e-001
10525524.000	8.656615e-001	4.907538e-001
10531518.000	8.657887e-001	4.904536e-001
10537512.000	8.659110e-001	4.901860e-001
10543506.000	8.660420e-001	4.899307e-001
10549500.000	8.662621e-001	4.897041e-001
10555494.000	8.663695e-001	4.894264e-001
10561488.000	8.665593e-001	4.891326e-001
10567482.000	8.667198e-001	4.888730e-001
10573476.000	8.668763e-001	4.885742e-001
10579470.000	8.669852e-001	4.883961e-001
10585464.000	8.671561e-001	4.880802e-001
10591458.000	8.672856e-001	4.877982e-001
10597452.000	8.674263e-001	4.875647e-001
10603446.000	8.675258e-001	4.873047e-001
10609440.000	8.677096e-001	4.870328e-001
10615434.000	8.678954e-001	4.868237e-001
10621428.000	8.679659e-001	4.865277e-001
10627422.000	8.681392e-001	4.861509e-001
10633416.000	8.683192e-001	4.859920e-001
10639410.000	8.684165e-001	4.856636e-001
10645404.000	8.686347e-001	4.854305e-001
10651398.000	8.687465e-001	4.852030e-001
10657392.000	8.688854e-001	4.848828e-001
10663386.000	8.690794e-001	4.846253e-001
10669380.000	8.691923e-001	4.843826e-001
10675374.000	8.693872e-001	4.841485e-001
10681368.000	8.694740e-001	4.838306e-001
10687362.000	8.696284e-001	4.836413e-001
10693356.000	8.698119e-001	4.833390e-001
10699350.000	8.699445e-001	4.830292e-001
10705344.000	8.701008e-001	4.828306e-001
10711338.000	8.702102e-001	4.825529e-001
10717332.000	8.703451e-001	4.823275e-001
10723326.000	8.704966e-001	4.820613e-001
10729320.000	8.706502e-001	4.817465e-001
10735314.000	8.707675e-001	4.814591e-001
10741308.000	8.709880e-001	4.812387e-001
10747302.000	8.711037e-001	4.809931e-001
10753296.000	8.711813e-001	4.806941e-001
10759290.000	8.713994e-001	4.804978e-001
10765284.000	8.715252e-001	4.802060e-001
10771278.000	8.716656e-001	4.799434e-001
10777272.000	8.718441e-001	4.797493e-001
10783266.000	8.719700e-001	4.794732e-001
10789260.000	8.721370e-001	4.791523e-001
10795254.000	8.722725e-001	4.789222e-001
10801248.000	8.723720e-001	4.786770e-001
10807242.000	8.724720e-001	4.783779e-001
10813236.000	8.726339e-001	4.780901e-001
10819230.000	8.727894e-001	4.779314e-001
10825224.000	8.729537e-001	4.776374e-001
10831218.000	8.731023e-001	4.773790e-001
10837212.000	8.732141e-001	4.771123e-001
10843206.000	8.734103e-001	4.768652e-001
10849200.000	8.735797e-001	4.766311e-001
10855194.000	8.736377e-001	4.763377e-001
10861188.000	8.737851e-001	4.760919e-001
10867182.000	8.739469e-001	4.758659e-001
10873176.000	8.740972e-001	4.755875e-001
10879170.000	8.742236e-001	4.753218e-001
10885164.000	8.743165e-001	4.750656e-001
10891158.000	8.744726e-001	4.747970e-001
10897152.000	8.746401e-001	4.745402e-001
10903146.000	8.747465e-001	4.742915e-001
10909140.000	8.748709e-001	4.740287e-001
10915134.000	8.750045e-001	4.738203e-001
10921128.000	8.751625e-001	4.735083e-001
10927122.000	8.752342e-001	4.732850e-001
10933116.000	8.754060e-001	4.729853e-001
10939110.000	8.755608e-001	4.727893e-001
10945104.000	8.757053e-001	4.724936e-001
10951098.000	8.758338e-001	4.722542e-001
10957092.000	8.759745e-001	4.720062e-001
10963086.000	8.761212e-001	4.717614e-001
10969080.000	8.762073e-001	4.715127e-001
10975074.000	8.764193e-001	4.712817e-001
10981068.000	8.764992e-001	4.709500e-001
10987062.000	8.766520e-001	4.707587e-001
10993056.000	8.767915e-001	4.705009e-001
10999050.000	8.768468e-001	4.702348e-001
11005044.000	8.770814e-001	4.700634e-001
11011038.000	8.771572e-001	4.697699e-001
11017032.000	8.773552e-001	4.695217e-001
11023026.000	8.774194e-001	4.692178e-001
11029020.000	8.775852e-001	4.690350e-001
11035014.000	8.776896e-001	4.687200e-001
11041008.000	8.778752e-001	4.684915e-001
11047002.000	8.779732e-001	4.682074e-001
11052996.000	8.780879e-001	4.679957e-001
11058990.000	8.782737e-001	4.677388e-001
11064984.000	8.783620e-001	4.675123e-001
11070978.000	8.785171e-001	4.672778e-001
11076972.000	8.786448e-001	4.670148e-001
11082966.000	8.787184e-001	4.667474e-001
11088960.000	8.788458e-001	4.664934e-001
11094954.000	8.790132e-001	4.662098e-001
11100948.000	8.791320e-001	4.659944e-001
11106942.000	8.792554e-001	4.657691e-001
11112936.000	8.794291e-001	4.655629e-001
11118930.000	8.795895e-001	4.652629e-001
11124924.000	8.796496e-001	4.650052e-001
11130918.000	8.798340e-001	4.647581e-001
11136912.000	8.799214e-001	4.645842e-001
11142906.000	8.800465e-001	4.642678e-001
11148900.000	8.801751e-001	4.640271e-001
11154894.000	8.803145e-001	4.637863e-001
11160888.000	8.804690e-001	4.635231e-001
11166882.000	8.805511e-001	4.632547e-001
11172876.000	8.806700e-001	4.629730e-001
11178870.000	8.807956e-001	4.627601e-001
11184864.000	8.810010e-001	4.625583e-001
11190858.000	8.810936e-001	4.622820e-001
11196852.000	8.811307e-001	4.620415e-001
11202846.000	8.813235e-001	4.617801e-001
11208840.000	8.814877e-001	4.615537e-001
11214834.000	8.816297e-001	4.613133e-001
11220828.000	8.817314e-001	4.610947e-001
11226822.000	8.818916e-001	4.608230e-001
11232816.000	8.819715e-001	4.605400e-001
11238810.000	8.821199e-001	4.603729e-001
11244804.000	8.822657e-001	4.601100e-001
11250798.000	8.823724e-001	4.598809e-001
11256792.000	8.824242e-001	4.595941e-001
11262786.000	8.825631e-001	4.593581e-001
11268780.000	8.826912e-001	4.591500e-001
11274774.000	8.828533e-001	4.588742e-001
11280768.000	8.829163e-001	4.586108e-001
11286762.000	8.831001e-001	4.583764e-001
11292756.000	8.832421e-001	4.581450e-001
11298750.000	8.833299e-001	4.579127e-001
11304744.000	8.834271e-001	4.577359e-001
11310738.000	8.835458e-001	4.574430e-001
11316732.000	8.836716e-001	4.571892e-001
11322726.000	8.838247e-001	4.569502e-001
11328720.000	8.839356e-001	4.566943e-001
11334714.000	8.840690e-001	4.564315e-001
11340708.000	8.842032e-001	4.562434e-001
11346702.000	8.843606e-001	4.559464e-001
11352696.000	8.844422e-001	4.557239e-001
11358690.000	8.845680e-001	4.555316e-001
11364684.000	8.846447e-001	4.552325e-001
11370678.000	8.847772e-001	4.550387e-001
11376672.000	8.848732e-001	4.547736e-001
11382666.000	8.850202e-001	4.545467e-001
11388660.000	8.851191e-001	4.543337e-001
11394654.000	8.853268e-001	4.540615e-001
11400648.000	8.853941e-001	4.538336e-001
11406642.000	8.854591e-001	4.536116e-001
11412636.000	8.856043e-001	4.533423e-001
11418630.000	8.857272e-001	4.530519e-001
11424624.000	8.858700e-001	4.528491e-001
11430618.000	8.859777e-001	4.526159e-001
11436612.000	8.861268e-001	4.524458e-001
11442606.000	8.861858e-001	4.521414e-001
11448600.000	8.863703e-001	4.519252e-001
11454594.000	8.864620e-001	4.516776e-001
11460588.000	8.865564e-001	4.514054e-001
11466582.000	8.866261e-001	4.512634e-001
11472576.000	8.868033e-001	4.509837e-001
11478570.000	8.869173e-001	4.507388e-001
11484564.000	8.870278e-001	4.504350e-001
11490558.000	8.871487e-001	4.502731e-001
11496552.000	8.872568e-001	4.500095e-001
11502546.000	8.873687e-001	4.497637e-001
11508540.000	8.875462e-001	4.495079e-001
11514534.000	8.876647e-001	4.493002e-001
11520528.000	8.877580e-001	4.490880e-001
11526522.000	8.878954e-001	4.488952e-001
11532516.000	8.880190e-001	4.486256e-001
11538510.000	8.880975e-001	4.483936e-001
11544504.000	8.882236e-001	4.481298e-001
11550498.000	8.883702e-001	4.478828e-001
11556492.000	8.884645e-001	4.477543e-001
11562486.000	8.885365e-001	4.474573e-001
11568480.000	8.887028e-001	4.472097e-001
11574474.000	8.887519e-001	4.469817e-001
11580468.000	8.889079e-001	4.467266e-001
11586462.000	8.890256e-001	4.464696e-001
11592456.000	8.891351e-001	4.462357e-001
11598450.000	8.892649e-001	4.460140e-001
11604444.000	8.893733e-001	4.457768e-001
11610438.000	8.894641e-001	4.455735e-001
11616432.000	8.895993e-001	4.453635e-001
11622426.000	8.897050e-001	4.451450e-001
11628420.000	8.898178e-001	4.449009e-001
11634414.000	8.899367e-001	4.446577e-001
11640408.000	8.900508e-001	4.444677e-001
11646402.000	8.902250e-001	4.441844e-001
11652396.000	8.902851e-001	4.439764e-001
11658390.000	8.903812e-001	4.437395e-001
11664384.000	8.904912e-001	4.435460e-001
11670378.000	8.905897e-001	4.432703e-001
11676372.000	8.907860e-001	4.430311e-001
11682366.000	8.908521e-001	4.427800e-001
11688360.000	8.909369e-001	4.425934e-001
11694354.000	8.911067e-001	4.423378e-001
11700348.000	8.912027e-001	4.421546e-001
11706342.000	8.913052e-001	4.418378e-001
11712336.000	8.913826e-001	4.416772e-001
11718330.000	8.915313e-001	4.414284e-001
11724324.000	8.916544e-001	4.411882e-001
11730318.000	8.917812e-001	4.409573e-001
11736312.000	8.919276e-001	4.407379e-001
11742306.000	8.919999e-001	4.404950e-001
11748300.000	8.921170e-001	4.403111e-001
11754294.000	8.922453e-001	4.401041e-001
11760288.000	8.923496e-001	4.398453e-001
11766282.000	8.924669e-001	4.396557e-001
11772276.000	8.925570e-001	4.394059e-001
11778270.000	8.926883e-001	4.391906e-001
11784264.000	8.927767e-001	4.389402e-001
11790258.000	8.928831e-001	4.386682e-001
11796252.000	8.930258e-001	4.384899e-001
11802246.000	8.930449e-001	4.382449e-001
11808240.000	8.931917e-001	4.380414e-001
11814234.000	8.933075e-001	4.378452e-001
11820228.000	8.934558e-001	4.376214e-001
11826222.000	8.934657e-001	4.373667e-001
11832216.000	8.936123e-001	4.371378e-001
11838210.000	8.937557e-001	4.369244e-001
11844204.000	8.938252e-001	4.366859e-001
11850198.000	8.939322e-001	4.364409e-001
11856192.000	8.940386e-001	4.362011e-001
11862186.000	8.941375e-001	4.360532e-001
11868180.000	8.942312e-001	4.357656e-001
11874174.000	8.943747e-001	4.355440e-001
11880168.000	8.944946e-001	4.353313e-001
11886162.000	8.945854e-001	4.351322e-001
11892156.000	8.947433e-001	4.349153e-001
11898150.000	8.947621e-001	4.346416e-001
11904144.000	8.949160e-001	4.344426e-001
11910138.000	8.950366e-001	4.342367e-001
11916132.000	8.951374e-001	4.340168e-001
11922126.000	8.952428e-001	4.337999e-001
11928120.000	8.953387e-001	4.335503e-001
11934114.000	8.954585e-001	4.333366e-001
11940108.000	8.955249e-001	4.330776e-001
11946102.000	8.956461e-001	4.328703e-001
11952096.000	8.956900e-001	4.326571e-001
11958090.000	8.958208e-001	4.323967e-001
11964084.000	8.959047e-001	4.321839e-001
11970078.000	8.960470e-001	4.319800e-001
11976072.000	8.961092e-001	4.317382e-001
11982066.000	8.962532e-001	4.314816e-001
11988060.000	8.963631e-001	4.313108e-001
11994054.000	8.965149e-001	4.311214e-001
12000048.000	8.965648e-001	4.309216e-001
12006042.000	8.966875e-001	4.307069e-001
12012036.000	8.968059e-001	4.304944e-001
12018030.000	8.968587e-001	4.301757e-001
12024024.000	8.970122e-001	4.299947e-001
12030018.000	8.971024e-001	4.297665e-001
12036012.000	8.971947e-001	4.294942e-001
12042006.000	8.973407e-001	4.293632e-001
12048000.000	8.973975e-001	4.291480e-001
12053994.000	8.975224e-001	4.288950e-001
12059988.000	8.976507e-001	4.286738e-001
12065982.000	8.976967e-001	4.284729e-001
12071976.000	8.978344e-001	4.282226e-001
12077970.000	8.978957e-001	4.280200e-001
12083964.000	8.980036e-001	4.278149e-001
12089958.000	8.981323e-001	4.275865e-001
12095952.000	8.982299e-001	4.274072e-001
12101946.000	8.982702e-001	4.271579e-001
12107940.000	8.983697e-001	4.269187e-001
12113934.000	8.985134e-001	4.267281e-001
12119928.000	8.986286e-001	4.265078e-001
12125922.000	8.987108e-001	4.262599e-001
12131916.000	8.988178e-001	4.260689e-001
12137910.000	8.988894e-001	4.258138e-001
12143904.000	8.989791e-001	4.255568e-001
12149898.000	8.991008e-001	4.253709e-001
12155892.000	8.991994e-001	4.251644e-001
12161886.000	8.993220e-001	4.249741e-001
12167880.000	8.993887e-001	4.246864e-001
12173874.000	8.995314e-001	4.245118e-001
12179868.000	8.995829e-001	4.242883e-001
12185862.000	8.997441e-001	4.240512e-001
12191856.000	8.998259e-001	4.239202e-001
12197850.000	8.999186e-001	4.236332e-001
12203844.000	8.999768e-001	4.234743e-001
12209838.000	9.000946e-001	4.232352e-001
12215832.000	9.002010e-001	4.230317e-001
12221826.000	9.003009e-001	4.228052e-001
12227820.000	9.003711e-001	4.225891e-001
12233814.000	9.005069e-001	4.224298e-001
12239808.000	9.006338e-001	4.221696e-001
12245802.000	9.006880e-001	4.219380e-001
12251796.000	9.008210e-001	4.217606e-001
12257790.000	9.008737e-001	4.215511e-001
12263784.000	9.009957e-001	4.213722e-001
12269778.000	9.010946e-001	4.211070e-001
12275772.000	9.012560e-001	4.209240e-001
12281766.000	9.012326e-001	4.206533e-001
12287760.000	9.013537e-001	4.204995e-001
12293754.000	9.014493e-001	4.202356e-001
12299748.000	9.015629e-001	4.200639e-001
12305742.000	9.016898e-001	4.198135e-001
12311736.000	9.017572e-001	4.196587e-001
12317730.000	9.018239e-001	4.194202e-001
12323724.000	9.019232e-001	4.191959e-001
12329718.000	9.020471e-001	4.189541e-001
12335712.000	9.021518e-001	4.188166e-001
12341706.000	9.023105e-001	4.185573e-001
12347700.000	9.023086e-001	4.183490e-001
12353694.000	9.024533e-001	4.181947e-001
12359688.000	9.025486e-001	4.178948e-001
12365682.000	9.025790e-001	4.177210e-001
12371676.000	9.027193e-001	4.175635e-001
12377670.000	9.028920e-001	4.173720e-001
12383664.000	9.028995e-001	4.171223e-001
12389658.000	9.029750e-001	4.169460e-001
12395652.000	9.030640e-001	4.166899e-001
12401646.000	9.031640e-001	4.164709e-001
12407640.000	9.032975e-001	4.162505e-001
12413634.000	9.033590e-001	4.160167e-001
12419628.000	9.034711e-001	4.158386e-001
12425622.000	9.035692e-001	4.156284e-001
12431616.000	9.037079e-001	4.154846e-001
12437610.000	9.038538e-001	4.151967e-001
12443604.000	9.038651e-001	4.149995e-001
12449598.000	9.039523e-001	4.147997e-001
12455592.000	9.040934e-001	4.146022e-001
12461586.000	9.041031e-001	4.143394e-001
12467580.000	9.042052e-001	4.141400e-001
12473574.000	9.043352e-001	4.139333e-001
12479568.000	9.044539e-001	4.137310e-001
12485562.000	9.045084e-001	4.134881e-001
12491556.000	9.045738e-001	4.133492e-001
12497550.000	9.046406e-001	4.131062e-001
12503544.000	9.047860e-001	4.128890e-001
12509538.000	9.048728e-001	4.126902e-001
12515532.000	9.049672e-001	4.124630e-001
12521526.000	9.050843e-001	4.122882e-001
12527520.000	9.051534e-001	4.120899e-001
12533514.000	9.052146e-001	4.118749e-001
12539508.000	9.052640e-001	4.116670e-001
12545502.000	9.053964e-001	4.114519e-001
12551496.000	9.053952e-001	4.112439e-001
12557490.000	9.055800e-001	4.110346e-001
12563484.000	9.056159e-001	4.107970e-001
12569478.000	9.057616e-001	4.106858e-001
12575472.000	9.058000e-001	4.103833e-001
12581466.000	9.059278e-001	4.102089e-001
12587460.000	9.060355e-001	4.100451e-001
12593454.000	9.061236e-001	4.098119e-001
12599448.000	9.061949e-001	4.096187e-001
12605442.000	9.062605e-001	4.094422e-001
12611436.000	9.063507e-001	4.092542e-001
12617430.000	9.064401e-001	4.089977e-001
12623424.000	9.065359e-001	4.088155e-001
12629418.000	9.066848e-001	4.085877e-001
12635412.000	9.067637e-001	4.083510e-001
12641406.000	9.067585e-001	4.081969e-001
12647400.000	9.069200e-001	4.080176e-001
12653394.000	9.070011e-001	4.077802e-001
12659388.000	9.070935e-001	4.075580e-001
12665382.000	9.071445e-001	4.074001e-001
12671376.000	9.072755e-001	4.071818e-001
12677370.000	9.073368e-001	4.069225e-001
12683364.000	9.074372e-001	4.068085e-001
12689358.000	9.074850e-001	4.065773e-001
12695352.000	9.076067e-001	4.064074e-001
12701346.000	9.076769e-001	4.061472e-001
12707340.000	9.077896e-001	4.059858e-001
12713334.000	9.078584e-001	4.057677e-001
12719328.000	9.079239e-001	4.055599e-001
12725322.000	9.079852e-001	4.053138e-001
12731316.000	9.081243e-001	4.051851e-001
12737310.000	9.081811e-001	4.049133e-001
12743304.000	9.082796e-001	4.047411e-001
12749298.000	9.083875e-001	4.045483e-001
12755292.000	9.084771e-001	4.043807e-001
12761286.000	9.085644e-001	4.041326e-001
12767280.000	9.086298e-001	4.039301e-001
12773274.000	9.086884e-001	4.037183e-001
12779268.000	9.088112e-001	4.035461e-001
12785262.000	9.089095e-001	4.032962e-001
12791256.000	9.089479e-001	4.031083e-001
12797250.000	9.090748e-001	4.029058e-001
12803244.000	9.092461e-001	4.028836e-001
12809238.000	9.092694e-001	4.025836e-001
12815232.000	9.093325e-001	4.023407e-001
12821226.000	9.093933e-001	4.021236e-001
12827220.000	9.095208e-001	4.019473e-001
12833214.000	9.095820e-001	4.017440e-001
12839208.000	9.096686e-001	4.015056e-001
12845202.000	9.097585e-001	4.013298e-001
12851196.000	9.098205e-001	4.010597e-001
12857190.000	9.099545e-001	4.008984e-001
12863184.000	9.099406e-001	4.007047e-001
12869178.000	9.100650e-001	4.005235e-001
12875172.000	9.101568e-001	4.003213e-001
12881166.000	9.102850e-001	4.001220e-001
12887160.000	9.103357e-001	3.999663e-001
12893154.000	9.104823e-001	3.996760e-001
12899148.000	9.104937e-001	3.995626e-001
12905142.000	9.106093e-001	3.993244e-001
12911136.000	9.106477e-001	3.991389e-001
12917130.000	9.107956e-001	3.989784e-001
12923124.000	9.108100e-001	3.987203e-001
12929118.000	9.109079e-001	3.985358e-001
12935112.000	9.110178e-001	3.983580e-001
12941106.000	9.110518e-001	3.981611e-001
12947100.000	9.111168e-001	3.979700e-001
12953094.000	9.112475e-001	3.977573e-001
12959088.000	9.113570e-001	3.975638e-001
12965082.000	9.113912e-001	3.973764e-001
12971076.000	9.114825e-001	3.971881e-001
12977070.000	9.116043e-001	3.969803e-001
12983064.000	9.116522e-001	3.968057e-001
12989058.000	9.117499e-001	3.966035e-001
12995052.000	9.117814e-001	3.964390e-001
13001046.000	9.118636e-001	3.961780e-001
13007040.000	9.120115e-001	3.960131e-001
13013034.000	9.120922e-001	3.958131e-001
13019028.000	9.121593e-001	3.956717e-001
13025022.000	9.121926e-001	3.954460e-001
13031016.000	9.122733e-001	3.952296e-001
13037010.000	9.123950e-001	3.950241e-001
13043004.000	9.124929e-001	3.948621e-001
13048998.000	9.125270e-001	3.946073e-001
13054992.000	9.126134e-001	3.945153e-001
13060986.000	9.126871e-001	3.942915e-001
13066980.000	9.127427e-001	3.940861e-001
13072974.000	9.128721e-001	3.938939e-001
13078968.000	9.129309e-001	3.936732e-001
13084962.000	9.130212e-001	3.935117e-001
13090956.000	9.130555e-001	3.933546e-001
13096950.000	9.131347e-001	3.931231e-001
13102944.000	9.132268e-001	3.929463e-001
13108938.000	9.133385e-001	3.927455e-001
13114932.000	9.134138e-001	3.925257e-001
13120926.000	9.134870e-001	3.923509e-001
13126920.000	9.136115e-001	3.922096e-001
13132914.000	9.136787e-001	3.919759e-001
13138908.000	9.137269e-001	3.917844e-001
13144902.000	9.138361e-001	3.916050e-001
13150896.000	9.139378e-001	3.914193e-001
13156890.000	9.139914e-001	3.911751e-001
13162884.000	9.140885e-001	3.910458e-001
13168878.000	9.141361e-001	3.908206e-001
13174872.000	9.142404e-001	3.906421e-001
13180866.000	9.143127e-001	3.904573e-001
13186860.000	9.143786e-001	3.902405e-001
13192854.000	9.144829e-001	3.900808e-001
13198848.000	9.144563e-001	3.898433e-001
13204842.000	9.146243e-001	3.896039e-001
13210836.000	9.146867e-001	3.894861e-001
13216830.000	9.147396e-001	3.893571e-001
13222824.000	9.148105e-001	3.890557e-001
13228818.000	9.149065e-001	3.889201e-001
13234812.000	9.149795e-001	3.887744e-001
13240806.000	9.150256e-001	3.885494e-001
13246800.000	9.151702e-001	3.883332e-001
13252794.000	9.152724e-001	3.881598e-001
13258788.000	9.153289e-001	3.879821e-001
13264782.000	9.153786e-001	3.878250e-001
13270776.000	9.154484e-001	3.875898e-001
13276770.000	9.154790e-001	3.873737e-001
13282764.000	9.155944e-001	3.872041e-001
13288758.000	9.156692e-001	3.869855e-001
13294752.000	9.157641e-001	3.868462e-001
13300746.000	9.157929e-001	3.866239e-001
13306740.000	9.159133e-001	3.864495e-001
13312734.000	9.159726e-001	3.862852e-001
13318728.000	9.160044e-001	3.860766e-001
13324722.000	9.160865e-001	3.859020e-001
13330716.000	9.161565e-001	3.857237e-001
13336710.000	9.162524e-001	3.855575e-001
13342704.000	9.163480e-001	3.853269e-001
13348698.000	9.164065e-001	3.851337e-001
13354692.000	9.164705e-001	3.849373e-001
13360686.000	9.165515e-001	3.847693e-001
13366680.000	9.166309e-001	3.846294e-001
13372674.000	9.166832e-001	3.843744e-001
13378668.000	9.167657e-001	3.842052e-001
13384662.000	9.168768e-001	3.841032e-001
13390656.000	9.168760e-001	3.838676e-001
13396650.000	9.169344e-001	3.836732e-001
13402644.000	9.170696e-001	3.834239e-001
13408638.000	9.171494e-001	3.833038e-001
13414632.000	9.172092e-001	3.831100e-001
13420626.000	9.173118e-001	3.828865e-001
13426620.000	9.174008e-001	3.827033e-001
13432614.000	9.174868e-001	3.825498e-001
13438608.000	9.175413e-001	3.823883e-001
13444602.000	9.175968e-001	3.821755e-001
13450596.000	9.175955e-001	3.819841e-001
13456590.000	9.177226e-001	3.817933e-001
13462584.000	9.177672e-001	3.815614e-001
13468578.000	9.178597e-001	3.814523e-001
13474572.000	9.179377e-001	3.812388e-001
13480566.000	9.179981e-001	3.810616e-001
13486560.000	9.180961e-001	3.808939e-001
13492554.000	9.181858e-001	3.806863e-001
13498548.000	9.182528e-001	3.804841e-001
13504542.000	9.182773e-001	3.803645e-001
13510536.000	9.183438e-001	3.802110e-001
13516530.000	9.184100e-001	3.799782e-001
13522524.000	9.185359e-001	3.798163e-001
13528518.000	9.185950e-001	3.796285e-001
13534512.000	9.186747e-001	3.794194e-001
13540506.000	9.186861e-001	3.791880e-001
13546500.000	9.188224e-001	3.790951e-001
13552494.000	9.189033e-001	3.789104e-001
13558488.000	9.189622e-001	3.787287e-001
13564482.000	9.190331e-001	3.784963e-001
13570476.000	9.190999e-001	3.783292e-001
13576470.000	9.191765e-001	3.781653e-001
13582464.000	9.192288e-001	3.779731e-001
13588458.000	9.192754e-001	3.777714e-001
13594452.000	9.193441e-001	3.775730e-001
13600446.000	9.194653e-001	3.774459e-001
13606440.000	9.195235e-001	3.772264e-001
13612434.000	9.195903e-001	3.771092e-001
13618428.000	9.196848e-001	3.768479e-001
13624422.000	9.197627e-001	3.766916e-001
13630416.000	9.197938e-001	3.765042e-001
13636410.000	9.198254e-001	3.763215e-001
13642404.000	9.199295e-001	3.761302e-001
13648398.000	9.199599e-001	3.759297e-001
13654392.000	9.200866e-001	3.757593e-001
13660386.000	9.201407e-001	3.756077e-001
13666380.000	9.201222e-001	3.754214e-001
13672374.000	9.202507e-001	3.752412e-001
13678368.000	9.203454e-001	3.750670e-001
13684362.000	9.204011e-001	3.749066e-001
13690356.000	9.204684e-001	3.747448e-001
13696350.000	9.204908e-001	3.745619e-001
13702344.000	9.205965e-001	3.743615e-001
13708338.000	9.207050e-001	3.741463e-001
13714332.000	9.207676e-001	3.740123e-001
13720326.000	9.208211e-001	3.738385e-001
13726320.000	9.209015e-001	3.736750e-001
13732314.000	9.209504e-001	3.734521e-001
13738308.000	9.209948e-001	3.732802e-001
13744302.000	9.210649e-001	3.730758e-001
13750296.000	9.211197e-001	3.729016e-001
13756290.000	9.212203e-001	3.727458e-001
13762284.000	9.213002e-001	3.725600e-001
13768278.000	9.213374e-001	3.724068e-001
13774272.000	9.214463e-001	3.722033e-001
13780266.000	9.214820e-001	3.719881e-001
13786260.000	9.215974e-001	3.718291e-001
13792254.000	9.216310e-001	3.716854e-001
13798248.000	9.217455e-001	3.714954e-001
13804242.000	9.217300e-001	3.713515e-001
13810236.000	9.217654e-001	3.711569e-001
13816230.000	9.219073e-001	3.710118e-001
13822224.000	9.219599e-001	3.707992e-001
13828218.000	9.220009e-001	3.705581e-001
13834212.000	9.221098e-001	3.704267e-001
13840206.000	9.221851e-001	3.702264e-001
13846200.000	9.222283e-001	3.701301e-001
13852194.000	9.223313e-001	3.698971e-001
13858188.000	9.223549e-001	3.697341e-001
13864182.000	9.223890e-001	3.695144e-001
13870176.000	9.224941e-001	3.693983e-001
13876170.000	9.225966e-001	3.692107e-001
13882164.000	9.226698e-001	3.690560e-001
13888158.000	9.226772e-001	3.688668e-001
13894152.000	9.227840e-001	3.686726e-001
13900146.000	9.228315e-001	3.685324e-001
13906140.000	9.229404e-001	3.683132e-001
13912134.000	9.229504e-001	3.681761e-001
13918128.000	9.230372e-001	3.680031e-001
13924122.000	9.231080e-001	3.678120e-001
13930116.000	9.231839e-001	3.676547e-001
13936110.000	9.232010e-001	3.674524e-001
13942104.000	9.232910e-001	3.672932e-001
13948098.000	9.233144e-001	3.670776e-001
13954092.000	9.233560e-001	3.669083e-001
13960086.000	9.234822e-001	3.667805e-001
13966080.000	9.235553e-001	3.666222e-001
13972074.000	9.236231e-001	3.664097e-001
13978068.000	9.236969e-001	3.662192e-001
13984062.000	9.237706e-001	3.660334e-001
13990056.000	9.237943e-001	3.658987e-001
13996050.000	9.238805e-001	3.657398e-001
14002044.000	9.239437e-001	3.655285e-001
14008038.000	9.239934e-001	3.653633e-001
14014032.000	9.240761e-001	3.652031e-001
14020026.000	9.241222e-001	3.650201e-001
14026020.000	9.241600e-001	3.648860e-001
14032014.000	9.242776e-001	3.646725e-001
14038008.000	9.243246e-001	3.645558e-001
14044002.000	9.243783e-001	3.643507e-001
14049996.000	9.244447e-001	3.642046e-001
14055990.000	9.245021e-001	3.640196e-001
14061984.000	9.245621e-001	3.638311e-001
14067978.000	9.246641e-001	3.637111e-001
14073972.000	9.246559e-001	3.635376e-001
14079966.000	9.247530e-001	3.632787e-001
14085960.000	9.248236e-001	3.631755e-001
14091954.000	9.248338e-001	3.629699e-001
14097948.000	9.249230e-001	3.627886e-001
14103942.000	9.249881e-001	3.626102e-001
14109936.000	9.250516e-001	3.624218e-001
14115930.000	9.251367e-001	3.623052e-001
14121924.000	9.251691e-001	3.621042e-001
14127918.000	9.252511e-001	3.619524e-001
14133912.000	9.253399e-001	3.617568e-001
14139906.000	9.253715e-001	3.615924e-001
14145900.000	9.253875e-001	3.614433e-001
14151894.000	9.254743e-001	3.612421e-001
14157888.000	9.255114e-001	3.610900e-001
14163882.000	9.255968e-001	3.608942e-001
14169876.000	9.256786e-001	3.607425e-001
14175870.000	9.257043e-001	3.605824e-001
14181864.000	9.257992e-001	3.604140e-001
14187858.000	9.258715e-001	3.602339e-001
14193852.000	9.259010e-001	3.600890e-001
14199846.000	9.260052e-001	3.599168e-001
14205840.000	9.261255e-001	3.597484e-001
14211834.000	9.260792e-001	3.595559e-001
14217828.000	9.262014e-001	3.595202e-001
14223822.000	9.262408e-001	3.592768e-001
14229816.000	9.262974e-001	3.591294e-001
14235810.000	9.263204e-001	3.589110e-001
14241804.000	9.264282e-001	3.587608e-001
14247798.000	9.264386e-001	3.585780e-001
14253792.000	9.265433e-001	3.584217e-001
14259786.000	9.266212e-001	3.582164e-001
14265780.000	9.266699e-001	3.581121e-001
14271774.000	9.267664e-001	3.579089e-001
14277768.000	9.267639e-001	3.577375e-001
14283762.000	9.268346e-001	3.575806e-001
14289756.000	9.268670e-001	3.574021e-001
14295750.000	9.269731e-001	3.572575e-001
14301744.000	9.271287e-001	3.572269e-001
14307738.000	9.271385e-001	3.569626e-001
14313732.000	9.271460e-001	3.567506e-001
14319726.000	9.272207e-001	3.565808e-001
14325720.000	9.272952e-001	3.563779e-001
14331714.000	9.273529e-001	3.562430e-001
14337708.000	9.273928e-001	3.560956e-001
14343702.000	9.274543e-001	3.559150e-001
14349696.000	9.274910e-001	3.557445e-001
14355690.000	9.275894e-001	3.555839e-001
14361684.000	9.276780e-001	3.554241e-001
14367678.000	9.277165e-001	3.552885e-001
14373672.000	9.277526e-001	3.551098e-001
14379666.000	9.277826e-001	3.549370e-001
14385660.000	9.279013e-001	3.547974e-001
14391654.000	9.279194e-001	3.545216e-001
14397648.000	9.280213e-001	3.544226e-001
14403642.000	9.280569e-001	3.542935e-001
14409636.000	9.280721e-001	3.540756e-001
14415630.000	9.281459e-001	3.539050e-001
14421624.000	9.282253e-001	3.537655e-001
14427618.000	9.282532e-001	3.535797e-001
14433612.000	9.283239e-001	3.534507e-001
14439606.000	9.283637e-001	3.532938e-001
14445600.000	9.284787e-001	3.530829e-001
14451594.000	9.284709e-001	3.528956e-001
14457588.000	9.285241e-001	3.527569e-001
14463582.000	9.286268e-001	3.526041e-001
14469576.000	9.286947e-001	3.524827e-001
14475570.000	9.287289e-001	3.522884e-001
14481564.000	9.288473e-001	3.521341e-001
14487558.000	9.288690e-001	3.519649e-001
14493552.000	9.288884e-001	3.517618e-001
14499546.000	9.289865e-001	3.516703e-001
14505540.000	9.290122e-001	3.515134e-001
14511534.000	9.291139e-001	3.513414e-001
14517528.000	9.291020e-001	3.511812e-001
14523522.000	9.291793e-001	3.510000e-001
14529516.000	9.292114e-001	3.508230e-001
14535510.000	9.292909e-001	3.506938e-001
14541504.000	9.292953e-001	3.504551e-001
14547498.000	9.293548e-001	3.503383e-001
14553492.000	9.294742e-001	3.501424e-001
14559486.000	9.294949e-001	3.499714e-001
14565480.000	9.295929e-001	3.498372e-001
14571474.000	9.296276e-001	3.496910e-001
14577468.000	9.296502e-001	3.494898e-001
14583462.000	9.297255e-001	3.493426e-001
14589456.000	9.297774e-001	3.492127e-001
14595450.000	9.298211e-001	3.490241e-001
14601444.000	9.298894e-001	3.488692e-001
14607438.000	9.299565e-001	3.486747e-001
14613432.000	9.300274e-001	3.485945e-001
14619426.000	9.300920e-001	3.484175e-001
14625420.000	9.301396e-001	3.482171e-001
14631414.000	9.301726e-001	3.480399e-001
14637408.000	9.302711e-001	3.479054e-001
14643402.000	9.303573e-001	3.477901e-001
14649396.000	9.303762e-001	3.476212e-001
14655390.000	9.304100e-001	3.474573e-001
14661384.000	9.304905e-001	3.472428e-001
14667378.000	9.305388e-001	3.471448e-001
14673372.000	9.305979e-001	3.469016e-001
14679366.000	9.306310e-001	3.467778e-001
14685360.000	9.306961e-001	3.466250e-001
14691354.000	9.307644e-001	3.464883e-001
14697348.000	9.308113e-001	3.462914e-001
14703342.000	9.308866e-001	3.461670e-001
14709336.000	9.308874e-001	3.459479e-001
14715330.000	9.309634e-001	3.458230e-001
14721324.000	9.310074e-001	3.456629e-001
14727318.000	9.311326e-001	3.455177e-001
14733312.000	9.311618e-001	3.453218e-001
14739306.000	9.311985e-001	3.452134e-001
14745300.000	9.312539e-001	3.450457e-001
14751294.000	9.313330e-001	3.448833e-001
14757288.000	9.313702e-001	3.447316e-001
14763282.000	9.314081e-001	3.445755e-001
14769276.000	9.314697e-001	3.444284e-001
14775270.000	9.314985e-001	3.442842e-001
14781264.000	9.315620e-001	3.441005e-001
14787258.000	9.316165e-001	3.439172e-001
14793252.000	9.316180e-001	3.438071e-001
14799246.000	9.317284e-001	3.436290e-001
14805240.000	9.318527e-001	3.435708e-001
14811234.000	9.318354e-001	3.433037e-001
14817228.000	9.318823e-001	3.431346e-001
14823222.000	9.319115e-001	3.429676e-001
14829216.000	9.319462e-001	3.428178e-001
14835210.000	9.319897e-001	3.426460e-001
14841204.000	9.320657e-001	3.425036e-001
14847198.000	9.320937e-001	3.423117e-001
14853192.000	9.321576e-001	3.421739e-001
14859186.000	9.322401e-001	3.420667e-001
14865180.000	9.322556e-001	3.418712e-001
14871174.000	9.323278e-001	3.417033e-001
14877168.000	9.323541e-001	3.415509e-001
14883162.000	9.324662e-001	3.414058e-001
14889156.000	9.324910e-001	3.412648e-001
14895150.000	9.325374e-001	3.410974e-001
14901144.000	9.325277e-001	3.409241e-001
14907138.000	9.326283e-001	3.407956e-001
14913132.000	9.326729e-001	3.406759e-001
14919126.000	9.327073e-001	3.404888e-001
14925120.000	9.327634e-001	3.403234e-001
14931114.000	9.327750e-001	3.401675e-001
14937108.000	9.328467e-001	3.399430e-001
14943102.000	9.329157e-001	3.398277e-001
14949096.000	9.330057e-001	3.396522e-001
14955090.000	9.330290e-001	3.395150e-001
14961084.000	9.330620e-001	3.393472e-001
14967078.000	9.331602e-001	3.391999e-001
14973072.000	9.331569e-001	3.390819e-001
14979066.000	9.331961e-001	3.388626e-001
14985060.000	9.332514e-001	3.387267e-001
14991054.000	9.333607e-001	3.385929e-001
14997048.000	9.334154e-001	3.384305e-001
15003042.000	9.334842e-001	3.382726e-001
15009036.000	9.335012e-001	3.381138e-001
15015030.000	9.335199e-001	3.379687e-001
15021024.000	9.335938e-001	3.378194e-001
15027018.000	9.336135e-001	3.376793e-001
15033012.000	9.336931e-001	3.375218e-001
15039006.000	9.338011e-001	3.373692e-001
15045000.000	9.338370e-001	3.372652e-001
15050994.000	9.338877e-001	3.370854e-001
15056988.000	9.338984e-001	3.369294e-001
15062982.000	9.339371e-001	3.367704e-001
15068976.000	9.339843e-001	3.366012e-001
15074970.000	9.340035e-001	3.364301e-001
15080964.000	9.340610e-001	3.362774e-001
15086958.000	9.341270e-001	3.361286e-001
15092952.000	9.342044e-001	3.360152e-001
15098946.000	9.342780e-001	3.358475e-001
15104940.000	9.342992e-001	3.356744e-001
15110934.000	9.343047e-001	3.355560e-001
15116928.000	9.344135e-001	3.353817e-001
15122922.000	9.344469e-001	3.352440e-001
15128916.000	9.344764e-001	3.350317e-001
15134910.000	9.344982e-001	3.349534e-001
15140904.000	9.345906e-001	3.347641e-001
15146898.000	9.346040e-001	3.346544e-001
15152892.000	9.346555e-001	3.344752e-001
15158886.000	9.347630e-001	3.343465e-001
15164880.000	9.348007e-001	3.341512e-001
15170874.000	9.348342e-001	3.340182e-001
15176868.000	9.349133e-001	3.338815e-001
15182862.000	9.349972e-001	3.337379e-001
15188856.000	9.349966e-001	3.335945e-001
15194850.000	9.350361e-001	3.334792e-001
15200844.000	9.350978e-001	3.332871e-001
15206838.000	9.351576e-001	3.331539e-001
15212832.000	9.351489e-001	3.329815e-001
15218826.000	9.352011e-001	3.328322e-001
15224820.000	9.352440e-001	3.326843e-001
15230814.000	9.352574e-001	3.325435e-001
15236808.000	9.353504e-001	3.323844e-001
15242802.000	9.354078e-001	3.322564e-001
15248796.000	9.354697e-001	3.320843e-001
15254790.000	9.355664e-001	3.319648e-001
15260784.000	9.356172e-001	3.318083e-001
15266778.000	9.355966e-001	3.316380e-001
15272772.000	9.356691e-001	3.314857e-001
15278766.000	9.356992e-001	3.313053e-001
15284760.000	9.357620e-001	3.311594e-001
15290754.000	9.358157e-001	3.310551e-001
15296748.000	9.358463e-001	3.308566e-001
15302742.000	9.359181e-001	3.307174e-001
15308736.000	9.359602e-001	3.305514e-001
15314730.000	9.359899e-001	3.304392e-001
15320724.000	9.360478e-001	3.302877e-001
15326718.000	9.361106e-001	3.301479e-001
15332712.000	9.361195e-001	3.299698e-001
15338706.000	9.361925e-001	3.298305e-001
15344700.000	9.362374e-001	3.296842e-001
15350694.000	9.362515e-001	3.295819e-001
15356688.000	9.362912e-001	3.293360e-001
15362682.000	9.363707e-001	3.292424e-001
15368676.000	9.364426e-001	3.290992e-001
15374670.000	9.364687e-001	3.289695e-001
15380664.000	9.367147e-001	3.289778e-001
15386658.000	9.366806e-001	3.286825e-001
15392652.000	9.366280e-001	3.285393e-001
15398646.000	9.367088e-001	3.283792e-001
15404640.000	9.367185e-001	3.282386e-001
15410634.000	9.367888e-001	3.280814e-001
15416628.000	9.368248e-001	3.278967e-001
15422622.000	9.368535e-001	3.277743e-001
15428616.000	9.369100e-001	3.276769e-001
15434610.000	9.369460e-001	3.275072e-001
15440604.000	9.370191e-001	3.273488e-001
15446598.000	9.370762e-001	3.272345e-001
15452592.000	9.370786e-001	3.270451e-001
15458586.000	9.371203e-001	3.269442e-001
15464580.000	9.371903e-001	3.267606e-001
15470574.000	9.372547e-001	3.265963e-001
15476568.000	9.372702e-001	3.264477e-001
15482562.000	9.372788e-001	3.262744e-001
15488556.000	9.373895e-001	3.261817e-001
15494550.000	9.374117e-001	3.260021e-001
15500544.000	9.374487e-001	3.258845e-001
15506538.000	9.374873e-001	3.257248e-001
15512532.000	9.375660e-001	3.255598e-001
15518526.000	9.376027e-001	3.254065e-001
15524520.000	9.376215e-001	3.252589e-001
15530514.000	9.377083e-001	3.251679e-001
15536508.000	9.377236e-001	3.249770e-001
15542502.000	9.377077e-001	3.248273e-001
15548496.000	9.378057e-001	3.246723e-001
15554490.000	9.378639e-001	3.245624e-001
15560484.000	9.378761e-001	3.244088e-001
15566478.000	9.379053e-001	3.242349e-001
15572472.000	9.379552e-001	3.241237e-001
15578466.000	9.380125e-001	3.239778e-001
15584460.000	9.380271e-001	3.237840e-001
15590454.000	9.381026e-001	3.236752e-001
15596448.000	9.381220e-001	3.235645e-001
15602442.000	9.381503e-001	3.234278e-001
15608436.000	9.382699e-001	3.232729e-001
15614430.000	9.382870e-001	3.231087e-001
15620424.000	9.383295e-001	3.229723e-001
15626418.000	9.383430e-001	3.228426e-001
15632412.000	9.384096e-001	3.227054e-001
15638406.000	9.384625e-001	3.225817e-001
15644400.000	9.384955e-001	3.224329e-001
15650394.000	9.385554e-001	3.222900e-001
15656388.000	9.385614e-001	3.221024e-001
15662382.000	9.386421e-001	3.219779e-001
15668376.000	9.386321e-001	3.217638e-001
15674370.000	9.386711e-001	3.216579e-001
15680364.000	9.387136e-001	3.214874e-001
15686358.000	9.387698e-001	3.213397e-001
15692352.000	9.388128e-001	3.212368e-001
15698346.000	9.389072e-001	3.211345e-001
15704340.000	9.389203e-001	3.209540e-001
15710334.000	9.390290e-001	3.208264e-001
15716328.000	9.390414e-001	3.206127e-001
15722322.000	9.391036e-001	3.205557e-001
15728316.000	9.391190e-001	3.203575e-001
15734310.000	9.391223e-001	3.201907e-001
15740304.000	9.391513e-001	3.200899e-001
15746298.000	9.392035e-001	3.199674e-001
15752292.000	9.392535e-001	3.198072e-001
15758286.000	9.393233e-001	3.196926e-001
15764280.000	9.394251e-001	3.195550e-001
15770274.000	9.394405e-001	3.194587e-001
15776268.000	9.394633e-001	3.192435e-001
15782262.000	9.394801e-001	3.191390e-001
15788256.000	9.396537e-001	3.189709e-001
15794250.000	9.396124e-001	3.188716e-001
15800244.000	9.396381e-001	3.186912e-001
15806238.000	9.397123e-001	3.185958e-001
15812232.000	9.397593e-001	3.184094e-001
15818226.000	9.398313e-001	3.183145e-001
15824220.000	9.398695e-001	3.181245e-001
15830214.000	9.399209e-001	3.180064e-001
15836208.000	9.399096e-001	3.178689e-001
15842202.000	9.400280e-001	3.176833e-001
15848196.000	9.400698e-001	3.175989e-001
15854190.000	9.400538e-001	3.174366e-001
15860184.000	9.401157e-001	3.173128e-001
15866178.000	9.401535e-001	3.171910e-001
15872172.000	9.401827e-001	3.169910e-001
15878166.000	9.402603e-001	3.168867e-001
15884160.000	9.402401e-001	3.166963e-001
15890154.000	9.403202e-001	3.165667e-001
15896148.000	9.403962e-001	3.164393e-001
15902142.000	9.404096e-001	3.163239e-001
15908136.000	9.404623e-001	3.161333e-001
15914130.000	9.405194e-001	3.160899e-001
15920124.000	9.405445e-001	3.159089e-001
15926118.000	9.405316e-001	3.157864e-001
15932112.000	9.405978e-001	3.156252e-001
15938106.000	9.406270e-001	3.154574e-001
15944100.000	9.406717e-001	3.153262e-001
15950094.000	9.406729e-001	3.152261e-001
15956088.000	9.407524e-001	3.150551e-001
15962082.000	9.408061e-001	3.149271e-001
15968076.000	9.408215e-001	3.147964e-001
15974070.000	9.408653e-001	3.146449e-001
15980064.000	9.409381e-001	3.145363e-001
15986058.000	9.409354e-001	3.143722e-001
15992052.000	9.410058e-001	3.142117e-001
15998046.000	9.410189e-001	3.141205e-001
16004040.000	9.411221e-001	3.139679e-001
16010034.000	9.411575e-001	3.138283e-001
16016028.000	9.411646e-001	3.136745e-001
16022022.000	9.411848e-001	3.135829e-001
16028016.000	9.413448e-001	3.134330e-001
16034010.000	9.413078e-001	3.132724e-001
16040004.000	9.413088e-001	3.131305e-001
16045998.000	9.413642e-001	3.130067e-001
16051992.000	9.414368e-001	3.128274e-001
16057986.000	9.414494e-001	3.127402e-001
16063980.000	9.414710e-001	3.125637e-001
16069974.000	9.415578e-001	3.124813e-001
16075968.000	9.415541e-001	3.122890e-001
16081962.000	9.415921e-001	3.121718e-001
16087956.000	9.416157e-001	3.120062e-001
16093950.000	9.417024e-001	3.118858e-001
16099944.000	9.417172e-001	3.117318e-001
16105938.000	9.417084e-001	3.115970e-001
16111932.000	9.417809e-001	3.114260e-001
16117926.000	9.418624e-001	3.113441e-001
16123920.000	9.418815e-001	3.112359e-001
16129914.000	9.419074e-001	3.110895e-001
16135908.000	9.419362e-001	3.109163e-001
16141902.000	9.419288e-001	3.107703e-001
16147896.000	9.420579e-001	3.106891e-001
16153890.000	9.420630e-001	3.104891e-001
16159884.000	9.421520e-001	3.103763e-001
16165878.000	9.421518e-001	3.102707e-001
16171872.000	9.421850e-001	3.101272e-001
16177866.000	9.421972e-001	3.099744e-001
16183860.000	9.422674e-001	3.098748e-001
16189854.000	9.423791e-001	3.097409e-001
16195848.000	9.423779e-001	3.095700e-001
16201842.000	9.423805e-001	3.094515e-001
16207836.000	9.424241e-001	3.092548e-001
16213830.000	9.423962e-001	3.091723e-001
16219824.000	9.425200e-001	3.090730e-001
16225818.000	9.425072e-001	3.088796e-001
16231812.000	9.425753e-001	3.087428e-001
16237806.000	9.426481e-001	3.086390e-001
16243800.000	9.426705e-001	3.084889e-001
16249794.000	9.426878e-001	3.083703e-001
16255788.000	9.427112e-001	3.082376e-001
16261782.000	9.427990e-001	3.081385e-001
16267776.000	9.427997e-001	3.079588e-001
16273770.000	9.428708e-001	3.078635e-001
16279764.000	9.428677e-001	3.076699e-001
16285758.000	9.429075e-001	3.075402e-001
16291752.000	9.430071e-001	3.074245e-001
16297746.000	9.429877e-001	3.072952e-001
16303740.000	9.430259e-001	3.071388e-001
16309734.000	9.430851e-001	3.069966e-001
16315728.000	9.431363e-001	3.068887e-001
16321722.000	9.432230e-001	3.067807e-001
16327716.000	9.431813e-001	3.066206e-001
16333710.000	9.431973e-001	3.064881e-001
16339704.000	9.432681e-001	3.063611e-001
16345698.000	9.433266e-001	3.062293e-001
16351692.000	9.433510e-001	3.060726e-001
16357686.000	9.433766e-001	3.059711e-001
16363680.000	9.434276e-001	3.058513e-001
16369674.000	9.434791e-001	3.057083e-001
16375668.000	9.435009e-001	3.055577e-001
16381662.000	9.435188e-001	3.054329e-001
16387656.000	9.435606e-001	3.052811e-001
16393650.000	9.436383e-001	3.051975e-001
16399644.000	9.436533e-001	3.050484e-001
16405638.000	9.436960e-001	3.049066e-001
16411632.000	9.437262e-001	3.047653e-001
16417626.000	9.437424e-001	3.046419e-001
16423620.000	9.438300e-001	3.045000e-001
16429614.000	9.438352e-001	3.043381e-001
16435608.000	9.438723e-001	3.042346e-001
16441602.000	9.439154e-001	3.041195e-001
16447596.000	9.440111e-001	3.039555e-001
16453590.000	9.439850e-001	3.038745e-001
16459584.000	9.440011e-001	3.037282e-001
16465578.000	9.440723e-001	3.036440e-001
16471572.000	9.440697e-001	3.034181e-001
16477566.000	9.441313e-001	3.033071e-001
16483560.000	9.440925e-001	3.031621e-001
16489554.000	9.442227e-001	3.031152e-001
16495548.000	9.442366e-001	3.029285e-001
16501542.000	9.442719e-001	3.027998e-001
16507536.000	9.442941e-001	3.026704e-001
16513530.000	9.443057e-001	3.025415e-001
16519524.000	9.443409e-001	3.024267e-001
16525518.000	9.444169e-001	3.023040e-001
16531512.000	9.444350e-001	3.021767e-001
16537506.000	9.445448e-001	3.020263e-001
16543500.000	9.444546e-001	3.018820e-001
16549494.000	9.445073e-001	3.017492e-001
16555488.000	9.446261e-001	3.016504e-001
16561482.000	9.446236e-001	3.015218e-001
16567476.000	9.446734e-001	3.013568e-001
16573470.000	9.447300e-001	3.012455e-001
16579464.000	9.447638e-001	3.011444e-001
16585458.000	9.448428e-001	3.010094e-001
16591452.000	9.447823e-001	3.008147e-001
16597446.000	9.448609e-001	3.006837e-001
16603440.000	9.449161e-001	3.006135e-001
16609434.000	9.449137e-001	3.004177e-001
16615428.000	9.449614e-001	3.003218e-001
16621422.000	9.450371e-001	3.002180e-001
16627416.000	9.450317e-001	3.000432e-001
16633410.000	9.450519e-001	2.998843e-001
16639404.000	9.451342e-001	2.998224e-001
16645398.000	9.451435e-001	2.997220e-001
16651392.000	9.451702e-001	2.995199e-001
16657386.000	9.452204e-001	2.994242e-001
16663380.000	9.452410e-001	2.993143e-001
16669374.000	9.452433e-001	2.991293e-001
16675368.000	9.453045e-001	2.991019e-001
16681362.000	9.453585e-001	2.989165e-001
16687356.000	9.453945e-001	2.987757e-001
16693350.000	9.454216e-001	2.986921e-001
16699344.000	9.454488e-001	2.984670e-001
16705338.000	9.455112e-001	2.983843e-001
16711332.000	9.455833e-001	2.982954e-001
16717326.000	9.456131e-001	2.981665e-001
16723320.000	9.456148e-001	2.980597e-001
16729314.000	9.456665e-001	2.978954e-001
16735308.000	9.456512e-001	2.977663e-001
16741302.000	9.457403e-001	2.976512e-001
16747296.000	9.457936e-001	2.974923e-001
16753290.000	9.458248e-001	2.974290e-001
16759284.000	9.458739e-001	2.972563e-001
16765278.000	9.458558e-001	2.970929e-001
16771272.000	9.459061e-001	2.970016e-001
16777266.000	9.459268e-001	2.968497e-001
16783260.000	9.459991e-001	2.967476e-001
16789254.000	9.460478e-001	2.965887e-001
16795248.000	9.460938e-001	2.965077e-001
16801242.000	9.460856e-001	2.963599e-001
16807236.000	9.461262e-001	2.961978e-001
16813230.000	9.461722e-001	2.961224e-001
16819224.000	9.461624e-001	2.959781e-001
16825218.000	9.462037e-001	2.958721e-001
16831212.000	9.462063e-001	2.957263e-001
16837206.000	9.462873e-001	2.956292e-001
16843200.000	9.463136e-001	2.954567e-001
16849194.000	9.463497e-001	2.953357e-001
16855188.000	9.463855e-001	2.952271e-001
16861182.000	9.464204e-001	2.951097e-001
16867176.000	9.464561e-001	2.950026e-001
16873170.000	9.464618e-001	2.948294e-001
16879164.000	9.465328e-001	2.947485e-001
16885158.000	9.465952e-001	2.946130e-001
16891152.000	9.465805e-001	2.944931e-001
16897146.000	9.465964e-001	2.943016e-001
16903140.000	9.468072e-001	2.943078e-001
16909134.000	9.467154e-001	2.940895e-001
16915128.000	9.467025e-001	2.939742e-001
16921122.000	9.467595e-001	2.938561e-001
16927116.000	9.467685e-001	2.937423e-001
16933110.000	9.468362e-001	2.936271e-001
16939104.000	9.468622e-001	2.934673e-001
16945098.000	9.468578e-001	2.933187e-001
16951092.000	9.469046e-001	2.931666e-001
16957086.000	9.469942e-001	2.930794e-001
16963080.000	9.470001e-001	2.929448e-001
16969074.000	9.470225e-001	2.928965e-001
16975068.000	9.470590e-001	2.926733e-001
16981062.000	9.470257e-001	2.925508e-001
16987056.000	9.471383e-001	2.924434e-001
16993050.000	9.471417e-001	2.923595e-001
16999044.000	9.471420e-001	2.922190e-001
17005038.000	9.472309e-001	2.920789e-001
17011032.000	9.472358e-001	2.919679e-001
17017026.000	9.472831e-001	2.918936e-001
17023020.000	9.472901e-001	2.917148e-001
17029014.000	9.473780e-001	2.915897e-001
17035008.000	9.473919e-001	2.914510e-001
17041002.000	9.473910e-001	2.913483e-001
17046996.000	9.474184e-001	2.912379e-001
17052990.000	9.474562e-001	2.911233e-001
17058984.000	9.475279e-001	2.910076e-001
17064978.000	9.475589e-001	2.908362e-001
17070972.000	9.476375e-001	2.907621e-001
17076966.000	9.476330e-001	2.906058e-001
17082960.000	9.476224e-001	2.904742e-001
17088954.000	9.477129e-001	2.903582e-001
17094948.000	9.477434e-001	2.902212e-001
17100942.000	9.477639e-001	2.901353e-001
17106936.000	9.478410e-001	2.900058e-001
17112930.000	9.478415e-001	2.898630e-001
17118924.000	9.478607e-001	2.897574e-001
17124918.000	9.478583e-001	2.896604e-001
17130912.000	9.479870e-001	2.894778e-001
17136906.000	9.480180e-001	2.894353e-001
17142900.000	9.480201e-001	2.892722e-001
17148894.000	9.480155e-001	2.891390e-001
17154888.000	9.480795e-001	2.890012e-001
17160882.000	9.481456e-001	2.889232e-001
17166876.000	9.481515e-001	2.887869e-001
17172870.000	9.481864e-001	2.886853e-001
17178864.000	9.482423e-001	2.885515e-001
17184858.000	9.482314e-001	2.884396e-001
17190852.000	9.483024e-001	2.883094e-001
17196846.000	9.482882e-001	2.881818e-001
17202840.000	9.483472e-001	2.880498e-001
17208834.000	9.483883e-001	2.879143e-001
17214828.000	9.483960e-001	2.878089e-001
17220822.000	9.484306e-001	2.876995e-001
17226816.000	9.483890e-001	2.875204e-001
17232810.000	9.485242e-001	2.873852e-001
17238804.000	9.485481e-001	2.873328e-001
17244798.000	9.485531e-001	2.871922e-001
17250792.000	9.485529e-001	2.870563e-001
17256786.000	9.486341e-001	2.869377e-001
17262780.000	9.485893e-001	2.867910e-001
17268774.000	9.486357e-001	2.866998e-001
17274768.000	9.486576e-001	2.865514e-001
17280762.000	9.487768e-001	2.864706e-001
17286756.000	9.487732e-001	2.863916e-001
17292750.000	9.488096e-001	2.862373e-001
17298744.000	9.488958e-001	2.861203e-001
17304738.000	9.489033e-001	2.860018e-001
17310732.000	9.489520e-001	2.858655e-001
17316726.000	9.489145e-001	2.857612e-001
17322720.000	9.489733e-001	2.856269e-001
17328714.000	9.489897e-001	2.855202e-001
17334708.000	9.490458e-001	2.853876e-001
17340702.000	9.490356e-001	2.852677e-001
17346696.000	9.490833e-001	2.851531e-001
17352690.000	9.490908e-001	2.850446e-001
17358684.000	9.491536e-001	2.849171e-001
17364678.000	9.491574e-001	2.847891e-001
17370672.000	9.492008e-001	2.846587e-001
17376666.000	9.492105e-001	2.845557e-001
17382660.000	9.492489e-001	2.844314e-001
17388654.000	9.493001e-001	2.843024e-001
17394648.000	9.492531e-001	2.841668e-001
17400642.000	9.493245e-001	2.840879e-001
17406636.000	9.493363e-001	2.839287e-001
17412630.000	9.493375e-001	2.838069e-001
17418624.000	9.493809e-001	2.837068e-001
17424618.000	9.494489e-001	2.835652e-001
17430612.000	9.494884e-001	2.834649e-001
17436606.000	9.495200e-001	2.833874e-001
17442600.000	9.495474e-001	2.832429e-001
17448594.000	9.495928e-001	2.831202e-001
17454588.000	9.496479e-001	2.829691e-001
17460582.000	9.496275e-001	2.828891e-001
17466576.000	9.496949e-001	2.827286e-001
17472570.000	9.497163e-001	2.826168e-001
17478564.000	9.497219e-001	2.825566e-001
17484558.000	9.497760e-001	2.823658e-001
17490552.000	9.497579e-001	2.822613e-001
17496546.000	9.498299e-001	2.821874e-001
17502540.000	9.498730e-001	2.820712e-001
17508534.000	9.498905e-001	2.819719e-001
17514528.000	9.499420e-001	2.818366e-001
17520522.000	9.499237e-001	2.816841e-001
17526516.000	9.499686e-001	2.815528e-001
17532510.000	9.500431e-001	2.814730e-001
17538504.000	9.500706e-001	2.813295e-001
17544498.000	9.501203e-001	2.812703e-001
17550492.000	9.500510e-001	2.810657e-001
17556486.000	9.501004e-001	2.809533e-001
17562480.000	9.501275e-001	2.808577e-001
17568474.000	9.502192e-001	2.807854e-001
17574468.000	9.502193e-001	2.806113e-001
17580462.000	9.502404e-001	2.805354e-001
17586456.000	9.502795e-001	2.804071e-001
17592450.000	9.503337e-001	2.803215e-001
17598444.000	9.503161e-001	2.801918e-001
17604438.000	9.504072e-001	2.800862e-001
17610432.000	9.503520e-001	2.799605e-001
17616426.000	9.504406e-001	2.798082e-001
17622420.000	9.504625e-001	2.797399e-001
17628414.000	9.504670e-001	2.795679e-001
17634408.000	9.505129e-001	2.794855e-001
17640402.000	9.505902e-001	2.793260e-001
17646396.000	9.506035e-001	2.792497e-001
17652390.000	9.506499e-001	2.791080e-001
17658384.000	9.506501e-001	2.790167e-001
17664378.000	9.506813e-001	2.789134e-001
17670372.000	9.506973e-001	2.787986e-001
17676366.000	9.507191e-001	2.786897e-001
17682360.000	9.507306e-001	2.785484e-001
17688354.000	9.508180e-001	2.784232e-001
17694348.000	9.507897e-001	2.783069e-001
17700342.000	9.508110e-001	2.781885e-001
17706336.000	9.509097e-001	2.781041e-001
17712330.000	9.508877e-001	2.779754e-001
17718324.000	9.509302e-001	2.778346e-001
17724318.000	9.509962e-001	2.777549e-001
17730312.000	9.510442e-001	2.776358e-001
17736306.000	9.510425e-001	2.775345e-001
17742300.000	9.510564e-001	2.773932e-001
17748294.000	9.510822e-001	2.772804e-001
17754288.000	9.510928e-001	2.771842e-001
17760282.000	9.511762e-001	2.770944e-001
17766276.000	9.511682e-001	2.769509e-001
17772270.000	9.511951e-001	2.768026e-001
17778264.000	9.512152e-001	2.766756e-001
17784258.000	9.512216e-001	2.765747e-001
17790252.000	9.512498e-001	2.764774e-001
17796246.000	9.513136e-001	2.763586e-001
17802240.000	9.513630e-001	2.762489e-001
17808234.000	9.513704e-001	2.761088e-001
17814228.000	9.513712e-001	2.760383e-001
17820222.000	9.514263e-001	2.759242e-001
17826216.000	9.514704e-001	2.757704e-001
17832210.000	9.514653e-001	2.756701e-001
17838204.000	9.514914e-001	2.755711e-001
17844198.000	9.515567e-001	2.754418e-001
17850192.000	9.515919e-001	2.753490e-001
17856186.000	9.515919e-001	2.751935e-001
17862180.000	9.516513e-001	2.751253e-001
17868174.000	9.516651e-001	2.749415e-001
17874168.000	9.516694e-001	2.748776e-001
17880162.000	9.517121e-001	2.747716e-001
17886156.000	9.517500e-001	2.746811e-001
17892150.000	9.517519e-001	2.745396e-001
17898144.000	9.517493e-001	2.744484e-001
17904138.000	9.518721e-001	2.743380e-001
17910132.000	9.518590e-001	2.741812e-001
17916126.000	9.519048e-001	2.741003e-001
17922120.000	9.518999e-001	2.739657e-001
17928114.000	9.518854e-001	2.738682e-001
17934108.000	9.519652e-001	2.737969e-001
17940102.000	9.520039e-001	2.736538e-001
17946096.000	9.520398e-001	2.735180e-001
17952090.000	9.520230e-001	2.734011e-001
17958084.000	9.520933e-001	2.733125e-001
17964078.000	9.520673e-001	2.731973e-001
17970072.000	9.521161e-001	2.730890e-001
17976066.000	9.520790e-001	2.729524e-001
17982060.000	9.521597e-001	2.728311e-001
17988054.000	9.522091e-001	2.727559e-001
17994048.000	9.521800e-001	2.725683e-001
18000042.000	9.522468e-001	2.725394e-001
18006036.000	9.522706e-001	2.724152e-001
18012030.000	9.523306e-001	2.723393e-001
18018024.000	9.523545e-001	2.721908e-001
18024018.000	9.523542e-001	2.720755e-001
18030012.000	9.523948e-001	2.719730e-001
18036006.000	9.523835e-001	2.718511e-001
18042000.000	9.524291e-001	2.717134e-001
18047994.000	9.523617e-001	2.715990e-001
18053988.000	9.524552e-001	2.714362e-001
18059982.000	9.525016e-001	2.713508e-001
18065976.000	9.525316e-001	2.712880e-001
18071970.000	9.525559e-001	2.711754e-001
18077964.000	9.526340e-001	2.710580e-001
18083958.000	9.526113e-001	2.709945e-001
18089952.000	9.526563e-001	2.708392e-001
18095946.000	9.527008e-001	2.707066e-001
18101940.000	9.526655e-001	2.706180e-001
18107934.000	9.527214e-001	2.705149e-001
18113928.000	9.527664e-001	2.703833e-001
18119922.000	9.527339e-001	2.703019e-001
18125916.000	9.527965e-001	2.701654e-001
18131910.000	9.528577e-001	2.700700e-001
18137904.000	9.528427e-001	2.699203e-001
18143898.000	9.528959e-001	2.698177e-001
18149892.000	9.529042e-001	2.696892e-001
18155886.000	9.529008e-001	2.695978e-001
18161880.000	9.529211e-001	2.694562e-001
18167874.000	9.529935e-001	2.694111e-001
18173868.000	9.530206e-001	2.692678e-001
18179862.000	9.530289e-001	2.691741e-001
18185856.000	9.530845e-001	2.690699e-001
18191850.000	9.531351e-001	2.689637e-001
18197844.000	9.531286e-001	2.688282e-001
18203838.000	9.531724e-001	2.686849e-001
18209832.000	9.532248e-001	2.685921e-001
18215826.000	9.531897e-001	2.684941e-001
18221820.000	9.532437e-001	2.683936e-001
18227814.000	9.533266e-001	2.682944e-001
18233808.000	9.532957e-001	2.681585e-001
18239802.000	9.532906e-001	2.680199e-001
18245796.000	9.533066e-001	2.679465e-001
18251790.000	9.533390e-001	2.678490e-001
18257784.000	9.533638e-001	2.677059e-001
18263778.000	9.533687e-001	2.675810e-001
18269772.000	9.533941e-001	2.675092e-001
18275766.000	9.534196e-001	2.673864e-001
18281760.000	9.534835e-001	2.673122e-001
18287754.000	9.535223e-001	2.671647e-001
18293748.000	9.535639e-001	2.670903e-001
18299742.000	9.536010e-001	2.669980e-001
18305736.000	9.535846e-001	2.668827e-001
18311730.000	9.536420e-001	2.667783e-001
18317724.000	9.536283e-001	2.666763e-001
18323718.000	9.536816e-001	2.665311e-001
18329712.000	9.537453e-001	2.664118e-001
18335706.000	9.537569e-001	2.663478e-001
18341700.000	9.537437e-001	2.662198e-001
18347694.000	9.537461e-001	2.660990e-001
18353688.000	9.538144e-001	2.660026e-001
18359682.000	9.537878e-001	2.658942e-001
18365676.000	9.537738e-001	2.657725e-001
18371670.000	9.538200e-001	2.656472e-001
18377664.000	9.539640e-001	2.655246e-001
18383658.000	9.539614e-001	2.654287e-001
18389652.000	9.539262e-001	2.653269e-001
18395646.000	9.539854e-001	2.652263e-001
18401640.000	9.539655e-001	2.651162e-001
18407634.000	9.539871e-001	2.650028e-001
18413628.000	9.540554e-001	2.648839e-001
18419622.000	9.541157e-001	2.647859e-001
18425616.000	9.541198e-001	2.646737e-001
18431610.000	9.541213e-001	2.645978e-001
18437604.000	9.540941e-001	2.644678e-001
18443598.000	9.541756e-001	2.643581e-001
18449592.000	9.541904e-001	2.642264e-001
18455586.000	9.542543e-001	2.641747e-001
18461580.000	9.542264e-001	2.640513e-001
18467574.000	9.542891e-001	2.639509e-001
18473568.000	9.543521e-001	2.638530e-001
18479562.000	9.543118e-001	2.637034e-001
18485556.000	9.543868e-001	2.636089e-001
18491550.000	9.543747e-001	2.634846e-001
18497544.000	9.543989e-001	2.634035e-001
18503538.000	9.544795e-001	2.633331e-001
18509532.000	9.544561e-001	2.632046e-001
18515526.000	9.544450e-001	2.631422e-001
18521520.000	9.545432e-001	2.629734e-001
18527514.000	9.545549e-001	2.628672e-001
18533508.000	9.545368e-001	2.627742e-001
18539502.000	9.544990e-001	2.626146e-001
18545496.000	9.545293e-001	2.625303e-001
18551490.000	9.545895e-001	2.624121e-001
18557484.000	9.546402e-001	2.622935e-001
18563478.000	9.546608e-001	2.621711e-001
18569472.000	9.546984e-001	2.620703e-001
18575466.000	9.547101e-001	2.620226e-001
18581460.000	9.547408e-001	2.618887e-001
18587454.000	9.547345e-001	2.618178e-001
18593448.000	9.547390e-001	2.617226e-001
18599442.000	9.547843e-001	2.615904e-001
18605436.000	9.547874e-001	2.614627e-001
18611430.000	9.547986e-001	2.613487e-001
18617424.000	9.548106e-001	2.612090e-001
18623418.000	9.548661e-001	2.611339e-001
18629412.000	9.548670e-001	2.610787e-001
18635406.000	9.549291e-001	2.609300e-001
18641400.000	9.549665e-001	2.608486e-001
18647394.000	9.549699e-001	2.607388e-001
18653388.000	9.549938e-001	2.606340e-001
18659382.000	9.550453e-001	2.605589e-001
18665376.000	9.550975e-001	2.604081e-001
18671370.000	9.550855e-001	2.603140e-001
18677364.000	9.551481e-001	2.602404e-001
18683358.000	9.551080e-001	2.600951e-001
18689352.000	9.551865e-001	2.599945e-001
18695346.000	9.551906e-001	2.599011e-001
18701340.000	9.551489e-001	2.598005e-001
18707334.000	9.551490e-001	2.597068e-001
18713328.000	9.552780e-001	2.595714e-001
18719322.000	9.552854e-001	2.594713e-001
18725316.000	9.552911e-001	2.593597e-001
18731310.000	9.553565e-001	2.592538e-001
18737304.000	9.553829e-001	2.591519e-001
18743298.000	9.553476e-001	2.590063e-001
18749292.000	9.553988e-001	2.589715e-001
18755286.000	9.554229e-001	2.588832e-001
18761280.000	9.554248e-001	2.587209e-001
18767274.000	9.555004e-001	2.586300e-001
18773268.000	9.554784e-001	2.584821e-001
18779262.000	9.554945e-001	2.584186e-001
18785256.000	9.555278e-001	2.583066e-001
18791250.000	9.555419e-001	2.582062e-001
18797244.000	9.555797e-001	2.581295e-001
18803238.000	9.556110e-001	2.579892e-001
18809232.000	9.556555e-001	2.579190e-001
18815226.000	9.556639e-001	2.577660e-001
18821220.000	9.556820e-001	2.576843e-001
18827214.000	9.556654e-001	2.575549e-001
18833208.000	9.557485e-001	2.574954e-001
18839202.000	9.557287e-001	2.573561e-001
18845196.000	9.557532e-001	2.572458e-001
18851190.000	9.558214e-001	2.571370e-001
18857184.000	9.558157e-001	2.570839e-001
18863178.000	9.558531e-001	2.569459e-001
18869172.000	9.558725e-001	2.568126e-001
18875166.000	9.559063e-001	2.567743e-001
18881160.000	9.559049e-001	2.566137e-001
18887154.000	9.559087e-001	2.565727e-001
18893148.000	9.558981e-001	2.564723e-001
18899142.000	9.560190e-001	2.563242e-001
18905136.000	9.560196e-001	2.562510e-001
18911130.000	9.560496e-001	2.561320e-001
18917124.000	9.560746e-001	2.561005e-001
18923118.000	9.561155e-001	2.559445e-001
18929112.000	9.560851e-001	2.558185e-001
18935106.000	9.561175e-001	2.557413e-001
18941100.000	9.561695e-001	2.556622e-001
18947094.000	9.561794e-001	2.555497e-001
18953088.000	9.562310e-001	2.554549e-001
18959082.000	9.562255e-001	2.553349e-001
18965076.000	9.561990e-001	2.552761e-001
18971070.000	9.562919e-001	2.551476e-001
18977064.000	9.563296e-001	2.550172e-001
18983058.000	9.563324e-001	2.549234e-001
18989052.000	9.563328e-001	2.548060e-001
18995046.000	9.564170e-001	2.547552e-001
19001040.000	9.564004e-001	2.546413e-001
19007034.000	9.563886e-001	2.545001e-001
19013028.000	9.564303e-001	2.544221e-001
19019022.000	9.564140e-001	2.542834e-001
19025016.000	9.564630e-001	2.541907e-001
19031010.000	9.564711e-001	2.540699e-001
19037004.000	9.564756e-001	2.540089e-001
19042998.000	9.565647e-001	2.538932e-001
19048992.000	9.565898e-001	2.538200e-001
19054986.000	9.565740e-001	2.536878e-001
19060980.000	9.566063e-001	2.536002e-001
19066974.000	9.566443e-001	2.534992e-001
19072968.000	9.566493e-001	2.533821e-001
19078962.000	9.566917e-001	2.532997e-001
19084956.000	9.567106e-001	2.531789e-001
19090950.000	9.566912e-001	2.530758e-001
19096944.000	9.567365e-001	2.529643e-001
19102938.000	9.567335e-001	2.528630e-001
19108932.000	9.567310e-001	2.527741e-001
19114926.000	9.567931e-001	2.526943e-001
19120920.000	9.568354e-001	2.525983e-001
19126914.000	9.568218e-001	2.524308e-001
19132908.000	9.568871e-001	2.523705e-001
19138902.000	9.568944e-001	2.522670e-001
19144896.000	9.569242e-001	2.522087e-001
19150890.000	9.569283e-001	2.520524e-001
19156884.000	9.569574e-001	2.519816e-001
19162878.000	9.570605e-001	2.518864e-001
19168872.000	9.569990e-001	2.517687e-001
19174866.000	9.570190e-001	2.516917e-001
19180860.000	9.570550e-001	2.516001e-001
19186854.000	9.570175e-001	2.514899e-001
19192848.000	9.570813e-001	2.513796e-001
19198842.000	9.571295e-001	2.512768e-001
19204836.000	9.571140e-001	2.511915e-001
19210830.000	9.571445e-001	2.510512e-001
19216824.000	9.571889e-001	2.510047e-001
19222818.000	9.571727e-001	2.509231e-001
19228812.000	9.572203e-001	2.507640e-001
19234806.000	9.572518e-001	2.506876e-001
19240800.000	9.572221e-001	2.505397e-001
19246794.000	9.572482e-001	2.504548e-001
19252788.000	9.573625e-001	2.503775e-001
19258782.000	9.573633e-001	2.503341e-001
19264776.000	9.573621e-001	2.501781e-001
19270770.000	9.573892e-001	2.500919e-001
19276764.000	9.574095e-001	2.499176e-001
19282758.000	9.574328e-001	2.498721e-001
19288752.000	9.574087e-001	2.497505e-001
19294746.000	9.574342e-001	2.496756e-001
19300740.000	9.574540e-001	2.495956e-001
19306734.000	9.574888e-001	2.495097e-001
19312728.000	9.575154e-001	2.493382e-001
19318722.000	9.575733e-001	2.493287e-001
19324716.000	9.575709e-001	2.491882e-001
19330710.000	9.575689e-001	2.490556e-001
19336704.000	9.576119e-001	2.489672e-001
19342698.000	9.575858e-001	2.489071e-001
19348692.000	9.577015e-001	2.488152e-001
19354686.000	9.577050e-001	2.487075e-001
19360680.000	9.576825e-001	2.485816e-001
19366674.000	9.577174e-001	2.485037e-001
19372668.000	9.576860e-001	2.483938e-001
19378662.000	9.577609e-001	2.482839e-001
19384656.000	9.577944e-001	2.481803e-001
19390650.000	9.577764e-001	2.480938e-001
19396644.000	9.577666e-001	2.479949e-001
19402638.000	9.578378e-001	2.478856e-001
19408632.000	9.578402e-001	2.477971e-001
19414626.000	9.578854e-001	2.476593e-001
19420620.000	9.578976e-001	2.476210e-001
19426614.000	9.579180e-001	2.475269e-001
19432608.000	9.578982e-001	2.473694e-001
19438602.000	9.579206e-001	2.473036e-001
19444596.000	9.579644e-001	2.472255e-001
19450590.000	9.580250e-001	2.471193e-001
19456584.000	9.580087e-001	2.470282e-001
19462578.000	9.579663e-001	2.469115e-001
19468572.000	9.581174e-001	2.468231e-001
19474566.000	9.581164e-001	2.467108e-001
19480560.000	9.581050e-001	2.466412e-001
19486554.000	9.580967e-001	2.465302e-001
19492548.000	9.581720e-001	2.464552e-001
19498542.000	9.581814e-001	2.463312e-001
19504536.000	9.582091e-001	2.462199e-001
19510530.000	9.581529e-001	2.461010e-001
19516524.000	9.581835e-001	2.460184e-001
19522518.000	9.582089e-001	2.459439e-001
19528512.000	9.582568e-001	2.458314e-001
19534506.000	9.582275e-001	2.457296e-001
19540500.000	9.582843e-001	2.456395e-001
19546494.000	9.583244e-001	2.455648e-001
19552488.000	9.583504e-001	2.454552e-001
19558482.000	9.583395e-001	2.453312e-001
19564476.000	9.583416e-001	2.452587e-001
19570470.000	9.583957e-001	2.451348e-001
19576464.000	9.583878e-001	2.450461e-001
19582458.000	9.584928e-001	2.450094e-001
19588452.000	9.585160e-001	2.448621e-001
19594446.000	9.584864e-001	2.447876e-001
19600440.000	9.585353e-001	2.447001e-001
19606434.000	9.585207e-001	2.445890e-001
19612428.000	9.585624e-001	2.445158e-001
19618422.000	9.585458e-001	2.444075e-001
19624416.000	9.585296e-001	2.443051e-001
19630410.000	9.585929e-001	2.441702e-001
19636404.000	9.586205e-001	2.441231e-001
19642398.000	9.585904e-001	2.439968e-001
19648392.000	9.586431e-001	2.438989e-001
19654386.000	9.586838e-001	2.437998e-001
19660380.000	9.587115e-001	2.436888e-001
19666374.000	9.587166e-001	2.436186e-001
19672368.000	9.587485e-001	2.434757e-001
19678362.000	9.587563e-001	2.434489e-001
19684356.000	9.587737e-001	2.433501e-001
19690350.000	9.587696e-001	2.432237e-001
19696344.000	9.587979e-001	2.431397e-001
19702338.000	9.587980e-001	2.430797e-001
19708332.000	9.588264e-001	2.429663e-001
19714326.000	9.588397e-001	2.428670e-001
19720320.000	9.589393e-001	2.428208e-001
19726314.000	9.588943e-001	2.426767e-001
19732308.000	9.589141e-001	2.425663e-001
19738302.000	9.589049e-001	2.424812e-001
19744296.000	9.589530e-001	2.424017e-001
19750290.000	9.589603e-001	2.422610e-001
19756284.000	9.589671e-001	2.421984e-001
19762278.000	9.589721e-001	2.420965e-001
19768272.000	9.590425e-001	2.419857e-001
19774266.000	9.590782e-001	2.419037e-001
19780260.000	9.590878e-001	2.418426e-001
19786254.000	9.590797e-001	2.417416e-001
19792248.000	9.591158e-001	2.416304e-001
19798242.000	9.591538e-001	2.415626e-001
19804236.000	9.591367e-001	2.414337e-001
19810230.000	9.591398e-001	2.413383e-001
19816224.000	9.591745e-001	2.412385e-001
19822218.000	9.591846e-001	2.411469e-001
19828212.000	9.591996e-001	2.410300e-001
19834206.000	9.592273e-001	2.409253e-001
19840200.000	9.592564e-001	2.408734e-001
19846194.000	9.592344e-001	2.407578e-001
19852188.000	9.592651e-001	2.407077e-001
19858182.000	9.593192e-001	2.405816e-001
19864176.000	9.593039e-001	2.404839e-001
19870170.000	9.593469e-001	2.403540e-001
19876164.000	9.593850e-001	2.403029e-001
19882158.000	9.593783e-001	2.402131e-001
19888152.000	9.593900e-001	2.400370e-001
19894146.000	9.593998e-001	2.399779e-001
19900140.000	9.594368e-001	2.398827e-001
19906134.000	9.594481e-001	2.398023e-001
19912128.000	9.594418e-001	2.397238e-001
19918122.000	9.594908e-001	2.395941e-001
19924116.000	9.595125e-001	2.395299e-001
19930110.000	9.595081e-001	2.394450e-001
19936104.000	9.595656e-001	2.393760e-001
19942098.000	9.595880e-001	2.392950e-001
19948092.000	9.595915e-001	2.391893e-001
19954086.000	9.596012e-001	2.390671e-001
19960080.000	9.596370e-001	2.390259e-001
19966074.000	9.596579e-001	2.389321e-001
19972068.000	9.596734e-001	2.388234e-001
19978062.000	9.596709e-001	2.386824e-001
19984056.000	9.597131e-001	2.385883e-001
19990050.000	9.597614e-001	2.385220e-001
19996044.000	9.597758e-001	2.384218e-001
20002038.000	9.597987e-001	2.382987e-001
20008032.000	9.598001e-001	2.382400e-001
20014026.000	9.597883e-001	2.381351e-001
20020020.000	9.598549e-001	2.379964e-001
20026014.000	9.598223e-001	2.379545e-001
20032008.000	9.599028e-001	2.378853e-001
20038002.000	9.599084e-001	2.377979e-001
20043996.000	9.599258e-001	2.377030e-001
20049990.000	9.599114e-001	2.375860e-001
20055984.000	9.599366e-001	2.375031e-001
20061978.000	9.599756e-001	2.374047e-001
20067972.000	9.600216e-001	2.373516e-001
20073966.000	9.600472e-001	2.372549e-001
20079960.000	9.600385e-001	2.371383e-001
20085954.000	9.600348e-001	2.370618e-001
20091948.000	9.601012e-001	2.369459e-001
20097942.000	9.601501e-001	2.368866e-001
20103936.000	9.601624e-001	2.367391e-001
20109930.000	9.601295e-001	2.366695e-001
20115924.000	9.601826e-001	2.365896e-001
20121918.000	9.601627e-001	2.365359e-001
20127912.000	9.601796e-001	2.364066e-001
20133906.000	9.602253e-001	2.363462e-001
20139900.000	9.602456e-001	2.362047e-001
20145894.000	9.602907e-001	2.361397e-001
20151888.000	9.602492e-001	2.360018e-001
20157882.000	9.602775e-001	2.359563e-001
20163876.000	9.602872e-001	2.358530e-001
20169870.000	9.602747e-001	2.357508e-001
20175864.000	9.603442e-001	2.356422e-001
20181858.000	9.603573e-001	2.355692e-001
20187852.000	9.603578e-001	2.355116e-001
20193846.000	9.603837e-001	2.353674e-001
20199840.000	9.604244e-001	2.353019e-001
20205834.000	9.604364e-001	2.351648e-001
20211828.000	9.604563e-001	2.351238e-001
20217822.000	9.604182e-001	2.350419e-001
20223816.000	9.605019e-001	2.349212e-001
20229810.000	9.605296e-001	2.348593e-001
20235804.000	9.605703e-001	2.347437e-001
20241798.000	9.605497e-001	2.346828e-001
20247792.000	9.605417e-001	2.345691e-001
20253786.000	9.605632e-001	2.345152e-001
20259780.000	9.605732e-001	2.343806e-001
20265774.000	9.606039e-001	2.343034e-001
20271768.000	9.606286e-001	2.342357e-001
20277762.000	9.606156e-001	2.341314e-001
20283756.000	9.606454e-001	2.340226e-001
20289750.000	9.606437e-001	2.339127e-001
20295744.000	9.606611e-001	2.338602e-001
20301738.000	9.607361e-001	2.337668e-001
20307732.000	9.607709e-001	2.336738e-001
20313726.000	9.608072e-001	2.335852e-001
20319720.000	9.607972e-001	2.334800e-001
20325714.000	9.607413e-001	2.333807e-001
20331708.000	9.607874e-001	2.332999e-001
20337702.000	9.608107e-001	2.332281e-001
20343696.000	9.608300e-001	2.331472e-001
20349690.000	9.608324e-001	2.330558e-001
20355684.000	9.608285e-001	2.329068e-001
20361678.000	9.608443e-001	2.328795e-001
20367672.000	9.609081e-001	2.327659e-001
20373666.000	9.609445e-001	2.326765e-001
20379660.000	9.609491e-001	2.325711e-001
20385654.000	9.609869e-001	2.324638e-001
20391648.000	9.609418e-001	2.323651e-001
20397642.000	9.609854e-001	2.322774e-001
20403636.000	9.610378e-001	2.322047e-001
20409630.000	9.609893e-001	2.321078e-001
20415624.000	9.609839e-001	2.320053e-001
20421618.000	9.610658e-001	2.319484e-001
20427612.000	9.610735e-001	2.318483e-001
20433606.000	9.610273e-001	2.317634e-001
20439600.000	9.611488e-001	2.316961e-001
20445594.000	9.611394e-001	2.315966e-001
20451588.000	9.611211e-001	2.315166e-001
20457582.000	9.611249e-001	2.314092e-001
20463576.000	9.611155e-001	2.313326e-001
20469570.000	9.611603e-001	2.312636e-001
20475564.000	9.612317e-001	2.311407e-001
20481558.000	9.611922e-001	2.310330e-001
20487552.000	9.612355e-001	2.309720e-001
20493546.000	9.612567e-001	2.308692e-001
20499540.000	9.613131e-001	2.307817e-001
20505534.000	9.612480e-001	2.307130e-001
20511528.000	9.613089e-001	2.305956e-001
20517522.000	9.613239e-001	2.305086e-001
20523516.000	9.613680e-001	2.304076e-001
20529510.000	9.613633e-001	2.303418e-001
20535504.000	9.613710e-001	2.302702e-001
20541498.000	9.614155e-001	2.301533e-001
20547492.000	9.614139e-001	2.300562e-001
20553486.000	9.613929e-001	2.299337e-001
20559480.000	9.614472e-001	2.298548e-001
20565474.000	9.615195e-001	2.297896e-001
20571468.000	9.614701e-001	2.297334e-001
20577462.000	9.614774e-001	2.296298e-001
20583456.000	9.615128e-001	2.295307e-001
20589450.000	9.615317e-001	2.294616e-001
20595444.000	9.614738e-001	2.293304e-001
20601438.000	9.615295e-001	2.292689e-001
20607432.000	9.615503e-001	2.291889e-001
20613426.000	9.615247e-001	2.290724e-001
20619420.000	9.616254e-001	2.290037e-001
20625414.000	9.616506e-001	2.288947e-001
20631408.000	9.616614e-001	2.288502e-001
20637402.000	9.616507e-001	2.287394e-001
20643396.000	9.616828e-001	2.286263e-001
20649390.000	9.616830e-001	2.285714e-001
20655384.000	9.617056e-001	2.284795e-001
20661378.000	9.617200e-001	2.283766e-001
20667372.000	9.617423e-001	2.283012e-001
20673366.000	9.617237e-001	2.281851e-001
20679360.000	9.617779e-001	2.281101e-001
20685354.000	9.618274e-001	2.280556e-001
20691348.000	9.618742e-001	2.279972e-001
20697342.000	9.618439e-001	2.278571e-001
20703336.000	9.618401e-001	2.277776e-001
20709330.000	9.618421e-001	2.277144e-001
20715324.000	9.618971e-001	2.276037e-001
20721318.000	9.618168e-001	2.275001e-001
20727312.000	9.619311e-001	2.274136e-001
20733306.000	9.619488e-001	2.273259e-001
20739300.000	9.619273e-001	2.272369e-001
20745294.000	9.619557e-001	2.271383e-001
20751288.000	9.619754e-001	2.271092e-001
20757282.000	9.620099e-001	2.270323e-001
20763276.000	9.620371e-001	2.269190e-001
20769270.000	9.620284e-001	2.268254e-001
20775264.000	9.620071e-001	2.267941e-001
20781258.000	9.620963e-001	2.265992e-001
20787252.000	9.621034e-001	2.265620e-001
20793246.000	9.621168e-001	2.264807e-001
20799240.000	9.620783e-001	2.263883e-001
20805234.000	9.621578e-001	2.262578e-001
20811228.000	9.621005e-001	2.262043e-001
20817222.000	9.621118e-001	2.261300e-001
20823216.000	9.621685e-001	2.260098e-001
20829210.000	9.621393e-001	2.259068e-001
20835204.000	9.621814e-001	2.258342e-001
20841198.000	9.622147e-001	2.257465e-001
20847192.000	9.621938e-001	2.256942e-001
20853186.000	9.622210e-001	2.255865e-001
20859180.000	9.622349e-001	2.254809e-001
20865174.000	9.622419e-001	2.254037e-001
20871168.000	9.622187e-001	2.253190e-001
20877162.000	9.623237e-001	2.252392e-001
20883156.000	9.623458e-001	2.251337e-001
20889150.000	9.623171e-001	2.250795e-001
20895144.000	9.623178e-001	2.249733e-001
20901138.000	9.623731e-001	2.249231e-001
20907132.000	9.623615e-001	2.248175e-001
20913126.000	9.623804e-001	2.247290e-001
20919120.000	9.624449e-001	2.246154e-001
20925114.000	9.624335e-001	2.245580e-001
20931108.000	9.624567e-001	2.244800e-001
20937102.000	9.624866e-001	2.243835e-001
20943096.000	9.624670e-001	2.242803e-001
20949090.000	9.624196e-001	2.241898e-001
20955084.000	9.624718e-001	2.240659e-001
20961078.000	9.624705e-001	2.240154e-001
20967072.000	9.625099e-001	2.239500e-001
20973066.000	9.625627e-001	2.238820e-001
20979060.000	9.625806e-001	2.237532e-001
20985054.000	9.626028e-001	2.237196e-001
20991048.000	9.626042e-001	2.236090e-001
20997042.000	9.625989e-001	2.235228e-001
21003036.000	9.626150e-001	2.234513e-001
21009030.000	9.626554e-001	2.233546e-001
21015024.000	9.626761e-001	2.232665e-001
21021018.000	9.626311e-001	2.231570e-001
21027012.000	9.627115e-001	2.231011e-001
21033006.000	9.627524e-001	2.229890e-001
21039000.000	9.627258e-001	2.229376e-001
21044994.000	9.626835e-001	2.228216e-001
21050988.000	9.626995e-001	2.227505e-001
21056982.000	9.627732e-001	2.226900e-001
21062976.000	9.627924e-001	2.225897e-001
21068970.000	9.627874e-001	2.224453e-001
21074964.000	9.628110e-001	2.224229e-001
21080958.000	9.628338e-001	2.223096e-001
21086952.000	9.628213e-001	2.222051e-001
21092946.000	9.628567e-001	2.221611e-001
21098940.000	9.628724e-001	2.220431e-001
21104934.000	9.628907e-001	2.219721e-001
21110928.000	9.628969e-001	2.219087e-001
21116922.000	9.629189e-001	2.217678e-001
21122916.000	9.628967e-001	2.217130e-001
21128910.000	9.629564e-001	2.216228e-001
21134904.000	9.629843e-001	2.215986e-001
21140898.000	9.629645e-001	2.214663e-001
21146892.000	9.629561e-001	2.213807e-001
21152886.000	9.630520e-001	2.213138e-001
21158880.000	9.630451e-001	2.212455e-001
21164874.000	9.630403e-001	2.211649e-001
21170868.000	9.630208e-001	2.210302e-001
21176862.000	9.630563e-001	2.209459e-001
21182856.000	9.631105e-001	2.208640e-001
21188850.000	9.631056e-001	2.208356e-001
21194844.000	9.631154e-001	2.207529e-001
21200838.000	9.631589e-001	2.206607e-001
21206832.000	9.632071e-001	2.205627e-001
21212826.000	9.631850e-001	2.204787e-001
21218820.000	9.631961e-001	2.203811e-001
21224814.000	9.631950e-001	2.203304e-001
21230808.000	9.632579e-001	2.202300e-001
21236802.000	9.632797e-001	2.201752e-001
21242796.000	9.632590e-001	2.200497e-001
21248790.000	9.633048e-001	2.199922e-001
21254784.000	9.632924e-001	2.199064e-001
21260778.000	9.633529e-001	2.197993e-001
21266772.000	9.633346e-001	2.197178e-001
21272766.000	9.633041e-001	2.196600e-001
21278760.000	9.633640e-001	2.195519e-001
21284754.000	9.633578e-001	2.194271e-001
21290748.000	9.633640e-001	2.193613e-001
21296742.000	9.634309e-001	2.193051e-001
21302736.000	9.633453e-001	2.192103e-001
21308730.000	9.633964e-001	2.191607e-001
21314724.000	9.634219e-001	2.190485e-001
21320718.000	9.634677e-001	2.190088e-001
21326712.000	9.634750e-001	2.189004e-001
21332706.000	9.634992e-001	2.187862e-001
21338700.000	9.634981e-001	2.187462e-001
21344694.000	9.635104e-001	2.186264e-001
21350688.000	9.635088e-001	2.185723e-001
21356682.000	9.635380e-001	2.184695e-001
21362676.000	9.636081e-001	2.183793e-001
21368670.000	9.635372e-001	2.183173e-001
21374664.000	9.635465e-001	2.182119e-001
21380658.000	9.635688e-001	2.181405e-001
21386652.000	9.636037e-001	2.180644e-001
21392646.000	9.636344e-001	2.180060e-001
21398640.000	9.636395e-001	2.179416e-001
21404634.000	9.636115e-001	2.178152e-001
21410628.000	9.636968e-001	2.177203e-001
21416622.000	9.637011e-001	2.176376e-001
21422616.000	9.636726e-001	2.175241e-001
21428610.000	9.637202e-001	2.175155e-001
21434604.000	9.637262e-001	2.173780e-001
21440598.000	9.637395e-001	2.173297e-001
21446592.000	9.637647e-001	2.172105e-001
21452586.000	9.637472e-001	2.171544e-001
21458580.000	9.637784e-001	2.170387e-001
21464574.000	9.637512e-001	2.169918e-001
21470568.000	9.637880e-001	2.168830e-001
21476562.000	9.638016e-001	2.168137e-001
21482556.000	9.638679e-001	2.167551e-001
21488550.000	9.638409e-001	2.166119e-001
21494544.000	9.638499e-001	2.165505e-001
21500538.000	9.638996e-001	2.164719e-001
21506532.000	9.639430e-001	2.164111e-001
21512526.000	9.638978e-001	2.163540e-001
21518520.000	9.639295e-001	2.162588e-001
21524514.000	9.639183e-001	2.161902e-001
21530508.000	9.639687e-001	2.160805e-001
21536502.000	9.639314e-001	2.159877e-001
21542496.000	9.640021e-001	2.159326e-001
21548490.000	9.639726e-001	2.158609e-001
21554484.000	9.640150e-001	2.157919e-001
21560478.000	9.640795e-001	2.156540e-001
21566472.000	9.640509e-001	2.156144e-001
21572466.000	9.640502e-001	2.155352e-001
21578460.000	9.640351e-001	2.154259e-001
21584454.000	9.640977e-001	2.153932e-001
21590448.000	9.640376e-001	2.152624e-001
21596442.000	9.641045e-001	2.151761e-001
21602436.000	9.641196e-001	2.151204e-001
21608430.000	9.641476e-001	2.150518e-001
21614424.000	9.641946e-001	2.149439e-001
21620418.000	9.641917e-001	2.148700e-001
21626412.000	9.642535e-001	2.147759e-001
21632406.000	9.642379e-001	2.146830e-001
21638400.000	9.642617e-001	2.146028e-001
21644394.000	9.642608e-001	2.145206e-001
21650388.000	9.642970e-001	2.144660e-001
21656382.000	9.643040e-001	2.143637e-001
21662376.000	9.642960e-001	2.142928e-001
21668370.000	9.643251e-001	2.142176e-001
21674364.000	9.643078e-001	2.141254e-001
21680358.000	9.643227e-001	2.140275e-001
21686352.000	9.643424e-001	2.139660e-001
21692346.000	9.643460e-001	2.138770e-001
21698340.000	9.643755e-001	2.137963e-001
21704334.000	9.643738e-001	2.136704e-001
21710328.000	9.643818e-001	2.136420e-001
21716322.000	9.643957e-001	2.135715e-001
21722316.000	9.644082e-001	2.134816e-001
21728310.000	9.643902e-001	2.133723e-001
21734304.000	9.643933e-001	2.133217e-001
21740298.000	9.644373e-001	2.132657e-001
21746292.000	9.644705e-001	2.131571e-001
21752286.000	9.644871e-001	2.130837e-001
21758280.000	9.645397e-001	2.130040e-001
21764274.000	9.645196e-001	2.129189e-001
21770268.000	9.644769e-001	2.128407e-001
21776262.000	9.645210e-001	2.127500e-001
21782256.000	9.645449e-001	2.126964e-001
21788250.000	9.646042e-001	2.126120e-001
21794244.000	9.645727e-001	2.125291e-001
21800238.000	9.645561e-001	2.124359e-001
21806232.000	9.646027e-001	2.123578e-001
21812226.000	9.646424e-001	2.122739e-001
21818220.000	9.646162e-001	2.122274e-001
21824214.000	9.646325e-001	2.120965e-001
21830208.000	9.646555e-001	2.120401e-001
21836202.000	9.646676e-001	2.119875e-001
21842196.000	9.647073e-001	2.119152e-001
21848190.000	9.646881e-001	2.117935e-001
21854184.000	9.647219e-001	2.116710e-001
21860178.000	9.647313e-001	2.116422e-001
21866172.000	9.647758e-001	2.115631e-001
21872166.000	9.647489e-001	2.114836e-001
21878160.000	9.647504e-001	2.114251e-001
21884154.000	9.647900e-001	2.113076e-001
21890148.000	9.648311e-001	2.112718e-001
21896142.000	9.648329e-001	2.111502e-001
21902136.000	9.648818e-001	2.110991e-001
21908130.000	9.648579e-001	2.110093e-001
21914124.000	9.648566e-001	2.109224e-001
21920118.000	9.648799e-001	2.108754e-001
21926112.000	9.649316e-001	2.108103e-001
21932106.000	9.649368e-001	2.106862e-001
21938100.000	9.649504e-001	2.106532e-001
21944094.000	9.649434e-001	2.105313e-001
21950088.000	9.649850e-001	2.104427e-001
21956082.000	9.649900e-001	2.104055e-001
21962076.000	9.649330e-001	2.103298e-001
21968070.000	9.649703e-001	2.102004e-001
21974064.000	9.650082e-001	2.101287e-001
21980058.000	9.650000e-001	2.100849e-001
21986052.000	9.650768e-001	2.100022e-001
21992046.000	9.650877e-001	2.099557e-001
21998040.000	9.651145e-001	2.098396e-001
22004034.000	9.650919e-001	2.098039e-001
22010028.000	9.650970e-001	2.097116e-001
22016022.000	9.651167e-001	2.096175e-001
22022016.000	9.651196e-001	2.095211e-001
22028010.000	9.650958e-001	2.094754e-001
22034004.000	9.651622e-001	2.093700e-001
22039998.000	9.651612e-001	2.092827e-001
22045992.000	9.651762e-001	2.092314e-001
22051986.000	9.651660e-001	2.091352e-001
22057980.000	9.651832e-001	2.090472e-001
22063974.000	9.651609e-001	2.089642e-001
22069968.000	9.651735e-001	2.088458e-001
22075962.000	9.652057e-001	2.088098e-001
22081956.000	9.651988e-001	2.087155e-001
22087950.000	9.652605e-001	2.086898e-001
22093944.000	9.652566e-001	2.085694e-001
22099938.000	9.652597e-001	2.085276e-001
22105932.000	9.653239e-001	2.084121e-001
22111926.000	9.652781e-001	2.083240e-001
22117920.000	9.653122e-001	2.082835e-001
22123914.000	9.653271e-001	2.081825e-001
22129908.000	9.653669e-001	2.080868e-001
22135902.000	9.653545e-001	2.081026e-001
22141896.000	9.653921e-001	2.079451e-001
22147890.000	9.653688e-001	2.078796e-001
22153884.000	9.653801e-001	2.078516e-001
22159878.000	9.654074e-001	2.077707e-001
22165872.000	9.654249e-001	2.076543e-001
22171866.000	9.654063e-001	2.076090e-001
22177860.000	9.654173e-001	2.075287e-001
22183854.000	9.654298e-001	2.074308e-001
22189848.000	9.654560e-001	2.073340e-001
22195842.000	9.655141e-001	2.072948e-001
22201836.000	9.654068e-001	2.071388e-001
22207830.000	9.655060e-001	2.071548e-001
22213824.000	9.655171e-001	2.070572e-001
22219818.000	9.654971e-001	2.069211e-001
22225812.000	9.655546e-001	2.068699e-001
22231806.000	9.655685e-001	2.068216e-001
22237800.000	9.655983e-001	2.067099e-001
22243794.000	9.656100e-001	2.066953e-001
22249788.000	9.656152e-001	2.065781e-001
22255782.000	9.655772e-001	2.065088e-001
22261776.000	9.656670e-001	2.064298e-001
22267770.000	9.656153e-001	2.063653e-001
22273764.000	9.656536e-001	2.063065e-001
22279758.000	9.656602e-001	2.062342e-001
22285752.000	9.656894e-001	2.061177e-001
22291746.000	9.656733e-001	2.060609e-001
22297740.000	9.656947e-001	2.059550e-001
22303734.000	9.657031e-001	2.058867e-001
22309728.000	9.656834e-001	2.058026e-001
22315722.000	9.657162e-001	2.057175e-001
22321716.000	9.657488e-001	2.056872e-001
22327710.000	9.657547e-001	2.055862e-001
22333704.000	9.658194e-001	2.055345e-001
22339698.000	9.658259e-001	2.054280e-001
22345692.000	9.658871e-001	2.054220e-001
22351686.000	9.657909e-001	2.053169e-001
22357680.000	9.658778e-001	2.052064e-001
22363674.000	9.658432e-001	2.050999e-001
22369668.000	9.658674e-001	2.050522e-001
22375662.000	9.658592e-001	2.049549e-001
22381656.000	9.659217e-001	2.049233e-001
22387650.000	9.659126e-001	2.048541e-001
22393644.000	9.659280e-001	2.047269e-001
22399638.000	9.659170e-001	2.046740e-001
22405632.000	9.659435e-001	2.045704e-001
22411626.000	9.659380e-001	2.045388e-001
22417620.000	9.659440e-001	2.044647e-001
22423614.000	9.659972e-001	2.043634e-001
22429608.000	9.660472e-001	2.043054e-001
22435602.000	9.660560e-001	2.042124e-001
22441596.000	9.660134e-001	2.041506e-001
22447590.000	9.660371e-001	2.040530e-001
22453584.000	9.660543e-001	2.039699e-001
22459578.000	9.660802e-001	2.039189e-001
22465572.000	9.660644e-001	2.038547e-001
22471566.000	9.660496e-001	2.037770e-001
22477560.000	9.661339e-001	2.037029e-001
22483554.000	9.661204e-001	2.036116e-001
22489548.000	9.661514e-001	2.035280e-001
22495542.000	9.661591e-001	2.034404e-001
22501536.000	9.661282e-001	2.033487e-001
22507530.000	9.661667e-001	2.032663e-001
22513524.000	9.661674e-001	2.032379e-001
22519518.000	9.662010e-001	2.031519e-001
22525512.000	9.661931e-001	2.030706e-001
22531506.000	9.662150e-001	2.029751e-001
22537500.000	9.662125e-001	2.028973e-001
22543494.000	9.662255e-001	2.028729e-001
22549488.000	9.662458e-001	2.027686e-001
22555482.000	9.662604e-001	2.026980e-001
22561476.000	9.662248e-001	2.026137e-001
22567470.000	9.662705e-001	2.025561e-001
22573464.000	9.663270e-001	2.024797e-001
22579458.000	9.663562e-001	2.023902e-001
22585452.000	9.663430e-001	2.023187e-001
22591446.000	9.663373e-001	2.022417e-001
22597440.000	9.663927e-001	2.021526e-001
22603434.000	9.663361e-001	2.020885e-001
22609428.000	9.663751e-001	2.020328e-001
22615422.000	9.664082e-001	2.019553e-001
22621416.000	9.663570e-001	2.018452e-001
22627410.000	9.664244e-001	2.017664e-001
22633404.000	9.663908e-001	2.017143e-001
22639398.000	9.664555e-001	2.016080e-001
22645392.000	9.664995e-001	2.015753e-001
22651386.000	9.664793e-001	2.014847e-001
22657380.000	9.664663e-001	2.013904e-001
22663374.000	9.664867e-001	2.013488e-001
22669368.000	9.664576e-001	2.012300e-001
22675362.000	9.665187e-001	2.011876e-001
22681356.000	9.665517e-001	2.011116e-001
22687350.000	9.665118e-001	2.010321e-001
22693344.000	9.665677e-001	2.009105e-001
22699338.000	9.665493e-001	2.008732e-001
22705332.000	9.666524e-001	2.008157e-001
22711326.000	9.665959e-001	2.007680e-001
22717320.000	9.666102e-001	2.006670e-001
22723314.000	9.666309e-001	2.005669e-001
22729308.000	9.666471e-001	2.004998e-001
22735302.000	9.666481e-001	2.004336e-001
22741296.000	9.666590e-001	2.003915e-001
22747290.000	9.666712e-001	2.002749e-001
22753284.000	9.666346e-001	2.002217e-001
22759278.000	9.667136e-001	2.001488e-001
22765272.000	9.666565e-001	2.000600e-001
22771266.000	9.667027e-001	1.999728e-001
22777260.000	9.667125e-001	1.999121e-001
22783254.000	9.667476e-001	1.998153e-001
22789248.000	9.667705e-001	1.997607e-001
22795242.000	9.668247e-001	1.997366e-001
22801236.000	9.668047e-001	1.996293e-001
22807230.000	9.668291e-001	1.996055e-001
22813224.000	9.668244e-001	1.994654e-001
22819218.000	9.668365e-001	1.994285e-001
22825212.000	9.668590e-001	1.993300e-001
22831206.000	9.668596e-001	1.992709e-001
22837200.000	9.668578e-001	1.991968e-001
22843194.000	9.668672e-001	1.991072e-001
22849188.000	9.668629e-001	1.990326e-001
22855182.000	9.669262e-001	1.989654e-001
22861176.000	9.669313e-001	1.989097e-001
22867170.000	9.669779e-001	1.988789e-001
22873164.000	9.669581e-001	1.988197e-001
22879158.000	9.669779e-001	1.987063e-001
22885152.000	9.669327e-001	1.986301e-001
22891146.000	9.669973e-001	1.985524e-001
22897140.000	9.669671e-001	1.984343e-001
22903134.000	9.669667e-001	1.983972e-001
22909128.000	9.670052e-001	1.983352e-001
22915122.000	9.670007e-001	1.982227e-001
22921116.000	9.670064e-001	1.981803e-001
22927110.000	9.669682e-001	1.980793e-001
22933104.000	9.669952e-001	1.980070e-001
22939098.000	9.669421e-001	1.979018e-001
22945092.000	9.670311e-001	1.978694e-001
22951086.000	9.669925e-001	1.977878e-001
22957080.000	9.670449e-001	1.977176e-001
22963074.000	9.670380e-001	1.976367e-001
22969068.000	9.670432e-001	1.975772e-001
22975062.000	9.670953e-001	1.974895e-001
22981056.000	9.671091e-001	1.974051e-001
22987050.000	9.671570e-001	1.973478e-001
22993044.000	9.671763e-001	1.972639e-001
22999038.000	9.671609e-001	1.972063e-001
23005032.000	9.673485e-001	1.972459e-001
23011026.000	9.672261e-001	1.971015e-001
23017020.000	9.671883e-001	1.969982e-001
23023014.000	9.671854e-001	1.969146e-001
23029008.000	9.672112e-001	1.968724e-001
23035002.000	9.672297e-001	1.967795e-001
23040996.000	9.672330e-001	1.967174e-001
23046990.000	9.672667e-001	1.966315e-001
23052984.000	9.672896e-001	1.965938e-001
23058978.000	9.673136e-001	1.964973e-001
23064972.000	9.673088e-001	1.964192e-001
23070966.000	9.672598e-001	1.963575e-001
23076960.000	9.672837e-001	1.962560e-001
23082954.000	9.673147e-001	1.962292e-001
23088948.000	9.673345e-001	1.961444e-001
23094942.000	9.673267e-001	1.960611e-001
23100936.000	9.673660e-001	1.959556e-001
23106930.000	9.673604e-001	1.958988e-001
23112924.000	9.673881e-001	1.958681e-001
23118918.000	9.673803e-001	1.958020e-001
23124912.000	9.673890e-001	1.956950e-001
23130906.000	9.674063e-001	1.956035e-001
23136900.000	9.673858e-001	1.955436e-001
23142894.000	9.674273e-001	1.954798e-001
23148888.000	9.674283e-001	1.953885e-001
23154882.000	9.674472e-001	1.953323e-001
23160876.000	9.674782e-001	1.952558e-001
23166870.000	9.674515e-001	1.951331e-001
23172864.000	9.674457e-001	1.950958e-001
23178858.000	9.675220e-001	1.950247e-001
23184852.000	9.675217e-001	1.949940e-001
23190846.000	9.675650e-001	1.949016e-001
23196840.000	9.675095e-001	1.948186e-001
23202834.000	9.674939e-001	1.947514e-001
23208828.000	9.675612e-001	1.947228e-001
23214822.000	9.675595e-001	1.946324e-001
23220816.000	9.675605e-001	1.945427e-001
23226810.000	9.675572e-001	1.944822e-001
23232804.000	9.676185e-001	1.944077e-001
23238798.000	9.676231e-001	1.943460e-001
23244792.000	9.676318e-001	1.942709e-001
23250786.000	9.676378e-001	1.942050e-001
23256780.000	9.676680e-001	1.941012e-001
23262774.000	9.677183e-001	1.940828e-001
23268768.000	9.676899e-001	1.939414e-001
23274762.000	9.676672e-001	1.938936e-001
23280756.000	9.676345e-001	1.937810e-001
23286750.000	9.677104e-001	1.937641e-001
23292744.000	9.677377e-001	1.936809e-001
23298738.000	9.677863e-001	1.936231e-001
23304732.000	9.677774e-001	1.935246e-001
23310726.000	9.677075e-001	1.935044e-001
23316720.000	9.677649e-001	1.934243e-001
23322714.000	9.677456e-001	1.933012e-001
23328708.000	9.677846e-001	1.932770e-001
23334702.000	9.677770e-001	1.931789e-001
23340696.000	9.677501e-001	1.931014e-001
23346690.000	9.677746e-001	1.930329e-001
23352684.000	9.677255e-001	1.929550e-001
23358678.000	9.678151e-001	1.929178e-001
23364672.000	9.678117e-001	1.928184e-001
23370666.000	9.678151e-001	1.927095e-001
23376660.000	9.678510e-001	1.926877e-001
23382654.000	9.678404e-001	1.926478e-001
23388648.000	9.678653e-001	1.925340e-001
23394642.000	9.678995e-001	1.924698e-001
23400636.000	9.679001e-001	1.924110e-001
23406630.000	9.679094e-001	1.923585e-001
23412624.000	9.679232e-001	1.922584e-001
23418618.000	9.679541e-001	1.921841e-001
23424612.000	9.679414e-001	1.921200e-001
23430606.000	9.679774e-001	1.920838e-001
23436600.000	9.679894e-001	1.920064e-001
23442594.000	9.680028e-001	1.919281e-001
23448588.000	9.680235e-001	1.918591e-001
23454582.000	9.680255e-001	1.917630e-001
23460576.000	9.679950e-001	1.916986e-001
23466570.000	9.680243e-001	1.916633e-001
23472564.000	9.680140e-001	1.915422e-001
23478558.000	9.680540e-001	1.915160e-001
23484552.000	9.680618e-001	1.914105e-001
23490546.000	9.680631e-001	1.913652e-001
23496540.000	9.680517e-001	1.913066e-001
23502534.000	9.680716e-001	1.912116e-001
23508528.000	9.681109e-001	1.911444e-001
23514522.000	9.681276e-001	1.910785e-001
23520516.000	9.681002e-001	1.909878e-001
23526510.000	9.681077e-001	1.909244e-001
23532504.000	9.681424e-001	1.908385e-001
23538498.000	9.681502e-001	1.907823e-001
23544492.000	9.681318e-001	1.906896e-001
23550486.000	9.681662e-001	1.906490e-001
23556480.000	9.682329e-001	1.905829e-001
23562474.000	9.682235e-001	1.905121e-001
23568468.000	9.682651e-001	1.903936e-001
23574462.000	9.682004e-001	1.903769e-001
23580456.000	9.682419e-001	1.902860e-001
23586450.000	9.682146e-001	1.902480e-001
23592444.000	9.682719e-001	1.901791e-001
23598438.000	9.682262e-001	1.900882e-001
23604432.000	9.682613e-001	1.900595e-001
23610426.000	9.682830e-001	1.899577e-001
23616420.000	9.682562e-001	1.898834e-001
23622414.000	9.682392e-001	1.898011e-001
23628408.000	9.682595e-001	1.897639e-001
23634402.000	9.682648e-001	1.897022e-001
23640396.000	9.683366e-001	1.896139e-001
23646390.000	9.682994e-001	1.895208e-001
23652384.000	9.683358e-001	1.894895e-001
23658378.000	9.683980e-001	1.894218e-001
23664372.000	9.683503e-001	1.893212e-001
23670366.000	9.683889e-001	1.892385e-001
23676360.000	9.684331e-001	1.891969e-001
23682354.000	9.684110e-001	1.891727e-001
23688348.000	9.684157e-001	1.890730e-001
23694342.000	9.684442e-001	1.889491e-001
23700336.000	9.684846e-001	1.889125e-001
23706330.000	9.685042e-001	1.888685e-001
23712324.000	9.685089e-001	1.887828e-001
23718318.000	9.685190e-001	1.887046e-001
23724312.000	9.685180e-001	1.886422e-001
23730306.000	9.684899e-001	1.885693e-001
23736300.000	9.685290e-001	1.885020e-001
23742294.000	9.685267e-001	1.884444e-001
23748288.000	9.685422e-001	1.883781e-001
23754282.000	9.685552e-001	1.882638e-001
23760276.000	9.685680e-001	1.882423e-001
23766270.000	9.685555e-001	1.881591e-001
23772264.000	9.685823e-001	1.881057e-001
23778258.000	9.685992e-001	1.880073e-001
23784252.000	9.685878e-001	1.879476e-001
23790246.000	9.686464e-001	1.878594e-001
23796240.000	9.686397e-001	1.877988e-001
23802234.000	9.686307e-001	1.877301e-001
23808228.000	9.686862e-001	1.877082e-001
23814222.000	9.686408e-001	1.876301e-001
23820216.000	9.686455e-001	1.875431e-001
23826210.000	9.686527e-001	1.874302e-001
23832204.000	9.686037e-001	1.873851e-001
23838198.000	9.686383e-001	1.873397e-001
23844192.000	9.687058e-001	1.872642e-001
23850186.000	9.686842e-001	1.872237e-001
23856180.000	9.687246e-001	1.871336e-001
23862174.000	9.686990e-001	1.870312e-001
23868168.000	9.686889e-001	1.869345e-001
23874162.000	9.687244e-001	1.869248e-001
23880156.000	9.687204e-001	1.868222e-001
23886150.000	9.687235e-001	1.867589e-001
23892144.000	9.687440e-001	1.867270e-001
23898138.000	9.687489e-001	1.866215e-001
23904132.000	9.687674e-001	1.865760e-001
23910126.000	9.688390e-001	1.865105e-001
23916120.000	9.688126e-001	1.864585e-001
23922114.000	9.688450e-001	1.864006e-001
23928108.000	9.688084e-001	1.863016e-001
23934102.000	9.688380e-001	1.862467e-001
23940096.000	9.688647e-001	1.861739e-001
23946090.000	9.688760e-001	1.860894e-001
23952084.000	9.688840e-001	1.860783e-001
23958078.000	9.688595e-001	1.859567e-001
23964072.000	9.689028e-001	1.859007e-001
23970066.000	9.688942e-001	1.858199e-001
23976060.000	9.688787e-001	1.857754e-001
23982054.000	9.689256e-001	1.856725e-001
23988048.000	9.689127e-001	1.856219e-001
23994042.000	9.689209e-001	1.855583e-001
24000036.000	9.689470e-001	1.854826e-001
24006030.000	9.689457e-001	1.853759e-001
24012024.000	9.690071e-001	1.853547e-001
24018018.000	9.689994e-001	1.852967e-001
24024012.000	9.690276e-001	1.852415e-001
24030006.000	9.690118e-001	1.851457e-001
24036000.000	9.690212e-001	1.851258e-001
24041994.000	9.690190e-001	1.850219e-001
24047988.000	9.690146e-001	1.849535e-001
24053982.000	9.690712e-001	1.848561e-001
24059976.000	9.690491e-001	1.848267e-001
24065970.000	9.690980e-001	1.847228e-001
24071964.000	9.691245e-001	1.846462e-001
24077958.000	9.690691e-001	1.846094e-001
24083952.000	9.691343e-001	1.845599e-001
24089946.000	9.691359e-001	1.844367e-001
24095940.000	9.691117e-001	1.843720e-001
24101934.000	9.691195e-001	1.843374e-001
24107928.000	9.691181e-001	1.842787e-001
24113922.000	9.691304e-001	1.842188e-001
24119916.000	9.692123e-001	1.841158e-001
24125910.000	9.691534e-001	1.840519e-001
24131904.000	9.691717e-001	1.840131e-001
24137898.000	9.691535e-001	1.839036e-001
24143892.000	9.691955e-001	1.838692e-001
24149886.000	9.692486e-001	1.837759e-001
24155880.000	9.692488e-001	1.837414e-001
24161874.000	9.692190e-001	1.836488e-001
24167868.000	9.692432e-001	1.836333e-001
24173862.000	9.692492e-001	1.834790e-001
24179856.000	9.692884e-001	1.834844e-001
24185850.000	9.692550e-001	1.834095e-001
24191844.000	9.692478e-001	1.832786e-001
24197838.000	9.692368e-001	1.832576e-001
24203832.000	9.692774e-001	1.832292e-001
24209826.000	9.692878e-001	1.831064e-001
24215820.000	9.693190e-001	1.830615e-001
24221814.000	9.693128e-001	1.830226e-001
24227808.000	9.693352e-001	1.829056e-001
24233802.000	9.693209e-001	1.828621e-001
24239796.000	9.693029e-001	1.827811e-001
24245790.000	9.693488e-001	1.827422e-001
24251784.000	9.693439e-001	1.826814e-001
24257778.000	9.693240e-001	1.826059e-001
24263772.000	9.693765e-001	1.825243e-001
24269766.000	9.694281e-001	1.824553e-001
24275760.000	9.694048e-001	1.824224e-001
24281754.000	9.694228e-001	1.823444e-001
24287748.000	9.694170e-001	1.823084e-001
24293742.000	9.694925e-001	1.822301e-001
24299736.000	9.694422e-001	1.821425e-001
24305730.000	9.694888e-001	1.821075e-001
24311724.000	9.694640e-001	1.820171e-001
24317718.000	9.695426e-001	1.819607e-001
24323712.000	9.694771e-001	1.818686e-001
24329706.000	9.694657e-001	1.817754e-001
24335700.000	9.695085e-001	1.817412e-001
24341694.000	9.695413e-001	1.817110e-001
24347688.000	9.695083e-001	1.816316e-001
24353682.000	9.695331e-001	1.815723e-001
24359676.000	9.695294e-001	1.814600e-001
24365670.000	9.695948e-001	1.814473e-001
24371664.000	9.695488e-001	1.813626e-001
24377658.000	9.695733e-001	1.812737e-001
24383652.000	9.696370e-001	1.812224e-001
24389646.000	9.695991e-001	1.811338e-001
24395640.000	9.695898e-001	1.810812e-001
24401634.000	9.696169e-001	1.810255e-001
24407628.000	9.696346e-001	1.809628e-001
24413622.000	9.696702e-001	1.808766e-001
24419616.000	9.696363e-001	1.807894e-001
24425610.000	9.696363e-001	1.807515e-001
24431604.000	9.696452e-001	1.807226e-001
24437598.000	9.695928e-001	1.806237e-001
24443592.000	9.696709e-001	1.805978e-001
24449586.000	9.696705e-001	1.804904e-001
24455580.000	9.696884e-001	1.803991e-001
24461574.000	9.696576e-001	1.803577e-001
24467568.000	9.696769e-001	1.802813e-001
24473562.000	9.697138e-001	1.802211e-001
24479556.000	9.697369e-001	1.801924e-001
24485550.000	9.697301e-001	1.801466e-001
24491544.000	9.697616e-001	1.800266e-001
24497538.000	9.697455e-001	1.799536e-001
24503532.000	9.697427e-001	1.798882e-001
24509526.000	9.697924e-001	1.798363e-001
24515520.000	9.697691e-001	1.798005e-001
24521514.000	9.697801e-001	1.796929e-001
24527508.000	9.697759e-001	1.796031e-001
24533502.000	9.697625e-001	1.795816e-001
24539496.000	9.697876e-001	1.795185e-001
24545490.000	9.698107e-001	1.794369e-001
24551484.000	9.697946e-001	1.793657e-001
24557478.000	9.698571e-001	1.793297e-001
24563472.000	9.698692e-001	1.792410e-001
24569466.000	9.698388e-001	1.791766e-001
24575460.000	9.698735e-001	1.790977e-001
24581454.000	9.698735e-001	1.790508e-001
24587448.000	9.698999e-001	1.789964e-001
24593442.000	9.699219e-001	1.789333e-001
24599436.000	9.699374e-001	1.788518e-001
24605430.000	9.698705e-001	1.787935e-001
24611424.000	9.699456e-001	1.787253e-001
24617418.000	9.699519e-001	1.786706e-001
24623412.000	9.700037e-001	1.786107e-001
24629406.000	9.699149e-001	1.785017e-001
24635400.000	9.700078e-001	1.785343e-001
24641394.000	9.700357e-001	1.784107e-001
24647388.000	9.700254e-001	1.783485e-001
24653382.000	9.700033e-001	1.782759e-001
24659376.000	9.700355e-001	1.782202e-001
24665370.000	9.700416e-001	1.781989e-001
24671364.000	9.700184e-001	1.781014e-001
24677358.000	9.700542e-001	1.780093e-001
24683352.000	9.700251e-001	1.779558e-001
24689346.000	9.700647e-001	1.778941e-001
24695340.000	9.700445e-001	1.778510e-001
24701334.000	9.700851e-001	1.777778e-001
24707328.000	9.700777e-001	1.777242e-001
24713322.000	9.701081e-001	1.776185e-001
24719316.000	9.701593e-001	1.775898e-001
24725310.000	9.701683e-001	1.775164e-001
24731304.000	9.701478e-001	1.774495e-001
24737298.000	9.701848e-001	1.774003e-001
24743292.000	9.701046e-001	1.773203e-001
24749286.000	9.701398e-001	1.772155e-001
24755280.000	9.701647e-001	1.772520e-001
24761274.000	9.702040e-001	1.771620e-001
24767268.000	9.702508e-001	1.770389e-001
24773262.000	9.702264e-001	1.770200e-001
24779256.000	9.702384e-001	1.769399e-001
24785250.000	9.702378e-001	1.769183e-001
24791244.000	9.702726e-001	1.768651e-001
24797238.000	9.702777e-001	1.767509e-001
24803232.000	9.702325e-001	1.767152e-001
24809226.000	9.702832e-001	1.766212e-001
24815220.000	9.702824e-001	1.765669e-001
24821214.000	9.702678e-001	1.765035e-001
24827208.000	9.703025e-001	1.764398e-001
24833202.000	9.703129e-001	1.763657e-001
24839196.000	9.703552e-001	1.762999e-001
24845190.000	9.703493e-001	1.762408e-001
24851184.000	9.703259e-001	1.762178e-001
24857178.000	9.703067e-001	1.761162e-001
24863172.000	9.703380e-001	1.760667e-001
24869166.000	9.703051e-001	1.759488e-001
24875160.000	9.703568e-001	1.758736e-001
24881154.000	9.704017e-001	1.758708e-001
24887148.000	9.703888e-001	1.757931e-001
24893142.000	9.704145e-001	1.757032e-001
24899136.000	9.704717e-001	1.756730e-001
24905130.000	9.704250e-001	1.756058e-001
24911124.000	9.704412e-001	1.755458e-001
24917118.000	9.703887e-001	1.754749e-001
24923112.000	9.704300e-001	1.754402e-001
24929106.000	9.704190e-001	1.753068e-001
24935100.000	9.704068e-001	1.752821e-001
24941094.000	9.704588e-001	1.752225e-001
24947088.000	9.704237e-001	1.751585e-001
24953082.000	9.704099e-001	1.750915e-001
24959076.000	9.704724e-001	1.750231e-001
24965070.000	9.705163e-001	1.749683e-001
24971064.000	9.705413e-001	1.748929e-001
24977058.000	9.704919e-001	1.748535e-001
24983052.000	9.704928e-001	1.747654e-001
24989046.000	9.704966e-001	1.747080e-001
24995040.000	9.705269e-001	1.746586e-001
25001034.000	9.705480e-001	1.745542e-001
25007028.000	9.705782e-001	1.745236e-001
25013022.000	9.705851e-001	1.744656e-001
25019016.000	9.705230e-001	1.744654e-001
25025010.000	9.705236e-001	1.743224e-001
25031004.000	9.705063e-001	1.742438e-001
25036998.000	9.705577e-001	1.741958e-001
25042992.000	9.706106e-001	1.741599e-001
25048986.000	9.705926e-001	1.740737e-001
25054980.000	9.705750e-001	1.740203e-001
25060974.000	9.706274e-001	1.739225e-001
25066968.000	9.706073e-001	1.739084e-001
25072962.000	9.706452e-001	1.737778e-001
25078956.000	9.706766e-001	1.737524e-001
25084950.000	9.706519e-001	1.737414e-001
25090944.000	9.706445e-001	1.736589e-001
25096938.000	9.706335e-001	1.735569e-001
25102932.000	9.706621e-001	1.735496e-001
25108926.000	9.707205e-001	1.734552e-001
25114920.000	9.707194e-001	1.734108e-001
25120914.000	9.707365e-001	1.733334e-001
25126908.000	9.707297e-001	1.732492e-001
25132902.000	9.707642e-001	1.732500e-001
25138896.000	9.707123e-001	1.731534e-001
25144890.000	9.707971e-001	1.730793e-001
25150884.000	9.707615e-001	1.729862e-001
25156878.000	9.707415e-001	1.729519e-001
25162872.000	9.707712e-001	1.729020e-001
25168866.000	9.707900e-001	1.728270e-001
25174860.000	9.708091e-001	1.727565e-001
25180854.000	9.708105e-001	1.727186e-001
25186848.000	9.707882e-001	1.726307e-001
25192842.000	9.707870e-001	1.726023e-001
25198836.000	9.708141e-001	1.724907e-001
25204830.000	9.708421e-001	1.724684e-001
25210824.000	9.708268e-001	1.723807e-001
25216818.000	9.708360e-001	1.723343e-001
25222812.000	9.708364e-001	1.722495e-001
25228806.000	9.708728e-001	1.722045e-001
25234800.000	9.708787e-001	1.721055e-001
25240794.000	9.708391e-001	1.720403e-001
25246788.000	9.708271e-001	1.720253e-001
25252782.000	9.708786e-001	1.719257e-001
25258776.000	9.708655e-001	1.718765e-001
25264770.000	9.708914e-001	1.717720e-001
25270764.000	9.708917e-001	1.717495e-001
25276758.000	9.708907e-001	1.716884e-001
25282752.000	9.709232e-001	1.716428e-001
25288746.000	9.709194e-001	1.715872e-001
25294740.000	9.709752e-001	1.715256e-001
25300734.000	9.709386e-001	1.714559e-001
25306728.000	9.709650e-001	1.713812e-001
25312722.000	9.709442e-001	1.713027e-001
25318716.000	9.709594e-001	1.712359e-001
25324710.000	9.709392e-001	1.711970e-001
25330704.000	9.710114e-001	1.711725e-001
25336698.000	9.710092e-001	1.710776e-001
25342692.000	9.710562e-001	1.710228e-001
25348686.000	9.710224e-001	1.709428e-001
25354680.000	9.709972e-001	1.709001e-001
25360674.000	9.710599e-001	1.708374e-001
25366668.000	9.710855e-001	1.707813e-001
25372662.000	9.710262e-001	1.707140e-001
25378656.000	9.710202e-001	1.706531e-001
25384650.000	9.710634e-001	1.705154e-001
25390644.000	9.710373e-001	1.705131e-001
25396638.000	9.710692e-001	1.704669e-001
25402632.000	9.710332e-001	1.703881e-001
25408626.000	9.710408e-001	1.703224e-001
25414620.000	9.710651e-001	1.702442e-001
25420614.000	9.711097e-001	1.702044e-001
25426608.000	9.710708e-001	1.700970e-001
25432602.000	9.711223e-001	1.701036e-001
25438596.000	9.711118e-001	1.700465e-001
25444590.000	9.711489e-001	1.699748e-001
25450584.000	9.710735e-001	1.698852e-001
25456578.000	9.711244e-001	1.698458e-001
25462572.000	9.710927e-001	1.697849e-001
25468566.000	9.711395e-001	1.697016e-001
25474560.000	9.712354e-001	1.696702e-001
25480554.000	9.712214e-001	1.695984e-001
25486548.000	9.712557e-001	1.695564e-001
25492542.000	9.712246e-001	1.694801e-001
25498536.000	9.712343e-001	1.694455e-001
25504530.000	9.712588e-001	1.693837e-001
25510524.000	9.712553e-001	1.693431e-001
25516518.000	9.712391e-001	1.692217e-001
25522512.000	9.712515e-001	1.691970e-001
25528506.000	9.712695e-001	1.690709e-001
25534500.000	9.713322e-001	1.690732e-001
25540494.000	9.712845e-001	1.689989e-001
25546488.000	9.712967e-001	1.689776e-001
25552482.000	9.712588e-001	1.688583e-001
25558476.000	9.713233e-001	1.687891e-001
25564470.000	9.713488e-001	1.687467e-001
25570464.000	9.714058e-001	1.686781e-001
25576458.000	9.713519e-001	1.686677e-001
25582452.000	9.713411e-001	1.685850e-001
25588446.000	9.713201e-001	1.685652e-001
25594440.000	9.713848e-001	1.684869e-001
25600434.000	9.715251e-001	1.685120e-001
25606428.000	9.714440e-001	1.683414e-001
25612422.000	9.714188e-001	1.682799e-001
25618416.000	9.713667e-001	1.682450e-001
25624410.000	9.714249e-001	1.681393e-001
25630404.000	9.714570e-001	1.681184e-001
25636398.000	9.714461e-001	1.680406e-001
25642392.000	9.714663e-001	1.679912e-001
25648386.000	9.714787e-001	1.679326e-001
25654380.000	9.714594e-001	1.678581e-001
25660374.000	9.714437e-001	1.678012e-001
25666368.000	9.714728e-001	1.676954e-001
25672362.000	9.714498e-001	1.676701e-001
25678356.000	9.715022e-001	1.675609e-001
25684350.000	9.714847e-001	1.675230e-001
25690344.000	9.715478e-001	1.675065e-001
25696338.000	9.715074e-001	1.674385e-001
25702332.000	9.715266e-001	1.673808e-001
25708326.000	9.715386e-001	1.673043e-001
25714320.000	9.715335e-001	1.672345e-001
25720314.000	9.715142e-001	1.671620e-001
25726308.000	9.715278e-001	1.671000e-001
25732302.000	9.715370e-001	1.670786e-001
25738296.000	9.715479e-001	1.669925e-001
25744290.000	9.715638e-001	1.669655e-001
25750284.000	9.715789e-001	1.668841e-001
25756278.000	9.715692e-001	1.668059e-001
25762272.000	9.716048e-001	1.667982e-001
25768266.000	9.716119e-001	1.667051e-001
25774260.000	9.716199e-001	1.666202e-001
25780254.000	9.715589e-001	1.665571e-001
25786248.000	9.716164e-001	1.665417e-001
25792242.000	9.716609e-001	1.664738e-001
25798236.000	9.716314e-001	1.664098e-001
25804230.000	9.716221e-001	1.663057e-001
25810224.000	9.716927e-001	1.662696e-001
25816218.000	9.716533e-001	1.662101e-001
25822212.000	9.716935e-001	1.661636e-001
25828206.000	9.717216e-001	1.660831e-001
25834200.000	9.716224e-001	1.660326e-001
25840194.000	9.716816e-001	1.659616e-001
25846188.000	9.716394e-001	1.659292e-001
25852182.000	9.716975e-001	1.658288e-001
25858176.000	9.717188e-001	1.658124e-001
25864170.000	9.717148e-001	1.657151e-001
25870164.000	9.717110e-001	1.656773e-001
25876158.000	9.716948e-001	1.656312e-001
25882152.000	9.717336e-001	1.655347e-001
25888146.000	9.717447e-001	1.654951e-001
25894140.000	9.717892e-001	1.654520e-001
25900134.000	9.717689e-001	1.653778e-001
25906128.000	9.717959e-001	1.653325e-001
25912122.000	9.718395e-001	1.652799e-001
25918116.000	9.718112e-001	1.652377e-001
25924110.000	9.718430e-001	1.651822e-001
25930104.000	9.718958e-001	1.650885e-001
25936098.000	9.718635e-001	1.650133e-001
25942092.000	9.718649e-001	1.649540e-001
25948086.000	9.718631e-001	1.649081e-001
25954080.000	9.718379e-001	1.648445e-001
25960074.000	9.718721e-001	1.648204e-001
25966068.000	9.719151e-001	1.647027e-001
25972062.000	9.718457e-001	1.646735e-001
25978056.000	9.719325e-001	1.645836e-001
25984050.000	9.718881e-001	1.645495e-001
25990044.000	9.718558e-001	1.644783e-001
25996038.000	9.719027e-001	1.644383e-001
26002032.000	9.718815e-001	1.643611e-001
26008026.000	9.719011e-001	1.642652e-001
26014020.000	9.719004e-001	1.642242e-001
26020014.000	9.719478e-001	1.641902e-001
26026008.000	9.719398e-001	1.641539e-001
26032002.000	9.719699e-001	1.640617e-001
26037996.000	9.720112e-001	1.640190e-001
26043990.000	9.720007e-001	1.639788e-001
26049984.000	9.720152e-001	1.639154e-001
26055978.000	9.720392e-001	1.638597e-001
26061972.000	9.719899e-001	1.637733e-001
26067966.000	9.720094e-001	1.637186e-001
26073960.000	9.720304e-001	1.636653e-001
26079954.000	9.720342e-001	1.636455e-001
26085948.000	9.720621e-001	1.635987e-001
26091942.000	9.720511e-001	1.634909e-001
26097936.000	9.720605e-001	1.634344e-001
26103930.000	9.720616e-001	1.633624e-001
26109924.000	9.720225e-001	1.633031e-001
26115918.000	9.720415e-001	1.632639e-001
26121912.000	9.720829e-001	1.631796e-001
26127906.000	9.720859e-001	1.631480e-001
26133900.000	9.720944e-001	1.631084e-001
26139894.000	9.720646e-001	1.630317e-001
26145888.000	9.721534e-001	1.629909e-001
26151882.000	9.720827e-001	1.628985e-001
26157876.000	9.721308e-001	1.628839e-001
26163870.000	9.721246e-001	1.627827e-001
26169864.000	9.721461e-001	1.627086e-001
26175858.000	9.721397e-001	1.626878e-001
26181852.000	9.721543e-001	1.625995e-001
26187846.000	9.721544e-001	1.625680e-001
26193840.000	9.721862e-001	1.625310e-001
26199834.000	9.721987e-001	1.624501e-001
26205828.000	9.721895e-001	1.623719e-001
26211822.000	9.721858e-001	1.623049e-001
26217816.000	9.722328e-001	1.622932e-001
26223810.000	9.722178e-001	1.621889e-001
26229804.000	9.722097e-001	1.621325e-001
26235798.000	9.722047e-001	1.620696e-001
26241792.000	9.722630e-001	1.620429e-001
26247786.000	9.722642e-001	1.620077e-001
26253780.000	9.722726e-001	1.619125e-001
26259774.000	9.722580e-001	1.618657e-001
26265768.000	9.722779e-001	1.618072e-001
26271762.000	9.723133e-001	1.617005e-001
26277756.000	9.722886e-001	1.616693e-001
26283750.000	9.722925e-001	1.616317e-001
26289744.000	9.723284e-001	1.615463e-001
26295738.000	9.722560e-001	1.615120e-001
26301732.000	9.722860e-001	1.614530e-001
26307726.000	9.723271e-001	1.613538e-001
26313720.000	9.723198e-001	1.613248e-001
26319714.000	9.723681e-001	1.612497e-001
26325708.000	9.723885e-001	1.611855e-001
26331702.000	9.723597e-001	1.611594e-001
26337696.000	9.723782e-001	1.610803e-001
26343690.000	9.723772e-001	1.610155e-001
26349684.000	9.723968e-001	1.609610e-001
26355678.000	9.724305e-001	1.609382e-001
26361672.000	9.724050e-001	1.608130e-001
26367666.000	9.723689e-001	1.608048e-001
26373660.000	9.723580e-001	1.607307e-001
26379654.000	9.724183e-001	1.606332e-001
26385648.000	9.724224e-001	1.606216e-001
26391642.000	9.724441e-001	1.605877e-001
26397636.000	9.724244e-001	1.604955e-001
26403630.000	9.724455e-001	1.604411e-001
26409624.000	9.724013e-001	1.603724e-001
26415618.000	9.724455e-001	1.603179e-001
26421612.000	9.724389e-001	1.602775e-001
26427606.000	9.724497e-001	1.602486e-001
26433600.000	9.724777e-001	1.601756e-001
26439594.000	9.724271e-001	1.600933e-001
26445588.000	9.724445e-001	1.600691e-001
26451582.000	9.724821e-001	1.599763e-001
26457576.000	9.725351e-001	1.598935e-001
26463570.000	9.725064e-001	1.598725e-001
26469564.000	9.725231e-001	1.598262e-001
26475558.000	9.725074e-001	1.597659e-001
26481552.000	9.725595e-001	1.596776e-001
26487546.000	9.725435e-001	1.596366e-001
26493540.000	9.725663e-001	1.595874e-001
26499534.000	9.725626e-001	1.595123e-001
26505528.000	9.725711e-001	1.594851e-001
26511522.000	9.725349e-001	1.594262e-001
26517516.000	9.725659e-001	1.593731e-001
26523510.000	9.725910e-001	1.593169e-001
26529504.000	9.726176e-001	1.592587e-001
26535498.000	9.726057e-001	1.591793e-001
26541492.000	9.726156e-001	1.591551e-001
26547486.000	9.726521e-001	1.590712e-001
26553480.000	9.726382e-001	1.590073e-001
26559474.000	9.726279e-001	1.589273e-001
26565468.000	9.726364e-001	1.588931e-001
26571462.000	9.726321e-001	1.588577e-001
26577456.000	9.726232e-001	1.588125e-001
26583450.000	9.726661e-001	1.587095e-001
26589444.000	9.726649e-001	1.586565e-001
26595438.000	9.726429e-001	1.585972e-001
26601432.000	9.726264e-001	1.585336e-001
26607426.000	9.726780e-001	1.584762e-001
26613420.000	9.727137e-001	1.584576e-001
26619414.000	9.726493e-001	1.583785e-001
26625408.000	9.727118e-001	1.583417e-001
26631402.000	9.726919e-001	1.582660e-001
26637396.000	9.727461e-001	1.582338e-001
26643390.000	9.727190e-001	1.581561e-001
26649384.000	9.727656e-001	1.581249e-001
26655378.000	9.727794e-001	1.580201e-001
26661372.000	9.727241e-001	1.580043e-001
26667366.000	9.727306e-001	1.579237e-001
26673360.000	9.726856e-001	1.578554e-001
26679354.000	9.727773e-001	1.578167e-001
26685348.000	9.727714e-001	1.577411e-001
26691342.000	9.727741e-001	1.576771e-001
26697336.000	9.728052e-001	1.576198e-001
26703330.000	9.728155e-001	1.575952e-001
26709324.000	9.727613e-001	1.575350e-001
26715318.000	9.728069e-001	1.574615e-001
26721312.000	9.727986e-001	1.574228e-001
26727306.000	9.728244e-001	1.573878e-001
26733300.000	9.728261e-001	1.573199e-001
26739294.000	9.728447e-001	1.573041e-001
26745288.000	9.728690e-001	1.572098e-001
26751282.000	9.728400e-001	1.571660e-001
26757276.000	9.728827e-001	1.571127e-001
26763270.000	9.729157e-001	1.570741e-001
26769264.000	9.728327e-001	1.569506e-001
26775258.000	9.729255e-001	1.569117e-001
26781252.000	9.728650e-001	1.568433e-001
26787246.000	9.728255e-001	1.567912e-001
26793240.000	9.728694e-001	1.567368e-001
26799234.000	9.728760e-001	1.566905e-001
26805228.000	9.729262e-001	1.566308e-001
26811222.000	9.729255e-001	1.565514e-001
26817216.000	9.729225e-001	1.564921e-001
26823210.000	9.728925e-001	1.564691e-001
26829204.000	9.729075e-001	1.563703e-001
26835198.000	9.728941e-001	1.563520e-001
26841192.000	9.729480e-001	1.563001e-001
26847186.000	9.729285e-001	1.562209e-001
26853180.000	9.729355e-001	1.561701e-001
26859174.000	9.729507e-001	1.560998e-001
26865168.000	9.729367e-001	1.560720e-001
26871162.000	9.729794e-001	1.560003e-001
26877156.000	9.729623e-001	1.559481e-001
26883150.000	9.729455e-001	1.558730e-001
26889144.000	9.729721e-001	1.558322e-001
26895138.000	9.730237e-001	1.557169e-001
26901132.000	9.729628e-001	1.557421e-001
26907126.000	9.729751e-001	1.556492e-001
26913120.000	9.730040e-001	1.555975e-001
26919114.000	9.729821e-001	1.555462e-001
26925108.000	9.730025e-001	1.555044e-001
26931102.000	9.730510e-001	1.554477e-001
26937096.000	9.729941e-001	1.553839e-001
26943090.000	9.730437e-001	1.553247e-001
26949084.000	9.730448e-001	1.552691e-001
26955078.000	9.730691e-001	1.551801e-001
26961072.000	9.730276e-001	1.551255e-001
26967066.000	9.730861e-001	1.551286e-001
26973060.000	9.730539e-001	1.550667e-001
26979054.000	9.730528e-001	1.550144e-001
26985048.000	9.730784e-001	1.549295e-001
26991042.000	9.731035e-001	1.548692e-001
26997036.000	9.730889e-001	1.548284e-001
27003030.000	9.730903e-001	1.547640e-001
27009024.000	9.731085e-001	1.546956e-001
27015018.000	9.730954e-001	1.546534e-001
27021012.000	9.731604e-001	1.545781e-001
27027006.000	9.731572e-001	1.545683e-001
27033000.000	9.731533e-001	1.545131e-001
27038994.000	9.731055e-001	1.544569e-001
27044988.000	9.731723e-001	1.544040e-001
27050982.000	9.731651e-001	1.543576e-001
27056976.000	9.731653e-001	1.542473e-001
27062970.000	9.731567e-001	1.542009e-001
27068964.000	9.732179e-001	1.541777e-001
27074958.000	9.731970e-001	1.541045e-001
27080952.000	9.731940e-001	1.540574e-001
27086946.000	9.732291e-001	1.540091e-001
27092940.000	9.732096e-001	1.539423e-001
27098934.000	9.732158e-001	1.539018e-001
27104928.000	9.732407e-001	1.538343e-001
27110922.000	9.732172e-001	1.537326e-001
27116916.000	9.732440e-001	1.537549e-001
27122910.000	9.731944e-001	1.536695e-001
27128904.000	9.732292e-001	1.535929e-001
27134898.000	9.732391e-001	1.535790e-001
27140892.000	9.732091e-001	1.535039e-001
27146886.000	9.732195e-001	1.534095e-001
27152880.000	9.732564e-001	1.533732e-001
27158874.000	9.732575e-001	1.533423e-001
27164868.000	9.732717e-001	1.532703e-001
27170862.000	9.732821e-001	1.531808e-001
27176856.000	9.733233e-001	1.531335e-001
27182850.000	9.733164e-001	1.531094e-001
27188844.000	9.733082e-001	1.530546e-001
27194838.000	9.733463e-001	1.530178e-001
27200832.000	9.732568e-001	1.529825e-001
27206826.000	9.733059e-001	1.528665e-001
27212820.000	9.733383e-001	1.528423e-001
27218814.000	9.732773e-001	1.527826e-001
27224808.000	9.732963e-001	1.527141e-001
27230802.000	9.733736e-001	1.526535e-001
27236796.000	9.733685e-001	1.526264e-001
27242790.000	9.733746e-001	1.525630e-001
27248784.000	9.733690e-001	1.525163e-001
27254778.000	9.733654e-001	1.524469e-001
27260772.000	9.734216e-001	1.524065e-001
27266766.000	9.733947e-001	1.523639e-001
27272760.000	9.734180e-001	1.522841e-001
27278754.000	9.734415e-001	1.522438e-001
27284748.000	9.733804e-001	1.521635e-001
27290742.000	9.734243e-001	1.521185e-001
27296736.000	9.733767e-001	1.520564e-001
27302730.000	9.734105e-001	1.519939e-001
27308724.000	9.734498e-001	1.519356e-001
27314718.000	9.734177e-001	1.518679e-001
27320712.000	9.734021e-001	1.518308e-001
27326706.000	9.733887e-001	1.517876e-001
27332700.000	9.734639e-001	1.517163e-001
27338694.000	9.734612e-001	1.516966e-001
27344688.000	9.734370e-001	1.516036e-001
27350682.000	9.734332e-001	1.515254e-001
27356676.000	9.734557e-001	1.515402e-001
27362670.000	9.735100e-001	1.514939e-001
27368664.000	9.734978e-001	1.514546e-001
27374658.000	9.734857e-001	1.513499e-001
27380652.000	9.735193e-001	1.513025e-001
27386646.000	9.734911e-001	1.512580e-001
27392640.000	9.735336e-001	1.512081e-001
27398634.000	9.735495e-001	1.511725e-001
27404628.000	9.735356e-001	1.510649e-001
27410622.000	9.735344e-001	1.510119e-001
27416616.000	9.735912e-001	1.509820e-001
27422610.000	9.735823e-001	1.509425e-001
27428604.000	9.735753e-001	1.508341e-001
27434598.000	9.736102e-001	1.507979e-001
27440592.000	9.735829e-001	1.507491e-001
27446586.000	9.735422e-001	1.507074e-001
27452580.000	9.735914e-001	1.506560e-001
27458574.000	9.736065e-001	1.505655e-001
27464568.000	9.736020e-001	1.505183e-001
27470562.000	9.736149e-001	1.504681e-001
27476556.000	9.736279e-001	1.504468e-001
27482550.000	9.736385e-001	1.503822e-001
27488544.000	9.736696e-001	1.503416e-001
27494538.000	9.736134e-001	1.502764e-001
27500532.000	9.736408e-001	1.502177e-001
27506526.000	9.736416e-001	1.501492e-001
27512520.000	9.736776e-001	1.500788e-001
27518514.000	9.736825e-001	1.500362e-001
27524508.000	9.736887e-001	1.499890e-001
27530502.000	9.737322e-001	1.499452e-001
27536496.000	9.737329e-001	1.498807e-001
27542490.000	9.737390e-001	1.498190e-001
27548484.000	9.737283e-001	1.497570e-001
27554478.000	9.737084e-001	1.497056e-001
27560472.000	9.736952e-001	1.496843e-001
27566466.000	9.737183e-001	1.496126e-001
27572460.000	9.736872e-001	1.495803e-001
27578454.000	9.737308e-001	1.494980e-001
27584448.000	9.737533e-001	1.494548e-001
27590442.000	9.737011e-001	1.494005e-001
27596436.000	9.737770e-001	1.493699e-001
27602430.000	9.737564e-001	1.492899e-001
27608424.000	9.738040e-001	1.492836e-001
27614418.000	9.737621e-001	1.491989e-001
27620412.000	9.738030e-001	1.491840e-001
27626406.000	9.737728e-001	1.490527e-001
27632400.000	9.738142e-001	1.490346e-001
27638394.000	9.738518e-001	1.490019e-001
27644388.000	9.738314e-001	1.489249e-001
27650382.000	9.738082e-001	1.488684e-001
27656376.000	9.738199e-001	1.488202e-001
27662370.000	9.738819e-001	1.487630e-001
27668364.000	9.738562e-001	1.486879e-001
27674358.000	9.738413e-001	1.486779e-001
27680352.000	9.738211e-001	1.485852e-001
27686346.000	9.738690e-001	1.485626e-001
27692340.000	9.738727e-001	1.484705e-001
27698334.000	9.739312e-001	1.484955e-001
27704328.000	9.738682e-001	1.483644e-001
27710322.000	9.738795e-001	1.483513e-001
27716316.000	9.738551e-001	1.482789e-001
27722310.000	9.739131e-001	1.482451e-001
27728304.000	9.738759e-001	1.481663e-001
27734298.000	9.738971e-001	1.481317e-001
27740292.000	9.738818e-001	1.480394e-001
27746286.000	9.738716e-001	1.480070e-001
27752280.000	9.738909e-001	1.479612e-001
27758274.000	9.739808e-001	1.479750e-001
27764268.000	9.740020e-001	1.478846e-001
27770262.000	9.739504e-001	1.478036e-001
27776256.000	9.740050e-001	1.477386e-001
27782250.000	9.739383e-001	1.476960e-001
27788244.000	9.739572e-001	1.476247e-001
27794238.000	9.739529e-001	1.476414e-001
27800232.000	9.739415e-001	1.475253e-001
27806226.000	9.739846e-001	1.474915e-001
27812220.000	9.739624e-001	1.474173e-001
27818214.000	9.739668e-001	1.473903e-001
27824208.000	9.739742e-001	1.473088e-001
27830202.000	9.740162e-001	1.472692e-001
27836196.000	9.739615e-001	1.471904e-001
27842190.000	9.740468e-001	1.471653e-001
27848184.000	9.740455e-001	1.471363e-001
27854178.000	9.740351e-001	1.470210e-001
27860172.000	9.739997e-001	1.469881e-001
27866166.000	9.740319e-001	1.469865e-001
27872160.000	9.740482e-001	1.469233e-001
27878154.000	9.740738e-001	1.468639e-001
27884148.000	9.741097e-001	1.467660e-001
27890142.000	9.740762e-001	1.467245e-001
27896136.000	9.740600e-001	1.466796e-001
27902130.000	9.740880e-001	1.466422e-001
27908124.000	9.741218e-001	1.466216e-001
27914118.000	9.740782e-001	1.465378e-001
27920112.000	9.741657e-001	1.464825e-001
27926106.000	9.741347e-001	1.464597e-001
27932100.000	9.741534e-001	1.464079e-001
27938094.000	9.741765e-001	1.462786e-001
27944088.000	9.741551e-001	1.462671e-001
27950082.000	9.741254e-001	1.462137e-001
27956076.000	9.740923e-001	1.461570e-001
27962070.000	9.741805e-001	1.461226e-001
27968064.000	9.742042e-001	1.460630e-001
27974058.000	9.741521e-001	1.460033e-001
27980052.000	9.741778e-001	1.459858e-001
27986046.000	9.741419e-001	1.459230e-001
27992040.000	9.741343e-001	1.458839e-001
27998034.000	9.742012e-001	1.457945e-001
28004028.000	9.741906e-001	1.456937e-001
28010022.000	9.742084e-001	1.456942e-001
28016016.000	9.741957e-001	1.455977e-001
28022010.000	9.742108e-001	1.455481e-001
28028004.000	9.741686e-001	1.455083e-001
28033998.000	9.741853e-001	1.455117e-001
28039992.000	9.742122e-001	1.454763e-001
28045986.000	9.742034e-001	1.453494e-001
28051980.000	9.741577e-001	1.453126e-001
28057974.000	9.741629e-001	1.452264e-001
28063968.000	9.741971e-001	1.452146e-001
28069962.000	9.742375e-001	1.451678e-001
28075956.000	9.743000e-001	1.451338e-001
28081950.000	9.742684e-001	1.450501e-001
28087944.000	9.742481e-001	1.449801e-001
28093938.000	9.742785e-001	1.449385e-001
28099932.000	9.742803e-001	1.448886e-001
28105926.000	9.743077e-001	1.448592e-001
28111920.000	9.742953e-001	1.447944e-001
28117914.000	9.743475e-001	1.447762e-001
28123908.000	9.742889e-001	1.446922e-001
28129902.000	9.743159e-001	1.446607e-001
28135896.000	9.742907e-001	1.445598e-001
28141890.000	9.742984e-001	1.445494e-001
28147884.000	9.743243e-001	1.444900e-001
28153878.000	9.743164e-001	1.444099e-001
28159872.000	9.743404e-001	1.443520e-001
28165866.000	9.743740e-001	1.443301e-001
28171860.000	9.743979e-001	1.442906e-001
28177854.000	9.743434e-001	1.441778e-001
28183848.000	9.743616e-001	1.441335e-001
28189842.000	9.743719e-001	1.440881e-001
28195836.000	9.743619e-001	1.440429e-001
28201830.000	9.743618e-001	1.439937e-001
28207824.000	9.744064e-001	1.439839e-001
28213818.000	9.743920e-001	1.438929e-001
28219812.000	9.744532e-001	1.438645e-001
28225806.000	9.744097e-001	1.438076e-001
28231800.000	9.743835e-001	1.437377e-001
28237794.000	9.744006e-001	1.436779e-001
28243788.000	9.743877e-001	1.436364e-001
28249782.000	9.744440e-001	1.436140e-001
28255776.000	9.744209e-001	1.435415e-001
28261770.000	9.744362e-001	1.435016e-001
28267764.000	9.744663e-001	1.434326e-001
28273758.000	9.744840e-001	1.433615e-001
28279752.000	9.744563e-001	1.433439e-001
28285746.000	9.744498e-001	1.432824e-001
28291740.000	9.745448e-001	1.432525e-001
28297734.000	9.745251e-001	1.431886e-001
28303728.000	9.745303e-001	1.431545e-001
28309722.000	9.744967e-001	1.430571e-001
28315716.000	9.744577e-001	1.430184e-001
28321710.000	9.745330e-001	1.429995e-001
28327704.000	9.745128e-001	1.429127e-001
28333698.000	9.745281e-001	1.429162e-001
28339692.000	9.745464e-001	1.428418e-001
28345686.000	9.745298e-001	1.427676e-001
28351680.000	9.745031e-001	1.427418e-001
28357674.000	9.744970e-001	1.426879e-001
28363668.000	9.745511e-001	1.426594e-001
28369662.000	9.745613e-001	1.426149e-001
28375656.000	9.745747e-001	1.425247e-001
28381650.000	9.745731e-001	1.425082e-001
28387644.000	9.746003e-001	1.424239e-001
28393638.000	9.746929e-001	1.423783e-001
28399632.000	9.745512e-001	1.422706e-001
28405626.000	9.746052e-001	1.422659e-001
28411620.000	9.745830e-001	1.422042e-001
28417614.000	9.746254e-001	1.421713e-001
28423608.000	9.746351e-001	1.421334e-001
28429602.000	9.746013e-001	1.420288e-001
28435596.000	9.746230e-001	1.420261e-001
28441590.000	9.745652e-001	1.419345e-001
28447584.000	9.746500e-001	1.418628e-001
28453578.000	9.746638e-001	1.418625e-001
28459572.000	9.746489e-001	1.418384e-001
28465566.000	9.746652e-001	1.417954e-001
28471560.000	9.746288e-001	1.416561e-001
28477554.000	9.746099e-001	1.416131e-001
28483548.000	9.746303e-001	1.415901e-001
28489542.000	9.746704e-001	1.415341e-001
28495536.000	9.746669e-001	1.414796e-001
28501530.000	9.746635e-001	1.414399e-001
28507524.000	9.747320e-001	1.413731e-001
28513518.000	9.747040e-001	1.413234e-001
28519512.000	9.747596e-001	1.413212e-001
28525506.000	9.747136e-001	1.412298e-001
28531500.000	9.747429e-001	1.411907e-001
28537494.000	9.747452e-001	1.411471e-001
28543488.000	9.747663e-001	1.410767e-001
28549482.000	9.747651e-001	1.410413e-001
28555476.000	9.747771e-001	1.409731e-001
28561470.000	9.747824e-001	1.409133e-001
28567464.000	9.747964e-001	1.408918e-001
28573458.000	9.747318e-001	1.408326e-001
28579452.000	9.748424e-001	1.408070e-001
28585446.000	9.747983e-001	1.407157e-001
28591440.000	9.747429e-001	1.407050e-001
28597434.000	9.748157e-001	1.406530e-001
28603428.000	9.748431e-001	1.405932e-001
28609422.000	9.748173e-001	1.405500e-001
28615416.000	9.748267e-001	1.404884e-001
28621410.000	9.748240e-001	1.404375e-001
28627404.000	9.748371e-001	1.403842e-001
28633398.000	9.748133e-001	1.402875e-001
28639392.000	9.748070e-001	1.402791e-001
28645386.000	9.748386e-001	1.401979e-001
28651380.000	9.749048e-001	1.402118e-001
28657374.000	9.749068e-001	1.401306e-001
28663368.000	9.748497e-001	1.400336e-001
28669362.000	9.748670e-001	1.400337e-001
28675356.000	9.748900e-001	1.399683e-001
28681350.000	9.748481e-001	1.398968e-001
28687344.000	9.748531e-001	1.398605e-001
28693338.000	9.748517e-001	1.398050e-001
28699332.000	9.749014e-001	1.397687e-001
28705326.000	9.748819e-001	1.397449e-001
28711320.000	9.748744e-001	1.396459e-001
28717314.000	9.748367e-001	1.396215e-001
28723308.000	9.748999e-001	1.395624e-001
28729302.000	9.749097e-001	1.395459e-001
28735296.000	9.749362e-001	1.394879e-001
28741290.000	9.749650e-001	1.394614e-001
28747284.000	9.749386e-001	1.393439e-001
28753278.000	9.749390e-001	1.393241e-001
28759272.000	9.749648e-001	1.392737e-001
28765266.000	9.749743e-001	1.391947e-001
28771260.000	9.749608e-001	1.391462e-001
28777254.000	9.749329e-001	1.390923e-001
28783248.000	9.750134e-001	1.391129e-001
28789242.000	9.749762e-001	1.390045e-001
28795236.000	9.750067e-001	1.389592e-001
28801230.000	9.750180e-001	1.389162e-001
28807224.000	9.750068e-001	1.388615e-001
28813218.000	9.749809e-001	1.387724e-001
28819212.000	9.750292e-001	1.387495e-001
28825206.000	9.750091e-001	1.387219e-001
28831200.000	9.750043e-001	1.386987e-001
28837194.000	9.749773e-001	1.386087e-001
28843188.000	9.750499e-001	1.385929e-001
28849182.000	9.750205e-001	1.384866e-001
28855176.000	9.749917e-001	1.384403e-001
28861170.000	9.750685e-001	1.384242e-001
28867164.000	9.750423e-001	1.383696e-001
28873158.000	9.750425e-001	1.383176e-001
28879152.000	9.750845e-001	1.382648e-001
28885146.000	9.750618e-001	1.382159e-001
28891140.000	9.750942e-001	1.381481e-001
28897134.000	9.750951e-001	1.380853e-001
28903128.000	9.750632e-001	1.380822e-001
28909122.000	9.751369e-001	1.380206e-001
28915116.000	9.751502e-001	1.379445e-001
28921110.000	9.751111e-001	1.379031e-001
28927104.000	9.750894e-001	1.378852e-001
28933098.000	9.751127e-001	1.378127e-001
28939092.000	9.752054e-001	1.377586e-001
28945086.000	9.751470e-001	1.377357e-001
28951080.000	9.751371e-001	1.376444e-001
28957074.000	9.751079e-001	1.375930e-001
28963068.000	9.751409e-001	1.375658e-001
28969062.000	9.751617e-001	1.375161e-001
28975056.000	9.751722e-001	1.374476e-001
28981050.000	9.751395e-001	1.374202e-001
28987044.000	9.751722e-001	1.373625e-001
28993038.000	9.751202e-001	1.373286e-001
28999032.000	9.751848e-001	1.372591e-001
29005026.000	9.751280e-001	1.371940e-001
29011020.000	9.751721e-001	1.371800e-001
29017014.000	9.751938e-001	1.371177e-001
29023008.000	9.752276e-001	1.370788e-001
29029002.000	9.751844e-001	1.370177e-001
29034996.000	9.752190e-001	1.369600e-001
29040990.000	9.752225e-001	1.369197e-001
29046984.000	9.752106e-001	1.368411e-001
29052978.000	9.752470e-001	1.367957e-001
29058972.000	9.752226e-001	1.367673e-001
29064966.000	9.752974e-001	1.367109e-001
29070960.000	9.752303e-001	1.366705e-001
29076954.000	9.752209e-001	1.366122e-001
29082948.000	9.752156e-001	1.365661e-001
29088942.000	9.752277e-001	1.365108e-001
29094936.000	9.752038e-001	1.364619e-001
29100930.000	9.752528e-001	1.364221e-001
29106924.000	9.752304e-001	1.363696e-001
29112918.000	9.752855e-001	1.363390e-001
29118912.000	9.752829e-001	1.362897e-001
29124906.000	9.752892e-001	1.361919e-001
29130900.000	9.752844e-001	1.361389e-001
29136894.000	9.752633e-001	1.361285e-001
29142888.000	9.752885e-001	1.360682e-001
29148882.000	9.752878e-001	1.360282e-001
29154876.000	9.752989e-001	1.359496e-001
29160870.000	9.753116e-001	1.359328e-001
29166864.000	9.752957e-001	1.358909e-001
29172858.000	9.753256e-001	1.358083e-001
29178852.000	9.753466e-001	1.357390e-001
29184846.000	9.752601e-001	1.357017e-001
29190840.000	9.753092e-001	1.356632e-001
29196834.000	9.752958e-001	1.355972e-001
29202828.000	9.753213e-001	1.355591e-001
29208822.000	9.753058e-001	1.354895e-001
29214816.000	9.753221e-001	1.354636e-001
29220810.000	9.753390e-001	1.354087e-001
29226804.000	9.753131e-001	1.353846e-001
29232798.000	9.753332e-001	1.353184e-001
29238792.000	9.753326e-001	1.352341e-001
29244786.000	9.753671e-001	1.352210e-001
29250780.000	9.753409e-001	1.351840e-001
29256774.000	9.753527e-001	1.351258e-001
29262768.000	9.753093e-001	1.350624e-001
29268762.000	9.753679e-001	1.349869e-001
29274756.000	9.754106e-001	1.349671e-001
29280750.000	9.753904e-001	1.349018e-001
29286744.000	9.753948e-001	1.348808e-001
29292738.000	9.754077e-001	1.348185e-001
29298732.000	9.754342e-001	1.348061e-001
29304726.000	9.754420e-001	1.347310e-001
29310720.000	9.753683e-001	1.346618e-001
29316714.000	9.754082e-001	1.346637e-001
29322708.000	9.753321e-001	1.345989e-001
29328702.000	9.753957e-001	1.345569e-001
29334696.000	9.754122e-001	1.345307e-001
29340690.000	9.754308e-001	1.344363e-001
29346684.000	9.754275e-001	1.343684e-001
29352678.000	9.754006e-001	1.343383e-001
29358672.000	9.754378e-001	1.342813e-001
29364666.000	9.754596e-001	1.342285e-001
29370660.000	9.754468e-001	1.342075e-001
29376654.000	9.754222e-001	1.341494e-001
29382648.000	9.754308e-001	1.340992e-001
29388642.000	9.754144e-001	1.340245e-001
29394636.000	9.754338e-001	1.339857e-001
29400630.000	9.754385e-001	1.339435e-001
29406624.000	9.754399e-001	1.338832e-001
29412618.000	9.754904e-001	1.338420e-001
29418612.000	9.755036e-001	1.338031e-001
29424606.000	9.755219e-001	1.337688e-001
29430600.000	9.755351e-001	1.337058e-001
29436594.000	9.755180e-001	1.336886e-001
29442588.000	9.755475e-001	1.335941e-001
29448582.000	9.755326e-001	1.335452e-001
29454576.000	9.754952e-001	1.335014e-001
29460570.000	9.755335e-001	1.334639e-001
29466564.000	9.754946e-001	1.334120e-001
29472558.000	9.755877e-001	1.333595e-001
29478552.000	9.755448e-001	1.333221e-001
29484546.000	9.755616e-001	1.332481e-001
29490540.000	9.755368e-001	1.332139e-001
29496534.000	9.754991e-001	1.331688e-001
29502528.000	9.755435e-001	1.331208e-001
29508522.000	9.755417e-001	1.330972e-001
29514516.000	9.755347e-001	1.330260e-001
29520510.000	9.755888e-001	1.329967e-001
29526504.000	9.755575e-001	1.329411e-001
29532498.000	9.755830e-001	1.328766e-001
29538492.000	9.755780e-001	1.328524e-001
29544486.000	9.756415e-001	1.327949e-001
29550480.000	9.756164e-001	1.327619e-001
29556474.000	9.755813e-001	1.326960e-001
29562468.000	9.755841e-001	1.326164e-001
29568462.000	9.756290e-001	1.326093e-001
29574456.000	9.756249e-001	1.325285e-001
29580450.000	9.755996e-001	1.325425e-001
29586444.000	9.756109e-001	1.324422e-001
29592438.000	9.756478e-001	1.324477e-001
29598432.000	9.756685e-001	1.323240e-001
29604426.000	9.756546e-001	1.322978e-001
29610420.000	9.756518e-001	1.322684e-001
29616414.000	9.756712e-001	1.322058e-001
29622408.000	9.756936e-001	1.321541e-001
29628402.000	9.756625e-001	1.321117e-001
29634396.000	9.756900e-001	1.320601e-001
29640390.000	9.757232e-001	1.320184e-001
29646384.000	9.756971e-001	1.319583e-001
29652378.000	9.757142e-001	1.319021e-001
29658372.000	9.757175e-001	1.318825e-001
29664366.000	9.756891e-001	1.318260e-001
29670360.000	9.756824e-001	1.317583e-001
29676354.000	9.757042e-001	1.317185e-001
29682348.000	9.756653e-001	1.317058e-001
29688342.000	9.757310e-001	1.316417e-001
29694336.000	9.757221e-001	1.315946e-001
29700330.000	9.757560e-001	1.315423e-001
29706324.000	9.757350e-001	1.315116e-001
29712318.000	9.757909e-001	1.314300e-001
29718312.000	9.757163e-001	1.313779e-001
29724306.000	9.757262e-001	1.313463e-001
29730300.000	9.757311e-001	1.312924e-001
29736294.000	9.757890e-001	1.312357e-001
29742288.000	9.757941e-001	1.311834e-001
29748282.000	9.757664e-001	1.311693e-001
29754276.000	9.757984e-001	1.311171e-001
29760270.000	9.757678e-001	1.310156e-001
29766264.000	9.757967e-001	1.309556e-001
29772258.000	9.758056e-001	1.309849e-001
29778252.000	9.758037e-001	1.309184e-001
29784246.000	9.757834e-001	1.308385e-001
29790240.000	9.758102e-001	1.308227e-001
29796234.000	9.758107e-001	1.307878e-001
29802228.000	9.757969e-001	1.307032e-001
29808222.000	9.758206e-001	1.307319e-001
29814216.000	9.758226e-001	1.306753e-001
29820210.000	9.758169e-001	1.306083e-001
29826204.000	9.758875e-001	1.305982e-001
29832198.000	9.758523e-001	1.305194e-001
29838192.000	9.758605e-001	1.304608e-001
29844186.000	9.758422e-001	1.304226e-001
29850180.000	9.758531e-001	1.303695e-001
29856174.000	9.759049e-001	1.302946e-001
29862168.000	9.758612e-001	1.302569e-001
29868162.000	9.758782e-001	1.301981e-001
29874156.000	9.758334e-001	1.301783e-001
29880150.000	9.758245e-001	1.301289e-001
29886144.000	9.758087e-001	1.300736e-001
29892138.000	9.758513e-001	1.299956e-001
29898132.000	9.759114e-001	1.299922e-001
29904126.000	9.758946e-001	1.299122e-001
29910120.000	9.758837e-001	1.298589e-001
29916114.000	9.758994e-001	1.298583e-001
29922108.000	9.758508e-001	1.297517e-001
29928102.000	9.759123e-001	1.297189e-001
29934096.000	9.759144e-001	1.296911e-001
29940090.000	9.759446e-001	1.296457e-001
29946084.000	9.759348e-001	1.295828e-001
29952078.000	9.759006e-001	1.295395e-001
29958072.000	9.759243e-001	1.294900e-001
29964066.000	9.759238e-001	1.294382e-001
29970060.000	9.759159e-001	1.294175e-001
29976054.000	9.759376e-001	1.293680e-001
29982048.000	9.759391e-001	1.292980e-001
29988042.000	9.759902e-001	1.292359e-001
29994036.000	9.759656e-001	1.292274e-001
30000030.000	9.759918e-001	1.291917e-001
30006024.000	9.759821e-001	1.291072e-001
30012018.000	9.759550e-001	1.290541e-001
30018012.000	9.760028e-001	1.290193e-001
30024006.000	9.760119e-001	1.289962e-001
30030000.000	9.759841e-001	1.289393e-001
30035994.000	9.760156e-001	1.288811e-001
30041988.000	9.760116e-001	1.288525e-001
30047982.000	9.760470e-001	1.287796e-001
30053976.000	9.760305e-001	1.287271e-001
30059970.000	9.760459e-001	1.287059e-001
30065964.000	9.760033e-001	1.286318e-001
30071958.000	9.760277e-001	1.286093e-001
30077952.000	9.760785e-001	1.285558e-001
30083946.000	9.760587e-001	1.285253e-001
30089940.000	9.760678e-001	1.284276e-001
30095934.000	9.760402e-001	1.284169e-001
30101928.000	9.760572e-001	1.283905e-001
30107922.000	9.760868e-001	1.283259e-001
30113916.000	9.760930e-001	1.282445e-001
30119910.000	9.760547e-001	1.282432e-001
30125904.000	9.761111e-001	1.281922e-001
30131898.000	9.760492e-001	1.281004e-001
30137892.000	9.760273e-001	1.280740e-001
30143886.000	9.760857e-001	1.280450e-001
30149880.000	9.760690e-001	1.279942e-001
30155874.000	9.760772e-001	1.279986e-001
30161868.000	9.760641e-001	1.278987e-001
30167862.000	9.760805e-001	1.278397e-001
30173856.000	9.760830e-001	1.278015e-001
30179850.000	9.760725e-001	1.277359e-001
30185844.000	9.761334e-001	1.277243e-001
30191838.000	9.761305e-001	1.276547e-001
30197832.000	9.761199e-001	1.276160e-001
30203826.000	9.761331e-001	1.275669e-001
30209820.000	9.760750e-001	1.275476e-001
30215814.000	9.761752e-001	1.274569e-001
30221808.000	9.761470e-001	1.274602e-001
30227802.000	9.761691e-001	1.273824e-001
30233796.000	9.761722e-001	1.273179e-001
30239790.000	9.761940e-001	1.272885e-001
30245784.000	9.761567e-001	1.272410e-001
30251778.000	9.761277e-001	1.271996e-001
30257772.000	9.761509e-001	1.271397e-001
30263766.000	9.761566e-001	1.271014e-001
30269760.000	9.761735e-001	1.270118e-001
30275754.000	9.761894e-001	1.270299e-001
30281748.000	9.761956e-001	1.269526e-001
30287742.000	9.761740e-001	1.268972e-001
30293736.000	9.762086e-001	1.268305e-001
30299730.000	9.762340e-001	1.268040e-001
30305724.000	9.762081e-001	1.267755e-001
30311718.000	9.762470e-001	1.267387e-001
30317712.000	9.762966e-001	1.266760e-001
30323706.000	9.761966e-001	1.265927e-001
30329700.000	9.762666e-001	1.265812e-001
30335694.000	9.762437e-001	1.265493e-001
30341688.000	9.762064e-001	1.264819e-001
30347682.000	9.762311e-001	1.264730e-001
30353676.000	9.762460e-001	1.264247e-001
30359670.000	9.762315e-001	1.263565e-001
30365664.000	9.762414e-001	1.263067e-001
30371658.000	9.762976e-001	1.262706e-001
30377652.000	9.762896e-001	1.262398e-001
30383646.000	9.762711e-001	1.261945e-001
30389640.000	9.762558e-001	1.261139e-001
30395634.000	9.763036e-001	1.260850e-001
30401628.000	9.763084e-001	1.260545e-001
30407622.000	9.762966e-001	1.260132e-001
30413616.000	9.762754e-001	1.259803e-001
30419610.000	9.762830e-001	1.259002e-001
30425604.000	9.762883e-001	1.258281e-001
30431598.000	9.763177e-001	1.258160e-001
30437592.000	9.762703e-001	1.257301e-001
30443586.000	9.762931e-001	1.257321e-001
30449580.000	9.762805e-001	1.256504e-001
30455574.000	9.763097e-001	1.256306e-001
30461568.000	9.762983e-001	1.255544e-001
30467562.000	9.763300e-001	1.255157e-001
30473556.000	9.763155e-001	1.255016e-001
30479550.000	9.763516e-001	1.254478e-001
30485544.000	9.763561e-001	1.254060e-001
30491538.000	9.763364e-001	1.253654e-001
30497532.000	9.763726e-001	1.253129e-001
30503526.000	9.763130e-001	1.252515e-001
30509520.000	9.763565e-001	1.251779e-001
30515514.000	9.763528e-001	1.251574e-001
30521508.000	9.763737e-001	1.251194e-001
30527502.000	9.764015e-001	1.250595e-001
30533496.000	9.764160e-001	1.250594e-001
30539490.000	9.764010e-001	1.249920e-001
30545484.000	9.764546e-001	1.249784e-001
30551478.000	9.764435e-001	1.249028e-001
30557472.000	9.764257e-001	1.248684e-001
30563466.000	9.764601e-001	1.248019e-001
30569460.000	9.764454e-001	1.247434e-001
30575454.000	9.764201e-001	1.247265e-001
30581448.000	9.764257e-001	1.246599e-001
30587442.000	9.764690e-001	1.246127e-001
30593436.000	9.764572e-001	1.245579e-001
30599430.000	9.764752e-001	1.245171e-001
30605424.000	9.764854e-001	1.244784e-001
30611418.000	9.764710e-001	1.244427e-001
30617412.000	9.764634e-001	1.243754e-001
30623406.000	9.764838e-001	1.243769e-001
30629400.000	9.764784e-001	1.243227e-001
30635394.000	9.764546e-001	1.242474e-001
30641388.000	9.764850e-001	1.241875e-001
30647382.000	9.764736e-001	1.241679e-001
30653376.000	9.764818e-001	1.241588e-001
30659370.000	9.765032e-001	1.240727e-001
30665364.000	9.765211e-001	1.240427e-001
30671358.000	9.764921e-001	1.239318e-001
30677352.000	9.764904e-001	1.239087e-001
30683346.000	9.765163e-001	1.238697e-001
30689340.000	9.765578e-001	1.238427e-001
30695334.000	9.765819e-001	1.237860e-001
30701328.000	9.765329e-001	1.237591e-001
30707322.000	9.765008e-001	1.236704e-001
30713316.000	9.765423e-001	1.236430e-001
30719310.000	9.765481e-001	1.236128e-001
30725304.000	9.765437e-001	1.235788e-001
30731298.000	9.765286e-001	1.235269e-001
30737292.000	9.765771e-001	1.234931e-001
30743286.000	9.765462e-001	1.234222e-001
30749280.000	9.765207e-001	1.233897e-001
30755274.000	9.765689e-001	1.233565e-001
30761268.000	9.765431e-001	1.232748e-001
30767262.000	9.765518e-001	1.232303e-001
30773256.000	9.765589e-001	1.232162e-001
30779250.000	9.766215e-001	1.231375e-001
30785244.000	9.765733e-001	1.231139e-001
30791238.000	9.766225e-001	1.230340e-001
30797232.000	9.766575e-001	1.230289e-001
30803226.000	9.765930e-001	1.229644e-001
30809220.000	9.766228e-001	1.229406e-001
30815214.000	9.766360e-001	1.228673e-001
30821208.000	9.765830e-001	1.228361e-001
30827202.000	9.765985e-001	1.228423e-001
30833196.000	9.766058e-001	1.227313e-001
30839190.000	9.766608e-001	1.227067e-001
30845184.000	9.766169e-001	1.226516e-001
30851178.000	9.766298e-001	1.225871e-001
30857172.000	9.766480e-001	1.225566e-001
30863166.000	9.766452e-001	1.225162e-001
30869160.000	9.766397e-001	1.224846e-001
30875154.000	9.766923e-001	1.224126e-001
30881148.000	9.766644e-001	1.223672e-001
30887142.000	9.766591e-001	1.223118e-001
30893136.000	9.766789e-001	1.223171e-001
30899130.000	9.766888e-001	1.222474e-001
30905124.000	9.767186e-001	1.222192e-001
30911118.000	9.767058e-001	1.221414e-001
30917112.000	9.766750e-001	1.220779e-001
30923106.000	9.767150e-001	1.220865e-001
30929100.000	9.767047e-001	1.219907e-001
30935094.000	9.767219e-001	1.219507e-001
30941088.000	9.767050e-001	1.219665e-001
30947082.000	9.766956e-001	1.218585e-001
30953076.000	9.766979e-001	1.218110e-001
30959070.000	9.767261e-001	1.217718e-001
30965064.000	9.767436e-001	1.217488e-001
30971058.000	9.767172e-001	1.216801e-001
30977052.000	9.767063e-001	1.216622e-001
30983046.000	9.767683e-001	1.216165e-001
30989040.000	9.767315e-001	1.215815e-001
30995034.000	9.767380e-001	1.215334e-001
31001028.000	9.767176e-001	1.214970e-001
31007022.000	9.767830e-001	1.214522e-001
31013016.000	9.767683e-001	1.213880e-001
31019010.000	9.767913e-001	1.213516e-001
31025004.000	9.768338e-001	1.213230e-001
31030998.000	9.767903e-001	1.212555e-001
31036992.000	9.768036e-001	1.212359e-001
31042986.000	9.767869e-001	1.211643e-001
31048980.000	9.767589e-001	1.210983e-001
31054974.000	9.767590e-001	1.210539e-001
31060968.000	9.767668e-001	1.209921e-001
31066962.000	9.767734e-001	1.209476e-001
31072956.000	9.767936e-001	1.209638e-001
31078950.000	9.767736e-001	1.209033e-001
31084944.000	9.768293e-001	1.208415e-001
31090938.000	9.768223e-001	1.208345e-001
31096932.000	9.768172e-001	1.207404e-001
31102926.000	9.768884e-001	1.207186e-001
31108920.000	9.768468e-001	1.206629e-001
31114914.000	9.768537e-001	1.206573e-001
31120908.000	9.768842e-001	1.205906e-001
31126902.000	9.768603e-001	1.205713e-001
31132896.000	9.768685e-001	1.205335e-001
31138890.000	9.769083e-001	1.204618e-001
31144884.000	9.768745e-001	1.204325e-001
31150878.000	9.768554e-001	1.203736e-001
31156872.000	9.768734e-001	1.203408e-001
31162866.000	9.769093e-001	1.202525e-001
31168860.000	9.768720e-001	1.202322e-001
31174854.000	9.768950e-001	1.202179e-001
31180848.000	9.768783e-001	1.201609e-001
31186842.000	9.768748e-001	1.200988e-001
31192836.000	9.768777e-001	1.200600e-001
31198830.000	9.768847e-001	1.200407e-001
31204824.000	9.768651e-001	1.199578e-001
31210818.000	9.769335e-001	1.199128e-001
31216812.000	9.769663e-001	1.198619e-001
31222806.000	9.769481e-001	1.198516e-001
31228800.000	9.769553e-001	1.198346e-001
31234794.000	9.769318e-001	1.197445e-001
31240788.000	9.768883e-001	1.196898e-001
31246782.000	9.769189e-001	1.196188e-001
31252776.000	9.768975e-001	1.196319e-001
31258770.000	9.769176e-001	1.195632e-001
31264764.000	9.769271e-001	1.195224e-001
31270758.000	9.769294e-001	1.194161e-001
31276752.000	9.769285e-001	1.194113e-001
31282746.000	9.769073e-001	1.193569e-001
31288740.000	9.768887e-001	1.193085e-001
31294734.000	9.769362e-001	1.192931e-001
31300728.000	9.769868e-001	1.192400e-001
31306722.000	9.769177e-001	1.191527e-001
31312716.000	9.769180e-001	1.191655e-001
31318710.000	9.769529e-001	1.191052e-001
31324704.000	9.769978e-001	1.190970e-001
31330698.000	9.769575e-001	1.190128e-001
31336692.000	9.769542e-001	1.189685e-001
31342686.000	9.769857e-001	1.189444e-001
31348680.000	9.769963e-001	1.189211e-001
31354674.000	9.770205e-001	1.188605e-001
31360668.000	9.769914e-001	1.188290e-001
31366662.000	9.769715e-001	1.187407e-001
31372656.000	9.769707e-001	1.187459e-001
31378650.000	9.769967e-001	1.186897e-001
31384644.000	9.770019e-001	1.186005e-001
31390638.000	9.770692e-001	1.186213e-001
31396632.000	9.770207e-001	1.185449e-001
31402626.000	9.772237e-001	1.185329e-001
31408620.000	9.770678e-001	1.185067e-001
31414614.000	9.770754e-001	1.184232e-001
31420608.000	9.770455e-001	1.183740e-001
31426602.000	9.770682e-001	1.183460e-001
31432596.000	9.770398e-001	1.183105e-001
31438590.000	9.770230e-001	1.182414e-001
31444584.000	9.770122e-001	1.181841e-001
31450578.000	9.770421e-001	1.181221e-001
31456572.000	9.770549e-001	1.181414e-001
31462566.000	9.770639e-001	1.180718e-001
31468560.000	9.770543e-001	1.179928e-001
31474554.000	9.770576e-001	1.179733e-001
31480548.000	9.770886e-001	1.179620e-001
31486542.000	9.770451e-001	1.179299e-001
31492536.000	9.770668e-001	1.178735e-001
31498530.000	9.770850e-001	1.177986e-001
31504524.000	9.771089e-001	1.177932e-001
31510518.000	9.770810e-001	1.176893e-001
31516512.000	9.771422e-001	1.176836e-001
31522506.000	9.771469e-001	1.176451e-001
31528500.000	9.771463e-001	1.175709e-001
31534494.000	9.771410e-001	1.175464e-001
31540488.000	9.771553e-001	1.174822e-001
31546482.000	9.771233e-001	1.174655e-001
31552476.000	9.771245e-001	1.174025e-001
31558470.000	9.771330e-001	1.173634e-001
31564464.000	9.771753e-001	1.173342e-001
31570458.000	9.771022e-001	1.172294e-001
31576452.000	9.771634e-001	1.172453e-001
31582446.000	9.771665e-001	1.171747e-001
31588440.000	9.771722e-001	1.171402e-001
31594434.000	9.771826e-001	1.171066e-001
31600428.000	9.771557e-001	1.170266e-001
31606422.000	9.771257e-001	1.169682e-001
31612416.000	9.771107e-001	1.169509e-001
31618410.000	9.771921e-001	1.169193e-001
31624404.000	9.771958e-001	1.168779e-001
31630398.000	9.771467e-001	1.168282e-001
31636392.000	9.771925e-001	1.168024e-001
31642386.000	9.771313e-001	1.167209e-001
31648380.000	9.772211e-001	1.167234e-001
31654374.000	9.771867e-001	1.166437e-001
31660368.000	9.771612e-001	1.166185e-001
31666362.000	9.772010e-001	1.166153e-001
31672356.000	9.772280e-001	1.165657e-001
31678350.000	9.771976e-001	1.165064e-001
31684344.000	9.772836e-001	1.164217e-001
31690338.000	9.772058e-001	1.164099e-001
31696332.000	9.771826e-001	1.163592e-001
31702326.000	9.772043e-001	1.162826e-001
31708320.000	9.771796e-001	1.162612e-001
31714314.000	9.772323e-001	1.162151e-001
31720308.000	9.772111e-001	1.161930e-001
31726302.000	9.772464e-001	1.161511e-001
31732296.000	9.772697e-001	1.160975e-001
31738290.000	9.772608e-001	1.160361e-001
31744284.000	9.773184e-001	1.160317e-001
31750278.000	9.772491e-001	1.159437e-001
31756272.000	9.772786e-001	1.159633e-001
31762266.000	9.772855e-001	1.159095e-001
31768260.000	9.772784e-001	1.158712e-001
31774254.000	9.773128e-001	1.157843e-001
31780248.000	9.772943e-001	1.157649e-001
31786242.000	9.772714e-001	1.157031e-001
31792236.000	9.772703e-001	1.156802e-001
31798230.000	9.773112e-001	1.156613e-001
31804224.000	9.773256e-001	1.155727e-001
31810218.000	9.773243e-001	1.155375e-001
31816212.000	9.772982e-001	1.154812e-001
31822206.000	9.772906e-001	1.154518e-001
31828200.000	9.773291e-001	1.154407e-001
31834194.000	9.773124e-001	1.153659e-001
31840188.000	9.773226e-001	1.153621e-001
31846182.000	9.773180e-001	1.152778e-001
31852176.000	9.773531e-001	1.152486e-001
31858170.000	9.773290e-001	1.151929e-001
31864164.000	9.773493e-001	1.151159e-001
31870158.000	9.773507e-001	1.151037e-001
31876152.000	9.773785e-001	1.151047e-001
31882146.000	9.773323e-001	1.150238e-001
31888140.000	9.773775e-001	1.150008e-001
31894134.000	9.774002e-001	1.149203e-001
31900128.000	9.774204e-001	1.149252e-001
31906122.000	9.774169e-001	1.148477e-001
31912116.000	9.773768e-001	1.148123e-001
31918110.000	9.773931e-001	1.147257e-001
31924104.000	9.774116e-001	1.147265e-001
31930098.000	9.774160e-001	1.146902e-001
31936092.000	9.773883e-001	1.146666e-001
31942086.000	9.773463e-001	1.145770e-001
31948080.000	9.774138e-001	1.145292e-001
31954074.000	9.774230e-001	1.144826e-001
31960068.000	9.773972e-001	1.144401e-001
31966062.000	9.774360e-001	1.144270e-001
31972056.000	9.774067e-001	1.143478e-001
31978050.000	9.774120e-001	1.143190e-001
31984044.000	9.774064e-001	1.142856e-001
31990038.000	9.774250e-001	1.142477e-001
31996032.000	9.774318e-001	1.141987e-001
32002026.000	9.774668e-001	1.141799e-001
32008020.000	9.774577e-001	1.141234e-001
32014014.000	9.774627e-001	1.141171e-001
32020008.000	9.774445e-001	1.140841e-001
32026002.000	9.774722e-001	1.140049e-001
32031996.000	9.774158e-001	1.139421e-001
32037990.000	9.775341e-001	1.139096e-001
32043984.000	9.774811e-001	1.138928e-001
32049978.000	9.774469e-001	1.137955e-001
32055972.000	9.774672e-001	1.137837e-001
32061966.000	9.774963e-001	1.137247e-001
32067960.000	9.774326e-001	1.136809e-001
32073954.000	9.774669e-001	1.136519e-001
32079948.000	9.774991e-001	1.136055e-001
32085942.000	9.774540e-001	1.135733e-001
32091936.000	9.774763e-001	1.135258e-001
32097930.000	9.774905e-001	1.134532e-001
32103924.000	9.775106e-001	1.134574e-001
32109918.000	9.774886e-001	1.134118e-001
32115912.000	9.775618e-001	1.133731e-001
32121906.000	9.775034e-001	1.133052e-001
32127900.000	9.775041e-001	1.132583e-001
32133894.000	9.775794e-001	1.132276e-001
32139888.000	9.775869e-001	1.131951e-001
32145882.000	9.775569e-001	1.131532e-001
32151876.000	9.775352e-001	1.131093e-001
32157870.000	9.775270e-001	1.130819e-001
32163864.000	9.775158e-001	1.130275e-001
32169858.000	9.775034e-001	1.129985e-001
32175852.000	9.775451e-001	1.129170e-001
32181846.000	9.775601e-001	1.129123e-001
32187840.000	9.775446e-001	1.128223e-001
32193834.000	9.775358e-001	1.128014e-001
32199828.000	9.775128e-001	1.127540e-001
32205822.000	9.775349e-001	1.126983e-001
32211816.000	9.775112e-001	1.126413e-001
32217810.000	9.774684e-001	1.126126e-001
32223804.000	9.775416e-001	1.126279e-001
32229798.000	9.775414e-001	1.125639e-001
32235792.000	9.775036e-001	1.124804e-001
32241786.000	9.775603e-001	1.124720e-001
32247780.000	9.775951e-001	1.123873e-001
32253774.000	9.776004e-001	1.124023e-001
32259768.000	9.776061e-001	1.123424e-001
32265762.000	9.775929e-001	1.123084e-001
32271756.000	9.775531e-001	1.122417e-001
32277750.000	9.775671e-001	1.121510e-001
32283744.000	9.775550e-001	1.121568e-001
32289738.000	9.775913e-001	1.121138e-001
32295732.000	9.775791e-001	1.120847e-001
32301726.000	9.775843e-001	1.120563e-001
32307720.000	9.775858e-001	1.119798e-001
32313714.000	9.775951e-001	1.119741e-001
32319708.000	9.775742e-001	1.119450e-001
32325702.000	9.775655e-001	1.118670e-001
32331696.000	9.775716e-001	1.117917e-001
32337690.000	9.775984e-001	1.117573e-001
32343684.000	9.776360e-001	1.117176e-001
32349678.000	9.775928e-001	1.116761e-001
32355672.000	9.776330e-001	1.116364e-001
32361666.000	9.776356e-001	1.116232e-001
32367660.000	9.775981e-001	1.115434e-001
32373654.000	9.776267e-001	1.115051e-001
32379648.000	9.776395e-001	1.114932e-001
32385642.000	9.776281e-001	1.114323e-001
32391636.000	9.776410e-001	1.114005e-001
32397630.000	9.775956e-001	1.113422e-001
32403624.000	9.776723e-001	1.113313e-001
32409618.000	9.776708e-001	1.112596e-001
32415612.000	9.776696e-001	1.112192e-001
32421606.000	9.776669e-001	1.111560e-001
32427600.000	9.776631e-001	1.111148e-001
32433594.000	9.776485e-001	1.110701e-001
32439588.000	9.776948e-001	1.110569e-001
32445582.000	9.776488e-001	1.110223e-001
32451576.000	9.777067e-001	1.109832e-001
32457570.000	9.777113e-001	1.109278e-001
32463564.000	9.777006e-001	1.109173e-001
32469558.000	9.776984e-001	1.108341e-001
32475552.000	9.776856e-001	1.107862e-001
32481546.000	9.777303e-001	1.107807e-001
32487540.000	9.776633e-001	1.107095e-001
32493534.000	9.776831e-001	1.106870e-001
32499528.000	9.777012e-001	1.106312e-001
32505522.000	9.777054e-001	1.105707e-001
32511516.000	9.776867e-001	1.105535e-001
32517510.000	9.777220e-001	1.105463e-001
32523504.000	9.777642e-001	1.104686e-001
32529498.000	9.777358e-001	1.104306e-001
32535492.000	9.777444e-001	1.103944e-001
32541486.000	9.777568e-001	1.103702e-001
32547480.000	9.777242e-001	1.103152e-001
32553474.000	9.776915e-001	1.102452e-001
32559468.000	9.777255e-001	1.101683e-001
32565462.000	9.777159e-001	1.101697e-001
32571456.000	9.777275e-001	1.101372e-001
32577450.000	9.777876e-001	1.101036e-001
32583444.000	9.777152e-001	1.100460e-001
32589438.000	9.777412e-001	1.100049e-001
32595432.000	9.777263e-001	1.099076e-001
32601426.000	9.778200e-001	1.099263e-001
32607420.000	9.777182e-001	1.098460e-001
32613414.000	9.777339e-001	1.098622e-001
32619408.000	9.777655e-001	1.098126e-001
32625402.000	9.777884e-001	1.097084e-001
32631396.000	9.777813e-001	1.097027e-001
32637390.000	9.778306e-001	1.096592e-001
32643384.000	9.777900e-001	1.096372e-001
32649378.000	9.777875e-001	1.095910e-001
32655372.000	9.778278e-001	1.095908e-001
32661366.000	9.777551e-001	1.095203e-001
32667360.000	9.778612e-001	1.095045e-001
32673354.000	9.778507e-001	1.094499e-001
32679348.000	9.778443e-001	1.093978e-001
32685342.000	9.778063e-001	1.093657e-001
32691336.000	9.778409e-001	1.093075e-001
32697330.000	9.778518e-001	1.092724e-001
32703324.000	9.778454e-001	1.092189e-001
32709318.000	9.778224e-001	1.092041e-001
32715312.000	9.778817e-001	1.091353e-001
32721306.000	9.778259e-001	1.090929e-001
32727300.000	9.778720e-001	1.090335e-001
32733294.000	9.779009e-001	1.089986e-001
32739288.000	9.778497e-001	1.089643e-001
32745282.000	9.778663e-001	1.089643e-001
32751276.000	9.778972e-001	1.088820e-001
32757270.000	9.778820e-001	1.088412e-001
32763264.000	9.778805e-001	1.087733e-001
32769258.000	9.778649e-001	1.087810e-001
32775252.000	9.778769e-001	1.087365e-001
32781246.000	9.779234e-001	1.087086e-001
32787240.000	9.779139e-001	1.086157e-001
32793234.000	9.778972e-001	1.086389e-001
32799228.000	9.779012e-001	1.085496e-001
32805222.000	9.779432e-001	1.085004e-001
32811216.000	9.779655e-001	1.084704e-001
32817210.000	9.778645e-001	1.084560e-001
32823204.000	9.778875e-001	1.083544e-001
32829198.000	9.778902e-001	1.083039e-001
32835192.000	9.778815e-001	1.082610e-001
32841186.000	9.778926e-001	1.082688e-001
32847180.000	9.778779e-001	1.082191e-001
32853174.000	9.779344e-001	1.082023e-001
32859168.000	9.779242e-001	1.081429e-001
32865162.000	9.779432e-001	1.080982e-001
32871156.000	9.779251e-001	1.080631e-001
32877150.000	9.779455e-001	1.079974e-001
32883144.000	9.779955e-001	1.079753e-001
32889138.000	9.779531e-001	1.079365e-001
32895132.000	9.780120e-001	1.079016e-001
32901126.000	9.779530e-001	1.078834e-001
32907120.000	9.779856e-001	1.078472e-001
32913114.000	9.780371e-001	1.078161e-001
32919108.000	9.780104e-001	1.077346e-001
32925102.000	9.779987e-001	1.076899e-001
32931096.000	9.779748e-001	1.076650e-001
32937090.000	9.779744e-001	1.075968e-001
32943084.000	9.780272e-001	1.075795e-001
32949078.000	9.779838e-001	1.075066e-001
32955072.000	9.779749e-001	1.074787e-001
32961066.000	9.779400e-001	1.074391e-001
32967060.000	9.780062e-001	1.074188e-001
32973054.000	9.779848e-001	1.073489e-001
32979048.000	9.779693e-001	1.073084e-001
32985042.000	9.779471e-001	1.072362e-001
32991036.000	9.779864e-001	1.072143e-001
32997030.000	9.779700e-001	1.071902e-001
33003024.000	9.780262e-001	1.071436e-001
33009018.000	9.779963e-001	1.071176e-001
33015012.000	9.780162e-001	1.070486e-001
33021006.000	9.780453e-001	1.070237e-001
33027000.000	9.779884e-001	1.069976e-001
33032994.000	9.780147e-001	1.069582e-001
33038988.000	9.780038e-001	1.069021e-001
33044982.000	9.780058e-001	1.068612e-001
33050976.000	9.780477e-001	1.068008e-001
33056970.000	9.779764e-001	1.067878e-001
33062964.000	9.780377e-001	1.067466e-001
33068958.000	9.780528e-001	1.066851e-001
33074952.000	9.780457e-001	1.066780e-001
33080946.000	9.780417e-001	1.066542e-001
33086940.000	9.779978e-001	1.065864e-001
33092934.000	9.780583e-001	1.065500e-001
33098928.000	9.780213e-001	1.065237e-001
33104922.000	9.780448e-001	1.064861e-001
33110916.000	9.780724e-001	1.064022e-001
33116910.000	9.780469e-001	1.063736e-001
33122904.000	9.780805e-001	1.063609e-001
33128898.000	9.780574e-001	1.062885e-001
33134892.000	9.780618e-001	1.062414e-001
33140886.000	9.781039e-001	1.062071e-001
33146880.000	9.780715e-001	1.061610e-001
33152874.000	9.781110e-001	1.061259e-001
33158868.000	9.780824e-001	1.060742e-001
33164862.000	9.781113e-001	1.060457e-001
33170856.000	9.781475e-001	1.060302e-001
33176850.000	9.780786e-001	1.059767e-001
33182844.000	9.780519e-001	1.058952e-001
33188838.000	9.780635e-001	1.058931e-001
33194832.000	9.780969e-001	1.058557e-001
33200826.000	9.780806e-001	1.058059e-001
33206820.000	9.781102e-001	1.057640e-001
33212814.000	9.780953e-001	1.057169e-001
33218808.000	9.781049e-001	1.056668e-001
33224802.000	9.780858e-001	1.056477e-001
33230796.000	9.781337e-001	1.056104e-001
33236790.000	9.781700e-001	1.056394e-001
33242784.000	9.781341e-001	1.055218e-001
33248778.000	9.781635e-001	1.054892e-001
33254772.000	9.781797e-001	1.054369e-001
33260766.000	9.781202e-001	1.054162e-001
33266760.000	9.781841e-001	1.053671e-001
33272754.000	9.781251e-001	1.053122e-001
33278748.000	9.781690e-001	1.052688e-001
33284742.000	9.781850e-001	1.052850e-001
33290736.000	9.781604e-001	1.051886e-001
33296730.000	9.781569e-001	1.051517e-001
33302724.000	9.781660e-001	1.051150e-001
33308718.000	9.781444e-001	1.050532e-001
33314712.000	9.781954e-001	1.050461e-001
33320706.000	9.781573e-001	1.049947e-001
33326700.000	9.781692e-001	1.049678e-001
33332694.000	9.781739e-001	1.048939e-001
33338688.000	9.781986e-001	1.048676e-001
33344682.000	9.782018e-001	1.048320e-001
33350676.000	9.781780e-001	1.047978e-001
33356670.000	9.782092e-001	1.047295e-001
33362664.000	9.781821e-001	1.047366e-001
33368658.000	9.782263e-001	1.046637e-001
33374652.000	9.782551e-001	1.046146e-001
33380646.000	9.782005e-001	1.045843e-001
33386640.000	9.782222e-001	1.045440e-001
33392634.000	9.782309e-001	1.045241e-001
33398628.000	9.782121e-001	1.044253e-001
33404622.000	9.782730e-001	1.044322e-001
33410616.000	9.781871e-001	1.043849e-001
33416610.000	9.782445e-001	1.043423e-001
33422604.000	9.782571e-001	1.042910e-001
33428598.000	9.782608e-001	1.042223e-001
33434592.000	9.782811e-001	1.042194e-001
33440586.000	9.782278e-001	1.041805e-001
33446580.000	9.782191e-001	1.041201e-001
33452574.000	9.782262e-001	1.040785e-001
33458568.000	9.782523e-001	1.040390e-001
33464562.000	9.782994e-001	1.040134e-001
33470556.000	9.782497e-001	1.039676e-001
33476550.000	9.782709e-001	1.039397e-001
33482544.000	9.782947e-001	1.038920e-001
33488538.000	9.783052e-001	1.038027e-001
33494532.000	9.782940e-001	1.038404e-001
33500526.000	9.782633e-001	1.038221e-001
33506520.000	9.782838e-001	1.037033e-001
33512514.000	9.782808e-001	1.036996e-001
33518508.000	9.783023e-001	1.036461e-001
33524502.000	9.782989e-001	1.036591e-001
33530496.000	9.783148e-001	1.035780e-001
33536490.000	9.783259e-001	1.035765e-001
33542484.000	9.783180e-001	1.034925e-001
33548478.000	9.782979e-001	1.034845e-001
33554472.000	9.783272e-001	1.034098e-001
33560466.000	9.783542e-001	1.033880e-001
33566460.000	9.783277e-001	1.033430e-001
33572454.000	9.783518e-001	1.033111e-001
33578448.000	9.783326e-001	1.032603e-001
33584442.000	9.783603e-001	1.032442e-001
33590436.000	9.783720e-001	1.031788e-001
33596430.000	9.783644e-001	1.031750e-001
33602424.000	9.783591e-001	1.031185e-001
33608418.000	9.783773e-001	1.030887e-001
33614412.000	9.783669e-001	1.030438e-001
33620406.000	9.783290e-001	1.029786e-001
33626400.000	9.783350e-001	1.029545e-001
33632394.000	9.783774e-001	1.029002e-001
33638388.000	9.783577e-001	1.028637e-001
33644382.000	9.783954e-001	1.028339e-001
33650376.000	9.783331e-001	1.027919e-001
33656370.000	9.784208e-001	1.027676e-001
33662364.000	9.783839e-001	1.026882e-001
33668358.000	9.783934e-001	1.026536e-001
33674352.000	9.783929e-001	1.026567e-001
33680346.000	9.783877e-001	1.025982e-001
33686340.000	9.783897e-001	1.025584e-001
33692334.000	9.784368e-001	1.025433e-001
33698328.000	9.784303e-001	1.025021e-001
33704322.000	9.784013e-001	1.024334e-001
33710316.000	9.783725e-001	1.023859e-001
33716310.000	9.783927e-001	1.023392e-001
33722304.000	9.784283e-001	1.023465e-001
33728298.000	9.784320e-001	1.022860e-001
33734292.000	9.784366e-001	1.022460e-001
33740286.000	9.784491e-001	1.021774e-001
33746280.000	9.784715e-001	1.021551e-001
33752274.000	9.784399e-001	1.021584e-001
33758268.000	9.784561e-001	1.020731e-001
33764262.000	9.784502e-001	1.020123e-001
33770256.000	9.784257e-001	1.020055e-001
33776250.000	9.784626e-001	1.019307e-001
33782244.000	9.784843e-001	1.018782e-001
33788238.000	9.785137e-001	1.018807e-001
33794232.000	9.785140e-001	1.018546e-001
33800226.000	9.784463e-001	1.017529e-001
33806220.000	9.784459e-001	1.017623e-001
33812214.000	9.784324e-001	1.017353e-001
33818208.000	9.784992e-001	1.016557e-001
33824202.000	9.785009e-001	1.016314e-001
33830196.000	9.784775e-001	1.015800e-001
33836190.000	9.784557e-001	1.015786e-001
33842184.000	9.784748e-001	1.014951e-001
33848178.000	9.785143e-001	1.014992e-001
33854172.000	9.785156e-001	1.014379e-001
33860166.000	9.785023e-001	1.014144e-001
33866160.000	9.785048e-001	1.013838e-001
33872154.000	9.784816e-001	1.013185e-001
33878148.000	9.784931e-001	1.012812e-001
33884142.000	9.784591e-001	1.012425e-001
33890136.000	9.784834e-001	1.012272e-001
33896130.000	9.784659e-001	1.011422e-001
33902124.000	9.786583e-001	1.011828e-001
33908118.000	9.785239e-001	1.010996e-001
33914112.000	9.785205e-001	1.010194e-001
33920106.000	9.785079e-001	1.010098e-001
33926100.000	9.785148e-001	1.009696e-001
33932094.000	9.785330e-001	1.009261e-001
33938088.000	9.784976e-001	1.008601e-001
33944082.000	9.785357e-001	1.008603e-001
33950076.000	9.785312e-001	1.008169e-001
33956070.000	9.785507e-001	1.007749e-001
33962064.000	9.785222e-001	1.007195e-001
33968058.000	9.784672e-001	1.007016e-001
33974052.000	9.785177e-001	1.006063e-001
33980046.000	9.785486e-001	1.005412e-001
33986040.000	9.785485e-001	1.005862e-001
33992034.000	9.785880e-001	1.005225e-001
33998028.000	9.785275e-001	1.004686e-001
34004022.000	9.785704e-001	1.004354e-001
34010016.000	9.785594e-001	1.004024e-001
34016010.000	9.785591e-001	1.003532e-001
34022004.000	9.785600e-001	1.003229e-001
34027998.000	9.785599e-001	1.002877e-001
34033992.000	9.785538e-001	1.002987e-001
34039986.000	9.785502e-001	1.002104e-001
34045980.000	9.786160e-001	1.001799e-001
34051974.000	9.786064e-001	1.001143e-001
34057968.000	9.785572e-001	1.001078e-001
34063962.000	9.785545e-001	1.000320e-001
34069956.000	9.786018e-001	1.000092e-001
34075950.000	9.785866e-001	9.995537e-002
34081944.000	9.785741e-001	9.994551e-002
34087938.000	9.785361e-001	9.988203e-002
34093932.000	9.786029e-001	9.981969e-002
34099926.000	9.785851e-001	9.984427e-002
34105920.000	9.785956e-001	9.978410e-002
34111914.000	9.785928e-001	9.972439e-002
34117908.000	9.785994e-001	9.968698e-002
34123902.000	9.785978e-001	9.969510e-002
34129896.000	9.786080e-001	9.960201e-002
34135890.000	9.786451e-001	9.961939e-002
34141884.000	9.786353e-001	9.956988e-002
34147878.000	9.785982e-001	9.954976e-002
34153872.000	9.785842e-001	9.944431e-002
34159866.000	9.786589e-001	9.945802e-002
34165860.000	9.786414e-001	9.938312e-002
34171854.000	9.786814e-001	9.937168e-002
34177848.000	9.786884e-001	9.934445e-002
34183842.000	9.786457e-001	9.927766e-002
34189836.000	9.786525e-001	9.926419e-002
34195830.000	9.786467e-001	9.923202e-002
34201824.000	9.786621e-001	9.915179e-002
34207818.000	9.786346e-001	9.908665e-002
34213812.000	9.787080e-001	9.907413e-002
34219806.000	9.787174e-001	9.907109e-002
34225800.000	9.786997e-001	9.899862e-002
34231794.000	9.786804e-001	9.895514e-002
34237788.000	9.786649e-001	9.892597e-002
34243782.000	9.786672e-001	9.888447e-002
34249776.000	9.786597e-001	9.884471e-002
34255770.000	9.786982e-001	9.877854e-002
34261764.000	9.787193e-001	9.880306e-002
34267758.000	9.786929e-001	9.875112e-002
34273752.000	9.788021e-001	9.869234e-002
34279746.000	9.787366e-001	9.868382e-002
34285740.000	9.786875e-001	9.861102e-002
34291734.000	9.786850e-001	9.861942e-002
34297728.000	9.787157e-001	9.853659e-002
34303722.000	9.787295e-001	9.849828e-002
34309716.000	9.787007e-001	9.847160e-002
34315710.000	9.787224e-001	9.842855e-002
34321704.000	9.787576e-001	9.839456e-002
34327698.000	9.787239e-001	9.834843e-002
34333692.000	9.787544e-001	9.831486e-002
34339686.000	9.787755e-001	9.828478e-002
34345680.000	9.787185e-001	9.823256e-002
34351674.000	9.787544e-001	9.818087e-002
34357668.000	9.787452e-001	9.814712e-002
34363662.000	9.787450e-001	9.813930e-002
34369656.000	9.787056e-001	9.810943e-002
34375650.000	9.787436e-001	9.803510e-002
34381644.000	9.787730e-001	9.799044e-002
34387638.000	9.787654e-001	9.794000e-002
34393632.000	9.787874e-001	9.792591e-002
34399626.000	9.787711e-001	9.786364e-002
34405620.000	9.787394e-001	9.781717e-002
34411614.000	9.787612e-001	9.781005e-002
34417608.000	9.787735e-001	9.778664e-002
34423602.000	9.787459e-001	9.770264e-002
34429596.000	9.787893e-001	9.767947e-002
34435590.000	9.787598e-001	9.766512e-002
34441584.000	9.787774e-001	9.763691e-002
34447578.000	9.787844e-001	9.759949e-002
34453572.000	9.788076e-001	9.752505e-002
34459566.000	9.788395e-001	9.752284e-002
34465560.000	9.788267e-001	9.745710e-002
34471554.000	9.787767e-001	9.741712e-002
34477548.000	9.788074e-001	9.738365e-002
34483542.000	9.787943e-001	9.732438e-002
34489536.000	9.788033e-001	9.726836e-002
34495530.000	9.787765e-001	9.727499e-002
34501524.000	9.787845e-001	9.722167e-002
34507518.000	9.787909e-001	9.718637e-002
34513512.000	9.788252e-001	9.714360e-002
34519506.000	9.788190e-001	9.710186e-002
34525500.000	9.788003e-001	9.709392e-002
34531494.000	9.788108e-001	9.703028e-002
34537488.000	9.788430e-001	9.698049e-002
34543482.000	9.788288e-001	9.696600e-002
34549476.000	9.787670e-001	9.689650e-002
34555470.000	9.787845e-001	9.690293e-002
34561464.000	9.787394e-001	9.680452e-002
34567458.000	9.788291e-001	9.678021e-002
34573452.000	9.788233e-001	9.675439e-002
34579446.000	9.788174e-001	9.673694e-002
34585440.000	9.788382e-001	9.668627e-002
34591434.000	9.787936e-001	9.665573e-002
34597428.000	9.788644e-001	9.659329e-002
34603422.000	9.788234e-001	9.655541e-002
34609416.000	9.788522e-001	9.652489e-002
34615410.000	9.788540e-001	9.654226e-002
34621404.000	9.788845e-001	9.645715e-002
34627398.000	9.788525e-001	9.643274e-002
34633392.000	9.788310e-001	9.638078e-002
34639386.000	9.788355e-001	9.635421e-002
34645380.000	9.788966e-001	9.628706e-002
34651374.000	9.789054e-001	9.627493e-002
34657368.000	9.788835e-001	9.624405e-002
34663362.000	9.789090e-001	9.620337e-002
34669356.000	9.788859e-001	9.613999e-002
34675350.000	9.788453e-001	9.612511e-002
34681344.000	9.788592e-001	9.603968e-002
34687338.000	9.788844e-001	9.603249e-002
34693332.000	9.788702e-001	9.594277e-002
34699326.000	9.789006e-001	9.594414e-002
34705320.000	9.788813e-001	9.591826e-002
34711314.000	9.789380e-001	9.588039e-002
34717308.000	9.788842e-001	9.583001e-002
34723302.000	9.788968e-001	9.576938e-002
34729296.000	9.788895e-001	9.577377e-002
34735290.000	9.788362e-001	9.573548e-002
34741284.000	9.788638e-001	9.568024e-002
34747278.000	9.788895e-001	9.565809e-002
34753272.000	9.789011e-001	9.558674e-002
34759266.000	9.789417e-001	9.559025e-002
34765260.000	9.789204e-001	9.553810e-002
34771254.000	9.789131e-001	9.549767e-002
34777248.000	9.789224e-001	9.546153e-002
34783242.000	9.789475e-001	9.543183e-002
34789236.000	9.788997e-001	9.541428e-002
34795230.000	9.789012e-001	9.536080e-002
34801224.000	9.789833e-001	9.531043e-002
34807218.000	9.789498e-001	9.526429e-002
34813212.000	9.789342e-001	9.524984e-002
34819206.000	9.789226e-001	9.517587e-002
34825200.000	9.789586e-001	9.519012e-002
34831194.000	9.789991e-001	9.516523e-002
34837188.000	9.789777e-001	9.508805e-002
34843182.000	9.789348e-001	9.504260e-002
34849176.000	9.789730e-001	9.502658e-002
34855170.000	9.789926e-001	9.497294e-002
34861164.000	9.789731e-001	9.491646e-002
34867158.000	9.789335e-001	9.490240e-002
34873152.000	9.790049e-001	9.488303e-002
34879146.000	9.789433e-001	9.484862e-002
34885140.000	9.789501e-001	9.479510e-002
34891134.000	9.789401e-001	9.472387e-002
34897128.000	9.789795e-001	9.467866e-002
34903122.000	9.789906e-001	9.468486e-002
34909116.000	9.790054e-001	9.463427e-002
34915110.000	9.789880e-001	9.458396e-002
34921104.000	9.790314e-001	9.456015e-002
34927098.000	9.790343e-001	9.453868e-002
34933092.000	9.790242e-001	9.450768e-002
34939086.000	9.790371e-001	9.444149e-002
34945080.000	9.789849e-001	9.439634e-002
34951074.000	9.790304e-001	9.438576e-002
34957068.000	9.790523e-001	9.432258e-002
34963062.000	9.790351e-001	9.426788e-002
34969056.000	9.790337e-001	9.422589e-002
34975050.000	9.790300e-001	9.420205e-002
34981044.000	9.790511e-001	9.418201e-002
34987038.000	9.790542e-001	9.413197e-002
34993032.000	9.790472e-001	9.409256e-002
34999026.000	9.790097e-001	9.409395e-002
35005020.000	9.790643e-001	9.404902e-002
35011014.000	9.790427e-001	9.400913e-002
35017008.000	9.789995e-001	9.396334e-002
35023002.000	9.790019e-001	9.391132e-002
35028996.000	9.790611e-001	9.388472e-002
35034990.000	9.790183e-001	9.386169e-002
35040984.000	9.790832e-001	9.382051e-002
35046978.000	9.790356e-001	9.376937e-002
35052972.000	9.790658e-001	9.373860e-002
35058966.000	9.790873e-001	9.368500e-002
35064960.000	9.791471e-001	9.368489e-002
35070954.000	9.791475e-001	9.364521e-002
35076948.000	9.790574e-001	9.361083e-002
35082942.000	9.790473e-001	9.354033e-002
35088936.000	9.790815e-001	9.351481e-002
35094930.000	9.790905e-001	9.346476e-002
35100924.000	9.790819e-001	9.342743e-002
35106918.000	9.790591e-001	9.341143e-002
35112912.000	9.790462e-001	9.336979e-002
35118906.000	9.790781e-001	9.335909e-002
35124900.000	9.790937e-001	9.327629e-002
35130894.000	9.790904e-001	9.321941e-002
35136888.000	9.790624e-001	9.321973e-002
35142882.000	9.790482e-001	9.316365e-002
35148876.000	9.790527e-001	9.309432e-002
35154870.000	9.791032e-001	9.313075e-002
35160864.000	9.791256e-001	9.305156e-002
35166858.000	9.791537e-001	9.303191e-002
35172852.000	9.791369e-001	9.297597e-002
35178846.000	9.791831e-001	9.294666e-002
35184840.000	9.791758e-001	9.289534e-002
35190834.000	9.791427e-001	9.287013e-002
35196828.000	9.791502e-001	9.288371e-002
35202822.000	9.791533e-001	9.278415e-002
35208816.000	9.791368e-001	9.275370e-002
35214810.000	9.791101e-001	9.273330e-002
35220804.000	9.791452e-001	9.267280e-002
35226798.000	9.791608e-001	9.266341e-002
35232792.000	9.791871e-001	9.262914e-002
35238786.000	9.791960e-001	9.258787e-002
35244780.000	9.791617e-001	9.253245e-002
35250774.000	9.791351e-001	9.248844e-002
35256768.000	9.791286e-001	9.245575e-002
35262762.000	9.791417e-001	9.239876e-002
35268756.000	9.791271e-001	9.238624e-002
35274750.000	9.791269e-001	9.233616e-002
35280744.000	9.791958e-001	9.233140e-002
35286738.000	9.792018e-001	9.223243e-002
35292732.000	9.791558e-001	9.224409e-002
35298726.000	9.791637e-001	9.218691e-002
35304720.000	9.791557e-001	9.214933e-002
35310714.000	9.791286e-001	9.209743e-002
35316708.000	9.791531e-001	9.206239e-002
35322702.000	9.791645e-001	9.205064e-002
35328696.000	9.791801e-001	9.198199e-002
35334690.000	9.791823e-001	9.192010e-002
35340684.000	9.792035e-001	9.195270e-002
35346678.000	9.791753e-001	9.193223e-002
35352672.000	9.791494e-001	9.183794e-002
35358666.000	9.791803e-001	9.182110e-002
35364660.000	9.791692e-001	9.175086e-002
35370654.000	9.791637e-001	9.174726e-002
35376648.000	9.791845e-001	9.169149e-002
35382642.000	9.791756e-001	9.165616e-002
35388636.000	9.791521e-001	9.163993e-002
35394630.000	9.792182e-001	9.160380e-002
35400624.000	9.791971e-001	9.155543e-002
35406618.000	9.791851e-001	9.151170e-002
35412612.000	9.792045e-001	9.149499e-002
35418606.000	9.791916e-001	9.145950e-002
35424600.000	9.791895e-001	9.143641e-002
35430594.000	9.791688e-001	9.138748e-002
35436588.000	9.791720e-001	9.131534e-002
35442582.000	9.791991e-001	9.128088e-002
35448576.000	9.791887e-001	9.128025e-002
35454570.000	9.792252e-001	9.118855e-002
35460564.000	9.792101e-001	9.116178e-002
35466558.000	9.792350e-001	9.115552e-002
35472552.000	9.792122e-001	9.113365e-002
35478546.000	9.792530e-001	9.108964e-002
35484540.000	9.792428e-001	9.104663e-002
35490534.000	9.792197e-001	9.099317e-002
35496528.000	9.792745e-001	9.096331e-002
35502522.000	9.792691e-001	9.094374e-002
35508516.000	9.793002e-001	9.092176e-002
35514510.000	9.792757e-001	9.088656e-002
35520504.000	9.792495e-001	9.081295e-002
35526498.000	9.793195e-001	9.079505e-002
35532492.000	9.793243e-001	9.075826e-002
35538486.000	9.792625e-001	9.070186e-002
35544480.000	9.792900e-001	9.066959e-002
35550474.000	9.792504e-001	9.063943e-002
35556468.000	9.792800e-001	9.060598e-002
35562462.000	9.792873e-001	9.055584e-002
35568456.000	9.792392e-001	9.049416e-002
35574450.000	9.791890e-001	9.047662e-002
35580444.000	9.792531e-001	9.043747e-002
35586438.000	9.792807e-001	9.042965e-002
35592432.000	9.792486e-001	9.036262e-002
35598426.000	9.792868e-001	9.036835e-002
35604420.000	9.793279e-001	9.033086e-002
35610414.000	9.793104e-001	9.027390e-002
35616408.000	9.793056e-001	9.027311e-002
35622402.000	9.793115e-001	9.021553e-002
35628396.000	9.793007e-001	9.017640e-002
35634390.000	9.792776e-001	9.014464e-002
35640384.000	9.793585e-001	9.006750e-002
35646378.000	9.793221e-001	9.004482e-002
35652372.000	9.793400e-001	9.003688e-002
35658366.000	9.793601e-001	8.996312e-002
35664360.000	9.793468e-001	8.995359e-002
35670354.000	9.793631e-001	8.990767e-002
35676348.000	9.794010e-001	8.985625e-002
35682342.000	9.793231e-001	8.983446e-002
35688336.000	9.793603e-001	8.979388e-002
35694330.000	9.793800e-001	8.976591e-002
35700324.000	9.793821e-001	8.972904e-002
35706318.000	9.794211e-001	8.966608e-002
35712312.000	9.793036e-001	8.962590e-002
35718306.000	9.793666e-001	8.958225e-002
35724300.000	9.793342e-001	8.957633e-002
35730294.000	9.793921e-001	8.954867e-002
35736288.000	9.794217e-001	8.953355e-002
35742282.000	9.793686e-001	8.947188e-002
35748276.000	9.793427e-001	8.943526e-002
35754270.000	9.794157e-001	8.940155e-002
35760264.000	9.793952e-001	8.935664e-002
35766258.000	9.793947e-001	8.931546e-002
35772252.000	9.793735e-001	8.932658e-002
35778246.000	9.793955e-001	8.927461e-002
35784240.000	9.794215e-001	8.922755e-002
35790234.000	9.793906e-001	8.918185e-002
35796228.000	9.793627e-001	8.911493e-002
35802222.000	9.794211e-001	8.912173e-002
35808216.000	9.794138e-001	8.907637e-002
35814210.000	9.793888e-001	8.905869e-002
35820204.000	9.794271e-001	8.898148e-002
35826198.000	9.793967e-001	8.898002e-002
35832192.000	9.794115e-001	8.893374e-002
35838186.000	9.794407e-001	8.890069e-002
35844180.000	9.794058e-001	8.883386e-002
35850174.000	9.794570e-001	8.884208e-002
35856168.000	9.794014e-001	8.879013e-002
35862162.000	9.794510e-001	8.873669e-002
35868156.000	9.794393e-001	8.871496e-002
35874150.000	9.794079e-001	8.867734e-002
35880144.000	9.794421e-001	8.865066e-002
35886138.000	9.794085e-001	8.857317e-002
35892132.000	9.794566e-001	8.855227e-002
35898126.000	9.794495e-001	8.854509e-002
35904120.000	9.794246e-001	8.849748e-002
35910114.000	9.794358e-001	8.842182e-002
35916108.000	9.794128e-001	8.839625e-002
35922102.000	9.794518e-001	8.837948e-002
35928096.000	9.794721e-001	8.834335e-002
35934090.000	9.794257e-001	8.829415e-002
35940084.000	9.794696e-001	8.827855e-002
35946078.000	9.794680e-001	8.825579e-002
35952072.000	9.794580e-001	8.820315e-002
35958066.000	9.794438e-001	8.817844e-002
35964060.000	9.794846e-001	8.811365e-002
35970054.000	9.794690e-001	8.811063e-002
35976048.000	9.794457e-001	8.802872e-002
35982042.000	9.795318e-001	8.802150e-002
35988036.000	9.794326e-001	8.797288e-002
35994030.000	9.794974e-001	8.796286e-002
36000024.000	9.795294e-001	8.792255e-002
36006018.000	9.794742e-001	8.787458e-002
36012012.000	9.794685e-001	8.783491e-002
36018006.000	9.794816e-001	8.779067e-002
36024000.000	9.795002e-001	8.776980e-002
36029994.000	9.795154e-001	8.772707e-002
36035988.000	9.795092e-001	8.766197e-002
36041982.000	9.795142e-001	8.765010e-002
36047976.000	9.795237e-001	8.763203e-002
36053970.000	9.795617e-001	8.758925e-002
36059964.000	9.795132e-001	8.752456e-002
36065958.000	9.795432e-001	8.752590e-002
36071952.000	9.795508e-001	8.748284e-002
36077946.000	9.795757e-001	8.743201e-002
36083940.000	9.795692e-001	8.742103e-002
36089934.000	9.795563e-001	8.733117e-002
36095928.000	9.795544e-001	8.733786e-002
36101922.000	9.795397e-001	8.731063e-002
36107916.000	9.795738e-001	8.726528e-002
36113910.000	9.794961e-001	8.721112e-002
36119904.000	9.795278e-001	8.716782e-002
36125898.000	9.795301e-001	8.714795e-002
36131892.000	9.795515e-001	8.710282e-002
36137886.000	9.795879e-001	8.706773e-002
36143880.000	9.795291e-001	8.702898e-002
36149874.000	9.795706e-001	8.704460e-002
36155868.000	9.795596e-001	8.697216e-002
36161862.000	9.795526e-001	8.691955e-002
36167856.000	9.795254e-001	8.686486e-002
36173850.000	9.795935e-001	8.686556e-002
36179844.000	9.795899e-001	8.685633e-002
36185838.000	9.795674e-001	8.677098e-002
36191832.000	9.795368e-001	8.672702e-002
36197826.000	9.795748e-001	8.669997e-002
36203820.000	9.795974e-001	8.667691e-002
36209814.000	9.795711e-001	8.666977e-002
36215808.000	9.796261e-001	8.656660e-002
36221802.000	9.796259e-001	8.660235e-002
36227796.000	9.796030e-001	8.655761e-002
36233790.000	9.796018e-001	8.650467e-002
36239784.000	9.796236e-001	8.647228e-002
36245778.000	9.795974e-001	8.644549e-002
36251772.000	9.796360e-001	8.637173e-002
36257766.000	9.796492e-001	8.632385e-002
36263760.000	9.796198e-001	8.633157e-002
36269754.000	9.795938e-001	8.628835e-002
36275748.000	9.796403e-001	8.623530e-002
36281742.000	9.796148e-001	8.620249e-002
36287736.000	9.796315e-001	8.612277e-002
36293730.000	9.796129e-001	8.614517e-002
36299724.000	9.796757e-001	8.611467e-002
36305718.000	9.796355e-001	8.606254e-002
36311712.000	9.796509e-001	8.605000e-002
36317706.000	9.796212e-001	8.600241e-002
36323700.000	9.796393e-001	8.596170e-002
36329694.000	9.796537e-001	8.589240e-002
36335688.000	9.796695e-001	8.590063e-002
36341682.000	9.796567e-001	8.586751e-002
36347676.000	9.795990e-001	8.580997e-002
36353670.000	9.795939e-001	8.575825e-002
36359664.000	9.796426e-001	8.574177e-002
36365658.000	9.796691e-001	8.569562e-002
36371652.000	9.796567e-001	8.565080e-002
36377646.000	9.796458e-001	8.566626e-002
36383640.000	9.796768e-001	8.560119e-002
36389634.000	9.796132e-001	8.556084e-002
36395628.000	9.796880e-001	8.551253e-002
36401622.000	9.796587e-001	8.550450e-002
36407616.000	9.796598e-001	8.545907e-002
36413610.000	9.796199e-001	8.539830e-002
36419604.000	9.796543e-001	8.539851e-002
36425598.000	9.796626e-001	8.532595e-002
36431592.000	9.796580e-001	8.529847e-002
36437586.000	9.796588e-001	8.527937e-002
36443580.000	9.796392e-001	8.522691e-002
36449574.000	9.796376e-001	8.524264e-002
36455568.000	9.796979e-001	8.517696e-002
36461562.000	9.796562e-001	8.513592e-002
36467556.000	9.796853e-001	8.512290e-002
36473550.000	9.796535e-001	8.506301e-002
36479544.000	9.796909e-001	8.506037e-002
36485538.000	9.796904e-001	8.500911e-002
36491532.000	9.796901e-001	8.499192e-002
36497526.000	9.796820e-001	8.495766e-002
36503520.000	9.796979e-001	8.488731e-002
36509514.000	9.796822e-001	8.487655e-002
36515508.000	9.796604e-001	8.483872e-002
36521502.000	9.796887e-001	8.476123e-002
36527496.000	9.796965e-001	8.476706e-002
36533490.000	9.796950e-001	8.472418e-002
36539484.000	9.796591e-001	8.465396e-002
36545478.000	9.796891e-001	8.463497e-002
36551472.000	9.796917e-001	8.457374e-002
36557466.000	9.796989e-001	8.455685e-002
36563460.000	9.797082e-001	8.456048e-002
36569454.000	9.797305e-001	8.448724e-002
36575448.000	9.797133e-001	8.447571e-002
36581442.000	9.797105e-001	8.442250e-002
36587436.000	9.797263e-001	8.439115e-002
36593430.000	9.797111e-001	8.435613e-002
36599424.000	9.797352e-001	8.433881e-002
36605418.000	9.797380e-001	8.428990e-002
36611412.000	9.797738e-001	8.427435e-002
36617406.000	9.797743e-001	8.424577e-002
36623400.000	9.797527e-001	8.422566e-002
36629394.000	9.797601e-001	8.413225e-002
36635388.000	9.798257e-001	8.413377e-002
36641382.000	9.797418e-001	8.408010e-002
36647376.000	9.797744e-001	8.401987e-002
36653370.000	9.797367e-001	8.400484e-002
36659364.000	9.797323e-001	8.398454e-002
36665358.000	9.797354e-001	8.391603e-002
36671352.000	9.797449e-001	8.387524e-002
36677346.000	9.797378e-001	8.386726e-002
36683340.000	9.797809e-001	8.383164e-002
36689334.000	9.797572e-001	8.379011e-002
36695328.000	9.798271e-001	8.376289e-002
36701322.000	9.797655e-001	8.370023e-002
36707316.000	9.797256e-001	8.369937e-002
36713310.000	9.797810e-001	8.367315e-002
36719304.000	9.797561e-001	8.360642e-002
36725298.000	9.797932e-001	8.358631e-002
36731292.000	9.798204e-001	8.353185e-002
36737286.000	9.798355e-001	8.354159e-002
36743280.000	9.798071e-001	8.348384e-002
36749274.000	9.797898e-001	8.348522e-002
36755268.000	9.798043e-001	8.338864e-002
36761262.000	9.798086e-001	8.336163e-002
36767256.000	9.798305e-001	8.332623e-002
36773250.000	9.797878e-001	8.329463e-002
36779244.000	9.798333e-001	8.328227e-002
36785238.000	9.798447e-001	8.324973e-002
36791232.000	9.798011e-001	8.323680e-002
36797226.000	9.798429e-001	8.320582e-002
36803220.000	9.798299e-001	8.316023e-002
36809214.000	9.797533e-001	8.308753e-002
36815208.000	9.798167e-001	8.306623e-002
36821202.000	9.797798e-001	8.302505e-002
36827196.000	9.798485e-001	8.299603e-002
36833190.000	9.798439e-001	8.296511e-002
36839184.000	9.798152e-001	8.295544e-002
36845178.000	9.798896e-001	8.287175e-002
36851172.000	9.798268e-001	8.288038e-002
36857166.000	9.798731e-001	8.282919e-002
36863160.000	9.798231e-001	8.277297e-002
36869154.000	9.798486e-001	8.275010e-002
36875148.000	9.798436e-001	8.273050e-002
36881142.000	9.798981e-001	8.267446e-002
36887136.000	9.798854e-001	8.266190e-002
36893130.000	9.798393e-001	8.262492e-002
36899124.000	9.798324e-001	8.253957e-002
36905118.000	9.798518e-001	8.251046e-002
36911112.000	9.799006e-001	8.248527e-002
36917106.000	9.798751e-001	8.246441e-002
36923100.000	9.798938e-001	8.242211e-002
36929094.000	9.798714e-001	8.235472e-002
36935088.000	9.798783e-001	8.235223e-002
36941082.000	9.798694e-001	8.232526e-002
36947076.000	9.798600e-001	8.229341e-002
36953070.000	9.799314e-001	8.227570e-002
36959064.000	9.798851e-001	8.222272e-002
36965058.000	9.798984e-001	8.222543e-002
36971052.000	9.798907e-001	8.215365e-002
36977046.000	9.798862e-001	8.210346e-002
36983040.000	9.798625e-001	8.209501e-002
36989034.000	9.798690e-001	8.207303e-002
36995028.000	9.798868e-001	8.200765e-002
37001022.000	9.798872e-001	8.195314e-002
37007016.000	9.798928e-001	8.194525e-002
37013010.000	9.798631e-001	8.190389e-002
37019004.000	9.798810e-001	8.186038e-002
37024998.000	9.798765e-001	8.182084e-002
37030992.000	9.798990e-001	8.180125e-002
37036986.000	9.798929e-001	8.174090e-002
37042980.000	9.799050e-001	8.173396e-002
37048974.000	9.798800e-001	8.166629e-002
37054968.000	9.798926e-001	8.165099e-002
37060962.000	9.798457e-001	8.160359e-002
37066956.000	9.799338e-001	8.157835e-002
37072950.000	9.799222e-001	8.152145e-002
37078944.000	9.799231e-001	8.152419e-002
37084938.000	9.799198e-001	8.148568e-002
37090932.000	9.799294e-001	8.145431e-002
37096926.000	9.799102e-001	8.140474e-002
37102920.000	9.799194e-001	8.138210e-002
37108914.000	9.799147e-001	8.139044e-002
37114908.000	9.799625e-001	8.133928e-002
37120902.000	9.799449e-001	8.128449e-002
37126896.000	9.799655e-001	8.125076e-002
37132890.000	9.799367e-001	8.116656e-002
37138884.000	9.799442e-001	8.114737e-002
37144878.000	9.799823e-001	8.117479e-002
37150872.000	9.799618e-001	8.112398e-002
37156866.000	9.799647e-001	8.104828e-002
37162860.000	9.799658e-001	8.101299e-002
37168854.000	9.799441e-001	8.099088e-002
37174848.000	9.799315e-001	8.094165e-002
37180842.000	9.799521e-001	8.092353e-002
37186836.000	9.800056e-001	8.085877e-002
37192830.000	9.799956e-001	8.086636e-002
37198824.000	9.799754e-001	8.084122e-002
37204818.000	9.799609e-001	8.081796e-002
37210812.000	9.799209e-001	8.073871e-002
37216806.000	9.800084e-001	8.070334e-002
37222800.000	9.799700e-001	8.067599e-002
37228794.000	9.799263e-001	8.064392e-002
37234788.000	9.799922e-001	8.060616e-002
37240782.000	9.799718e-001	8.058805e-002
37246776.000	9.799870e-001	8.054050e-002
37252770.000	9.799679e-001	8.049532e-002
37258764.000	9.800223e-001	8.048387e-002
37264758.000	9.800527e-001	8.042987e-002
37270752.000	9.799723e-001	8.039087e-002
37276746.000	9.800081e-001	8.038192e-002
37282740.000	9.799877e-001	8.033895e-002
37288734.000	9.799403e-001	8.027753e-002
37294728.000	9.798926e-001	8.027172e-002
37300722.000	9.799538e-001	8.022517e-002
37306716.000	9.799639e-001	8.018268e-002
37312710.000	9.799893e-001	8.018708e-002
37318704.000	9.799715e-001	8.011827e-002
37324698.000	9.799445e-001	8.009555e-002
37330692.000	9.799685e-001	8.005286e-002
37336686.000	9.799626e-001	7.999294e-002
37342680.000	9.799507e-001	7.994894e-002
37348674.000	9.799342e-001	7.988904e-002
37354668.000	9.799401e-001	7.989485e-002
37360662.000	9.799313e-001	7.987108e-002
37366656.000	9.799851e-001	7.985018e-002
37372650.000	9.800234e-001	7.980978e-002
37378644.000	9.799970e-001	7.977600e-002
37384638.000	9.800302e-001	7.977299e-002
37390632.000	9.800032e-001	7.972519e-002
37396626.000	9.800226e-001	7.968485e-002
37402620.000	9.800372e-001	7.963085e-002
37408614.000	9.799687e-001	7.961988e-002
37414608.000	9.800130e-001	7.957802e-002
37420602.000	9.800131e-001	7.956709e-002
37426596.000	9.800472e-001	7.949657e-002
37432590.000	9.800057e-001	7.945938e-002
37438584.000	9.800296e-001	7.943753e-002
37444578.000	9.800037e-001	7.939402e-002
37450572.000	9.799886e-001	7.936175e-002
37456566.000	9.800550e-001	7.932016e-002
37462560.000	9.799431e-001	7.928242e-002
37468554.000	9.800184e-001	7.921436e-002
37474548.000	9.800576e-001	7.922344e-002
37480542.000	9.800552e-001	7.916448e-002
37486536.000	9.800262e-001	7.913747e-002
37492530.000	9.800144e-001	7.909572e-002
37498524.000	9.800495e-001	7.908039e-002
37504518.000	9.800606e-001	7.904427e-002
37510512.000	9.800526e-001	7.901561e-002
37516506.000	9.800561e-001	7.899579e-002
37522500.000	9.800460e-001	7.894789e-002
37528494.000	9.800255e-001	7.892160e-002
37534488.000	9.800424e-001	7.885538e-002
37540482.000	9.800984e-001	7.884731e-002
37546476.000	9.800577e-001	7.882867e-002
37552470.000	9.800747e-001	7.876681e-002
37558464.000	9.800807e-001	7.875376e-002
37564458.000	9.800722e-001	7.871639e-002
37570452.000	9.800729e-001	7.871077e-002
37576446.000	9.800441e-001	7.863664e-002
37582440.000	9.800530e-001	7.859965e-002
37588434.000	9.800816e-001	7.855116e-002
37594428.000	9.800731e-001	7.852252e-002
37600422.000	9.800645e-001	7.848308e-002
37606416.000	9.800426e-001	7.844005e-002
37612410.000	9.801044e-001	7.843702e-002
37618404.000	9.801080e-001	7.840659e-002
37624398.000	9.801050e-001	7.841255e-002
37630392.000	9.800922e-001	7.831218e-002
37636386.000	9.801226e-001	7.829077e-002
37642380.000	9.800803e-001	7.829192e-002
37648374.000	9.800960e-001	7.820010e-002
37654368.000	9.800756e-001	7.821100e-002
37660362.000	9.801175e-001	7.815588e-002
37666356.000	9.800660e-001	7.809319e-002
37672350.000	9.800905e-001	7.805688e-002
37678344.000	9.801120e-001	7.803272e-002
37684338.000	9.800631e-001	7.800388e-002
37690332.000	9.800170e-001	7.796324e-002
37696326.000	9.800768e-001	7.792330e-002
37702320.000	9.801266e-001	7.788983e-002
37708314.000	9.801276e-001	7.787294e-002
37714308.000	9.801194e-001	7.783395e-002
37720302.000	9.801876e-001	7.780114e-002
37726296.000	9.801866e-001	7.777854e-002
37732290.000	9.801624e-001	7.776152e-002
37738284.000	9.801062e-001	7.772569e-002
37744278.000	9.801179e-001	7.769001e-002
37750272.000	9.801332e-001	7.762863e-002
37756266.000	9.801620e-001	7.762538e-002
37762260.000	9.801120e-001	7.754854e-002
37768254.000	9.801116e-001	7.754409e-002
37774248.000	9.801329e-001	7.746962e-002
37780242.000	9.801494e-001	7.747023e-002
37786236.000	9.801766e-001	7.745238e-002
37792230.000	9.801688e-001	7.741613e-002
37798224.000	9.801492e-001	7.736901e-002
37804218.000	9.801200e-001	7.733925e-002
37810212.000	9.801703e-001	7.730654e-002
37816206.000	9.801236e-001	7.730412e-002
37822200.000	9.802090e-001	7.726664e-002
37828194.000	9.801629e-001	7.718549e-002
37834188.000	9.801830e-001	7.715246e-002
37840182.000	9.802388e-001	7.716305e-002
37846176.000	9.802201e-001	7.710868e-002
37852170.000	9.802028e-001	7.706749e-002
37858164.000	9.801683e-001	7.703770e-002
37864158.000	9.801775e-001	7.699156e-002
37870152.000	9.801740e-001	7.696272e-002
37876146.000	9.802367e-001	7.692386e-002
37882140.000	9.801572e-001	7.689828e-002
37888134.000	9.802078e-001	7.685660e-002
37894128.000	9.801874e-001	7.682833e-002
37900122.000	9.802479e-001	7.683760e-002
37906116.000	9.802362e-001	7.678202e-002
37912110.000	9.802128e-001	7.671978e-002
37918104.000	9.801931e-001	7.667928e-002
37924098.000	9.802298e-001	7.667227e-002
37930092.000	9.802582e-001	7.662822e-002
37936086.000	9.802145e-001	7.661548e-002
37942080.000	9.802435e-001	7.653554e-002
37948074.000	9.802356e-001	7.656656e-002
37954068.000	9.802033e-001	7.650594e-002
37960062.000	9.802643e-001	7.648715e-002
37966056.000	9.802610e-001	7.644982e-002
37972050.000	9.802527e-001	7.638490e-002
37978044.000	9.802363e-001	7.638950e-002
37984038.000	9.802283e-001	7.628335e-002
37990032.000	9.802593e-001	7.627181e-002
37996026.000	9.802255e-001	7.627388e-002
38002020.000	9.801847e-001	7.625639e-002
38008014.000	9.801880e-001	7.619724e-002
38014008.000	9.802783e-001	7.619389e-002
38020002.000	9.802264e-001	7.609170e-002
38025996.000	9.801925e-001	7.607151e-002
38031990.000	9.802228e-001	7.605572e-002
38037984.000	9.802148e-001	7.601879e-002
38043978.000	9.802212e-001	7.597092e-002
38049972.000	9.802147e-001	7.593337e-002
38055966.000	9.802644e-001	7.589511e-002
38061960.000	9.802583e-001	7.587969e-002
38067954.000	9.802201e-001	7.583871e-002
38073948.000	9.802446e-001	7.581695e-002
38079942.000	9.802786e-001	7.581734e-002
38085936.000	9.802707e-001	7.574901e-002
38091930.000	9.802559e-001	7.573082e-002
38097924.000	9.802009e-001	7.568771e-002
38103918.000	9.802627e-001	7.563407e-002
38109912.000	9.802737e-001	7.560507e-002
38115906.000	9.802409e-001	7.558416e-002
38121900.000	9.802780e-001	7.554209e-002
38127894.000	9.803048e-001	7.549862e-002
38133888.000	9.802423e-001	7.548485e-002
38139882.000	9.802372e-001	7.544886e-002
38145876.000	9.802837e-001	7.541023e-002
38151870.000	9.802632e-001	7.538412e-002
38157864.000	9.802929e-001	7.535412e-002
38163858.000	9.802580e-001	7.531212e-002
38169852.000	9.803111e-001	7.529836e-002
38175846.000	9.802656e-001	7.524251e-002
38181840.000	9.802653e-001	7.519611e-002
38187834.000	9.802735e-001	7.515706e-002
38193828.000	9.802542e-001	7.511562e-002
38199822.000	9.802670e-001	7.509619e-002
38205816.000	9.803077e-001	7.508458e-002
38211810.000	9.803122e-001	7.505810e-002
38217804.000	9.803594e-001	7.503538e-002
38223798.000	9.803178e-001	7.500153e-002
38229792.000	9.803313e-001	7.494744e-002
38235786.000	9.802613e-001	7.492114e-002
38241780.000	9.803155e-001	7.490436e-002
38247774.000	9.803058e-001	7.487693e-002
38253768.000	9.803051e-001	7.479857e-002
38259762.000	9.803109e-001	7.475937e-002
38265756.000	9.803119e-001	7.475272e-002
38271750.000	9.803128e-001	7.474009e-002
38277744.000	9.803102e-001	7.465093e-002
38283738.000	9.802924e-001	7.463965e-002
38289732.000	9.803007e-001	7.460461e-002
38295726.000	9.802868e-001	7.458273e-002
38301720.000	9.803465e-001	7.452901e-002
38307714.000	9.803476e-001	7.448582e-002
38313708.000	9.803218e-001	7.447743e-002
38319702.000	9.803593e-001	7.446637e-002
38325696.000	9.803153e-001	7.440925e-002
38331690.000	9.803449e-001	7.440741e-002
38337684.000	9.803407e-001	7.436199e-002
38343678.000	9.803648e-001	7.426450e-002
38349672.000	9.803352e-001	7.428395e-002
38355666.000	9.803461e-001	7.425823e-002
38361660.000	9.802718e-001	7.418637e-002
38367654.000	9.803761e-001	7.416075e-002
38373648.000	9.802969e-001	7.414366e-002
38379642.000	9.802955e-001	7.411459e-002
38385636.000	9.803129e-001	7.407251e-002
38391630.000	9.803972e-001	7.402933e-002
38397624.000	9.803268e-001	7.403497e-002
38403618.000	9.803013e-001	7.400507e-002
38409612.000	9.803524e-001	7.393608e-002
38415606.000	9.803272e-001	7.392006e-002
38421600.000	9.803273e-001	7.386909e-002
38427594.000	9.802799e-001	7.384081e-002
38433588.000	9.803248e-001	7.378305e-002
38439582.000	9.803556e-001	7.377492e-002
38445576.000	9.804116e-001	7.374474e-002
38451570.000	9.803226e-001	7.369897e-002
38457564.000	9.804323e-001	7.367042e-002
38463558.000	9.803886e-001	7.367550e-002
38469552.000	9.804091e-001	7.364452e-002
38475546.000	9.803854e-001	7.359607e-002
38481540.000	9.803437e-001	7.353054e-002
38487534.000	9.803819e-001	7.350376e-002
38493528.000	9.803765e-001	7.351928e-002
38499522.000	9.803763e-001	7.344594e-002
38505516.000	9.803634e-001	7.343561e-002
38511510.000	9.803655e-001	7.339961e-002
38517504.000	9.803864e-001	7.337536e-002
38523498.000	9.803989e-001	7.333807e-002
38529492.000	9.803795e-001	7.330192e-002
38535486.000	9.804093e-001	7.327108e-002
38541480.000	9.803268e-001	7.321835e-002
38547474.000	9.804095e-001	7.321071e-002
38553468.000	9.804271e-001	7.320647e-002
38559462.000	9.804072e-001	7.310813e-002
38565456.000	9.803809e-001	7.309628e-002
38571450.000	9.803779e-001	7.305900e-002
38577444.000	9.803888e-001	7.303385e-002
38583438.000	9.804337e-001	7.298755e-002
38589432.000	9.803902e-001	7.299128e-002
38595426.000	9.804154e-001	7.295442e-002
38601420.000	9.803852e-001	7.290814e-002
38607414.000	9.804377e-001	7.285702e-002
38613408.000	9.804570e-001	7.283486e-002
38619402.000	9.804268e-001	7.279833e-002
38625396.000	9.804168e-001	7.275595e-002
38631390.000	9.804558e-001	7.276037e-002
38637384.000	9.803969e-001	7.269099e-002
38643378.000	9.804527e-001	7.266530e-002
38649372.000	9.804111e-001	7.266122e-002
38655366.000	9.804189e-001	7.262116e-002
38661360.000	9.804337e-001	7.257080e-002
38667354.000	9.804580e-001	7.253762e-002
38673348.000	9.804632e-001	7.251480e-002
38679342.000	9.804354e-001	7.248846e-002
38685336.000	9.804164e-001	7.245332e-002
38691330.000	9.804838e-001	7.243177e-002
38697324.000	9.804233e-001	7.235310e-002
38703318.000	9.804168e-001	7.233538e-002
38709312.000	9.804692e-001	7.233457e-002
38715306.000	9.804685e-001	7.225130e-002
38721300.000	9.804205e-001	7.221663e-002
38727294.000	9.804526e-001	7.219920e-002
38733288.000	9.804582e-001	7.214954e-002
38739282.000	9.804388e-001	7.215506e-002
38745276.000	9.804401e-001	7.212307e-002
38751270.000	9.804667e-001	7.207765e-002
38757264.000	9.804309e-001	7.203899e-002
38763258.000	9.804405e-001	7.200448e-002
38769252.000	9.804067e-001	7.195522e-002
38775246.000	9.805000e-001	7.191201e-002
38781240.000	9.804754e-001	7.196008e-002
38787234.000	9.804894e-001	7.190396e-002
38793228.000	9.804388e-001	7.187739e-002
38799222.000	9.804547e-001	7.182321e-002
38805216.000	9.804724e-001	7.178308e-002
38811210.000	9.805029e-001	7.175889e-002
38817204.000	9.804985e-001	7.172742e-002
38823198.000	9.804903e-001	7.167856e-002
38829192.000	9.804866e-001	7.166333e-002
38835186.000	9.804559e-001	7.162177e-002
38841180.000	9.804781e-001	7.158510e-002
38847174.000	9.804778e-001	7.150258e-002
38853168.000	9.804579e-001	7.152047e-002
38859162.000	9.805266e-001	7.147394e-002
38865156.000	9.805283e-001	7.144663e-002
38871150.000	9.805106e-001	7.143071e-002
38877144.000	9.805358e-001	7.138474e-002
38883138.000	9.805391e-001	7.140067e-002
38889132.000	9.805150e-001	7.132619e-002
38895126.000	9.805083e-001	7.126832e-002
38901120.000	9.804866e-001	7.126122e-002
38907114.000	9.804922e-001	7.120737e-002
38913108.000	9.804760e-001	7.121577e-002
38919102.000	9.805059e-001	7.119126e-002
38925096.000	9.805535e-001	7.111420e-002
38931090.000	9.805564e-001	7.111055e-002
38937084.000	9.805427e-001	7.109946e-002
38943078.000	9.805380e-001	7.104602e-002
38949072.000	9.805445e-001	7.099817e-002
38955066.000	9.805443e-001	7.101208e-002
38961060.000	9.805195e-001	7.096829e-002
38967054.000	9.805287e-001	7.089705e-002
38973048.000	9.805702e-001	7.085470e-002
38979042.000	9.805668e-001	7.087649e-002
38985036.000	9.805848e-001	7.081968e-002
38991030.000	9.805468e-001	7.079746e-002
38997024.000	9.805860e-001	7.075125e-002
39003018.000	9.805672e-001	7.073250e-002
39009012.000	9.805799e-001	7.068800e-002
39015006.000	9.805775e-001	7.066243e-002
39021000.000	9.805367e-001	7.063110e-002
39026994.000	9.806239e-001	7.059620e-002
39032988.000	9.805939e-001	7.058595e-002
39038982.000	9.804706e-001	7.052295e-002
39044976.000	9.805460e-001	7.046928e-002
39050970.000	9.805390e-001	7.043432e-002
39056964.000	9.805496e-001	7.043101e-002
39062958.000	9.805754e-001	7.037246e-002
39068952.000	9.806132e-001	7.034308e-002
39074946.000	9.805484e-001	7.032233e-002
39080940.000	9.805831e-001	7.030455e-002
39086934.000	9.805543e-001	7.025874e-002
39092928.000	9.805308e-001	7.020006e-002
39098922.000	9.805856e-001	7.016849e-002
39104916.000	9.806375e-001	7.015914e-002
39110910.000	9.805462e-001	7.009779e-002
39116904.000	9.805625e-001	7.008595e-002
39122898.000	9.805798e-001	7.004653e-002
39128892.000	9.805621e-001	7.001970e-002
39134886.000	9.805508e-001	6.999367e-002
39140880.000	9.805831e-001	6.998318e-002
39146874.000	9.805537e-001	6.992393e-002
39152868.000	9.805718e-001	6.987828e-002
39158862.000	9.805456e-001	6.986717e-002
39164856.000	9.805410e-001	6.981971e-002
39170850.000	9.805717e-001	6.980753e-002
39176844.000	9.805593e-001	6.973581e-002
39182838.000	9.806029e-001	6.976621e-002
39188832.000	9.805760e-001	6.969320e-002
39194826.000	9.805954e-001	6.967549e-002
39200820.000	9.805975e-001	6.962483e-002
39206814.000	9.806058e-001	6.962558e-002
39212808.000	9.805645e-001	6.954915e-002
39218802.000	9.806154e-001	6.952337e-002
39224796.000	9.805879e-001	6.946599e-002
39230790.000	9.805730e-001	6.944828e-002
39236784.000	9.806018e-001	6.943258e-002
39242778.000	9.805607e-001	6.944406e-002
39248772.000	9.805834e-001	6.936856e-002
39254766.000	9.805869e-001	6.934388e-002
39260760.000	9.805973e-001	6.930608e-002
39266754.000	9.806134e-001	6.928856e-002
39272748.000	9.806160e-001	6.924760e-002
39278742.000	9.805895e-001	6.924785e-002
39284736.000	9.806473e-001	6.916097e-002
39290730.000	9.806388e-001	6.916583e-002
39296724.000	9.806318e-001	6.912377e-002
39302718.000	9.806235e-001	6.909761e-002
39308712.000	9.806476e-001	6.908106e-002
39314706.000	9.806283e-001	6.903711e-002
39320700.000	9.806628e-001	6.895694e-002
39326694.000	9.806552e-001	6.893680e-002
39332688.000	9.806346e-001	6.892217e-002
39338682.000	9.806215e-001	6.891131e-002
39344676.000	9.806722e-001	6.887628e-002
39350670.000	9.806904e-001	6.880824e-002
39356664.000	9.806658e-001	6.878562e-002
39362658.000	9.805933e-001	6.877057e-002
39368652.000	9.806322e-001	6.875544e-002
39374646.000	9.806728e-001	6.872304e-002
39380640.000	9.807141e-001	6.867817e-002
39386634.000	9.806927e-001	6.863568e-002
39392628.000	9.807011e-001	6.864475e-002
39398622.000	9.806599e-001	6.855601e-002
39404616.000	9.806754e-001	6.853291e-002
39410610.000	9.807243e-001	6.854234e-002
39416604.000	9.807090e-001	6.846980e-002
39422598.000	9.806645e-001	6.842642e-002
39428592.000	9.806848e-001	6.841224e-002
39434586.000	9.806803e-001	6.836145e-002
39440580.000	9.806872e-001	6.836542e-002
39446574.000	9.806645e-001	6.830127e-002
39452568.000	9.807005e-001	6.832546e-002
39458562.000	9.806618e-001	6.826634e-002
39464556.000	9.806788e-001	6.821448e-002
39470550.000	9.807060e-001	6.818091e-002
39476544.000	9.806803e-001	6.815020e-002
39482538.000	9.806880e-001	6.814463e-002
39488532.000	9.806869e-001	6.809584e-002
39494526.000	9.806598e-001	6.802150e-002
39500520.000	9.806958e-001	6.803385e-002
39506514.000	9.806924e-001	6.797389e-002
39512508.000	9.807356e-001	6.795737e-002
39518502.000	9.807061e-001	6.792634e-002
39524496.000	9.807181e-001	6.790598e-002
39530490.000	9.807733e-001	6.787278e-002
39536484.000	9.807082e-001	6.784423e-002
39542478.000	9.807313e-001	6.778256e-002
39548472.000	9.807385e-001	6.780089e-002
39554466.000	9.807339e-001	6.772661e-002
39560460.000	9.807013e-001	6.774568e-002
39566454.000	9.807002e-001	6.768018e-002
39572448.000	9.807137e-001	6.763384e-002
39578442.000	9.806793e-001	6.761922e-002
39584436.000	9.806705e-001	6.761573e-002
39590430.000	9.807065e-001	6.756258e-002
39596424.000	9.807430e-001	6.748558e-002
39602418.000	9.806881e-001	6.748692e-002
39608412.000	9.807578e-001	6.746548e-002
39614406.000	9.807456e-001	6.742025e-002
39620400.000	9.807378e-001	6.735801e-002
39626394.000	9.807249e-001	6.735073e-002
39632388.000	9.807361e-001	6.732272e-002
39638382.000	9.807247e-001	6.728892e-002
39644376.000	9.807492e-001	6.727061e-002
39650370.000	9.807449e-001	6.721767e-002
39656364.000	9.807276e-001	6.718186e-002
39662358.000	9.807577e-001	6.719250e-002
39668352.000	9.806947e-001	6.712490e-002
39674346.000	9.808127e-001	6.713619e-002
39680340.000	9.807458e-001	6.707512e-002
39686334.000	9.807140e-001	6.705092e-002
39692328.000	9.808205e-001	6.703474e-002
39698322.000	9.807519e-001	6.699996e-002
39704316.000	9.807436e-001	6.690665e-002
39710310.000	9.807608e-001	6.689095e-002
39716304.000	9.807218e-001	6.687521e-002
39722298.000	9.807705e-001	6.682279e-002
39728292.000	9.807185e-001	6.682423e-002
39734286.000	9.807316e-001	6.679708e-002
39740280.000	9.807560e-001	6.674681e-002
39746274.000	9.807691e-001	6.675642e-002
39752268.000	9.808129e-001	6.670650e-002
39758262.000	9.808263e-001	6.669294e-002
39764256.000	9.807737e-001	6.663084e-002
39770250.000	9.808038e-001	6.656583e-002
39776244.000	9.807571e-001	6.658784e-002
39782238.000	9.807824e-001	6.651749e-002
39788232.000	9.807818e-001	6.648513e-002
39794226.000	9.807714e-001	6.647542e-002
39800220.000	9.807875e-001	6.642209e-002
39806214.000	9.808004e-001	6.641344e-002
39812208.000	9.807872e-001	6.637121e-002
39818202.000	9.808014e-001	6.633259e-002
39824196.000	9.807718e-001	6.628636e-002
39830190.000	9.807981e-001	6.627209e-002
39836184.000	9.807732e-001	6.624110e-002
39842178.000	9.807698e-001	6.619801e-002
39848172.000	9.807877e-001	6.617691e-002
39854166.000	9.807960e-001	6.618313e-002
39860160.000	9.808253e-001	6.610519e-002
39866154.000	9.808259e-001	6.608709e-002
39872148.000	9.807904e-001	6.601392e-002
39878142.000	9.808102e-001	6.601588e-002
39884136.000	9.808287e-001	6.597124e-002
39890130.000	9.807912e-001	6.595585e-002
39896124.000	9.807523e-001	6.592288e-002
39902118.000	9.808028e-001	6.589423e-002
39908112.000	9.808392e-001	6.583988e-002
39914106.000	9.807959e-001	6.580814e-002
39920100.000	9.808202e-001	6.577701e-002
39926094.000	9.808502e-001	6.574571e-002
39932088.000	9.807837e-001	6.570911e-002
39938082.000	9.808118e-001	6.569341e-002
39944076.000	9.807781e-001	6.567048e-002
39950070.000	9.808314e-001	6.562797e-002
39956064.000	9.808337e-001	6.564291e-002
39962058.000	9.808318e-001	6.555233e-002
39968052.000	9.808292e-001	6.551904e-002
39974046.000	9.808481e-001	6.550800e-002
39980040.000	9.808161e-001	6.545170e-002
39986034.000	9.808155e-001	6.544973e-002
39992028.000	9.808188e-001	6.538520e-002
39998022.000	9.808473e-001	6.537344e-002
40004016.000	9.808402e-001	6.534068e-002
40010010.000	9.808191e-001	6.532305e-002
40016004.000	9.808607e-001	6.528996e-002
40021998.000	9.808382e-001	6.524631e-002
40027992.000	9.808268e-001	6.521386e-002
40033986.000	9.808289e-001	6.518181e-002
40039980.000	9.808329e-001	6.515458e-002
40045974.000	9.808203e-001	6.512390e-002
40051968.000	9.808613e-001	6.509360e-002
40057962.000	9.808483e-001	6.510532e-002
40063956.000	9.808782e-001	6.503350e-002
40069950.000	9.808261e-001	6.500016e-002
40075944.000	9.808720e-001	6.494315e-002
40081938.000	9.808504e-001	6.493428e-002
40087932.000	9.808434e-001	6.494089e-002
40093926.000	9.808537e-001	6.490595e-002
40099920.000	9.808410e-001	6.486294e-002
40105914.000	9.808824e-001	6.481564e-002
40111908.000	9.808751e-001	6.478508e-002
40117902.000	9.808387e-001	6.474210e-002
40123896.000	9.808178e-001	6.470834e-002
40129890.000	9.808548e-001	6.467820e-002
40135884.000	9.808283e-001	6.465894e-002
40141878.000	9.808613e-001	6.462049e-002
40147872.000	9.808449e-001	6.457384e-002
40153866.000	9.808069e-001	6.455980e-002
40159860.000	9.808589e-001	6.454659e-002
40165854.000	9.809112e-001	6.450008e-002
40171848.000	9.809160e-001	6.446296e-002
40177842.000	9.809148e-001	6.439644e-002
40183836.000	9.808600e-001	6.441381e-002
40189830.000	9.808802e-001	6.438735e-002
40195824.000	9.809183e-001	6.438906e-002
40201818.000	9.809399e-001	6.430816e-002
40207812.000	9.809154e-001	6.426889e-002
40213806.000	9.809067e-001	6.424444e-002
40219800.000	9.808829e-001	6.418265e-002
40225794.000	9.808940e-001	6.416365e-002
40231788.000	9.809405e-001	6.415226e-002
40237782.000	9.808989e-001	6.409198e-002
40243776.000	9.808889e-001	6.408629e-002
40249770.000	9.809063e-001	6.410177e-002
40255764.000	9.808991e-001	6.403820e-002
40261758.000	9.809312e-001	6.399339e-002
40267752.000	9.809220e-001	6.397153e-002
40273746.000	9.808925e-001	6.394286e-002
40279740.000	9.809531e-001	6.390539e-002
40285734.000	9.809189e-001	6.386873e-002
40291728.000	9.809396e-001	6.382775e-002
40297722.000	9.809102e-001	6.381111e-002
40303716.000	9.809042e-001	6.377399e-002
40309710.000	9.809144e-001	6.374778e-002
40315704.000	9.808913e-001	6.369125e-002
40321698.000	9.809162e-001	6.366241e-002
40327692.000	9.808640e-001	6.366499e-002
40333686.000	9.809228e-001	6.362163e-002
40339680.000	9.809197e-001	6.358182e-002
40345674.000	9.809368e-001	6.357119e-002
40351668.000	9.808708e-001	6.349938e-002
40357662.000	9.808828e-001	6.349528e-002
40363656.000	9.809603e-001	6.343350e-002
40369650.000	9.809284e-001	6.344182e-002
40375644.000	9.809404e-001	6.339755e-002
40381638.000	9.809199e-001	6.336366e-002
40387632.000	9.809671e-001	6.332258e-002
40393626.000	9.809263e-001	6.329987e-002
40399620.000	9.809332e-001	6.330626e-002
40405614.000	9.809264e-001	6.324766e-002
40411608.000	9.808728e-001	6.321062e-002
40417602.000	9.809388e-001	6.318348e-002
40423596.000	9.808922e-001	6.312545e-002
40429590.000	9.809513e-001	6.311199e-002
40435584.000	9.809595e-001	6.309910e-002
40441578.000	9.809324e-001	6.304119e-002
40447572.000	9.809715e-001	6.303309e-002
40453566.000	9.808979e-001	6.300141e-002
40459560.000	9.809154e-001	6.299073e-002
40465554.000	9.809297e-001	6.290876e-002
40471548.000	9.809087e-001	6.286917e-002
40477542.000	9.809397e-001	6.288390e-002
40483536.000	9.809138e-001	6.285595e-002
40489530.000	9.809445e-001	6.276107e-002
40495524.000	9.809698e-001	6.276124e-002
40501518.000	9.809474e-001	6.275458e-002
40507512.000	9.809261e-001	6.275821e-002
40513506.000	9.809893e-001	6.268131e-002
40519500.000	9.809406e-001	6.266056e-002
40525494.000	9.809540e-001	6.257677e-002
40531488.000	9.809703e-001	6.254338e-002
40537482.000	9.809635e-001	6.255861e-002
40543476.000	9.809405e-001	6.251507e-002
40549470.000	9.809812e-001	6.252467e-002
40555464.000	9.809813e-001	6.244967e-002
40561458.000	9.809764e-001	6.243084e-002
40567452.000	9.809499e-001	6.240283e-002
40573446.000	9.809063e-001	6.238070e-002
40579440.000	9.809417e-001	6.228917e-002
40585434.000	9.809705e-001	6.226016e-002
40591428.000	9.809783e-001	6.228516e-002
40597422.000	9.809657e-001	6.228253e-002
40603416.000	9.809860e-001	6.222011e-002
40609410.000	9.809905e-001	6.219248e-002
40615404.000	9.809593e-001	6.218437e-002
40621398.000	9.809129e-001	6.212465e-002
40627392.000	9.810067e-001	6.211744e-002
40633386.000	9.809703e-001	6.201833e-002
40639380.000	9.810001e-001	6.201749e-002
40645374.000	9.809700e-001	6.199036e-002
40651368.000	9.809877e-001	6.196677e-002
40657362.000	9.809957e-001	6.194925e-002
40663356.000	9.809930e-001	6.187680e-002
40669350.000	9.809584e-001	6.182987e-002
40675344.000	9.810014e-001	6.183782e-002
40681338.000	9.809703e-001	6.183644e-002
40687332.000	9.810222e-001	6.173583e-002
40693326.000	9.810256e-001	6.176411e-002
40699320.000	9.810103e-001	6.173298e-002
40705314.000	9.810464e-001	6.170199e-002
40711308.000	9.810481e-001	6.166383e-002
40717302.000	9.810042e-001	6.160664e-002
40723296.000	9.810065e-001	6.157492e-002
40729290.000	9.809978e-001	6.157430e-002
40735284.000	9.810262e-001	6.155435e-002
40741278.000	9.810369e-001	6.151231e-002
40747272.000	9.810274e-001	6.147680e-002
40753266.000	9.809964e-001	6.142777e-002
40759260.000	9.810224e-001	6.141459e-002
40765254.000	9.809855e-001	6.139898e-002
40771248.000	9.809850e-001	6.136459e-002
40777242.000	9.809775e-001	6.132025e-002
40783236.000	9.810301e-001	6.129695e-002
40789230.000	9.810458e-001	6.126092e-002
40795224.000	9.809910e-001	6.122646e-002
40801218.000	9.810147e-001	6.122907e-002
40807212.000	9.810620e-001	6.116935e-002
40813206.000	9.810009e-001	6.112720e-002
40819200.000	9.810359e-001	6.111468e-002
40825194.000	9.810385e-001	6.107027e-002
40831188.000	9.810545e-001	6.102750e-002
40837182.000	9.810723e-001	6.102624e-002
40843176.000	9.810476e-001	6.097312e-002
40849170.000	9.810734e-001	6.095691e-002
40855164.000	9.810931e-001	6.090616e-002
40861158.000	9.810536e-001	6.090248e-002
40867152.000	9.810538e-001	6.083049e-002
40873146.000	9.810486e-001	6.082335e-002
40879140.000	9.811070e-001	6.082412e-002
40885134.000	9.810765e-001	6.074355e-002
40891128.000	9.810601e-001	6.073599e-002
40897122.000	9.810561e-001	6.068899e-002
40903116.000	9.810568e-001	6.065988e-002
40909110.000	9.810618e-001	6.060141e-002
40915104.000	9.810891e-001	6.067257e-002
40921098.000	9.810743e-001	6.059137e-002
40927092.000	9.810578e-001	6.056044e-002
40933086.000	9.810548e-001	6.050838e-002
40939080.000	9.810494e-001	6.049798e-002
40945074.000	9.810364e-001	6.046175e-002
40951068.000	9.810976e-001	6.042769e-002
40957062.000	9.810705e-001	6.038398e-002
40963056.000	9.810548e-001	6.038451e-002
40969050.000	9.811069e-001	6.032959e-002
40975044.000	9.810608e-001	6.031080e-002
40981038.000	9.810817e-001	6.028739e-002
40987032.000	9.810759e-001	6.024345e-002
40993026.000	9.811165e-001	6.022705e-002
40999020.000	9.810516e-001	6.015438e-002
41005014.000	9.810810e-001	6.015256e-002
41011008.000	9.811110e-001	6.011225e-002
41017002.000	9.810177e-001	6.010491e-002
41022996.000	9.810773e-001	6.006634e-002
41028990.000	9.810681e-001	6.005785e-002
41034984.000	9.811006e-001	5.998677e-002
41040978.000	9.810670e-001	5.995117e-002
41046972.000	9.811250e-001	5.996585e-002
41052966.000	9.810891e-001	5.991482e-002
41058960.000	9.810755e-001	5.987047e-002
41064954.000	9.811068e-001	5.987943e-002
41070948.000	9.810797e-001	5.978651e-002
41076942.000	9.810887e-001	5.975529e-002
41082936.000	9.810996e-001	5.975138e-002
41088930.000	9.811365e-001	5.970657e-002
41094924.000	9.811880e-001	5.967684e-002
41100918.000	9.811497e-001	5.968954e-002
41106912.000	9.811347e-001	5.961617e-002
41112906.000	9.811019e-001	5.962492e-002
41118900.000	9.811638e-001	5.956723e-002
41124894.000	9.811297e-001	5.953883e-002
41130888.000	9.811230e-001	5.951592e-002
41136882.000	9.810836e-001	5.947958e-002
41142876.000	9.811201e-001	5.942312e-002
41148870.000	9.811234e-001	5.939383e-002
41154864.000	9.811176e-001	5.938940e-002
41160858.000	9.811741e-001	5.934898e-002
41166852.000	9.811441e-001	5.932011e-002
41172846.000	9.811149e-001	5.929126e-002
41178840.000	9.811177e-001	5.923266e-002
41184834.000	9.811150e-001	5.924610e-002
41190828.000	9.811520e-001	5.919902e-002
41196822.000	9.810990e-001	5.915109e-002
41202816.000	9.810797e-001	5.914605e-002
41208810.000	9.810955e-001	5.911133e-002
41214804.000	9.811160e-001	5.908680e-002
41220798.000	9.811412e-001	5.905789e-002
41226792.000	9.811202e-001	5.901034e-002
41232786.000	9.811410e-001	5.899672e-002
41238780.000	9.811033e-001	5.893837e-002
41244774.000	9.811476e-001	5.890166e-002
41250768.000	9.811069e-001	5.887113e-002
41256762.000	9.811158e-001	5.884069e-002
41262756.000	9.811538e-001	5.885821e-002
41268750.000	9.811470e-001	5.883318e-002
41274744.000	9.811485e-001	5.875837e-002
41280738.000	9.811427e-001	5.873831e-002
41286732.000	9.811332e-001	5.870840e-002
41292726.000	9.811848e-001	5.869978e-002
41298720.000	9.811447e-001	5.864310e-002
41304714.000	9.811610e-001	5.859168e-002
41310708.000	9.811109e-001	5.858014e-002
41316702.000	9.811923e-001	5.854086e-002
41322696.000	9.811740e-001	5.854578e-002
41328690.000	9.811805e-001	5.850452e-002
41334684.000	9.811634e-001	5.846003e-002
41340678.000	9.811537e-001	5.846187e-002
41346672.000	9.811703e-001	5.840781e-002
41352666.000	9.811680e-001	5.838077e-002
41358660.000	9.811569e-001	5.832690e-002
41364654.000	9.811831e-001	5.833814e-002
41370648.000	9.811856e-001	5.825635e-002
41376642.000	9.811767e-001	5.824879e-002
41382636.000	9.811925e-001	5.820494e-002
41388630.000	9.811660e-001	5.818353e-002
41394624.000	9.811407e-001	5.813531e-002
41400618.000	9.811338e-001	5.810515e-002
41406612.000	9.811545e-001	5.810413e-002
41412606.000	9.811874e-001	5.808417e-002
41418600.000	9.811780e-001	5.802529e-002
41424594.000	9.811783e-001	5.798815e-002
41430588.000	9.811879e-001	5.796276e-002
41436582.000	9.811884e-001	5.793611e-002
41442576.000	9.811613e-001	5.794558e-002
41448570.000	9.811645e-001	5.785579e-002
41454564.000	9.811928e-001	5.782225e-002
41460558.000	9.811719e-001	5.783256e-002
41466552.000	9.811780e-001	5.780168e-002
41472546.000	9.811492e-001	5.776469e-002
41478540.000	9.811812e-001	5.770521e-002
41484534.000	9.811585e-001	5.769283e-002
41490528.000	9.811428e-001	5.767979e-002
41496522.000	9.811810e-001	5.766778e-002
41502516.000	9.811650e-001	5.759148e-002
41508510.000	9.811644e-001	5.759058e-002
41514504.000	9.812226e-001	5.752191e-002
41520498.000	9.811818e-001	5.753700e-002
41526492.000	9.812209e-001	5.747166e-002
41532486.000	9.811819e-001	5.747602e-002
41538480.000	9.812417e-001	5.745855e-002
41544474.000	9.812566e-001	5.739628e-002
41550468.000	9.811606e-001	5.737039e-002
41556462.000	9.812061e-001	5.734404e-002
41562456.000	9.811921e-001	5.731039e-002
41568450.000	9.811884e-001	5.728538e-002
41574444.000	9.812140e-001	5.723691e-002
41580438.000	9.812192e-001	5.722778e-002
41586432.000	9.811774e-001	5.719458e-002
41592426.000	9.812238e-001	5.717300e-002
41598420.000	9.811976e-001	5.714717e-002
41604414.000	9.812228e-001	5.710602e-002
41610408.000	9.811947e-001	5.708788e-002
41616402.000	9.812175e-001	5.704547e-002
41622396.000	9.811990e-001	5.699524e-002
41628390.000	9.811973e-001	5.696258e-002
41634384.000	9.812018e-001	5.694081e-002
41640378.000	9.812173e-001	5.690324e-002
41646372.000	9.812405e-001	5.689199e-002
41652366.000	9.812424e-001	5.679787e-002
41658360.000	9.812315e-001	5.682738e-002
41664354.000	9.812782e-001	5.683246e-002
41670348.000	9.812389e-001	5.675481e-002
41676342.000	9.812772e-001	5.673932e-002
41682336.000	9.812450e-001	5.673348e-002
41688330.000	9.812402e-001	5.667481e-002
41694324.000	9.812643e-001	5.668129e-002
41700318.000	9.812299e-001	5.663648e-002
41706312.000	9.811989e-001	5.660161e-002
41712306.000	9.812330e-001	5.654356e-002
41718300.000	9.812322e-001	5.652478e-002
41724294.000	9.812285e-001	5.652516e-002
41730288.000	9.812155e-001	5.649192e-002
41736282.000	9.812606e-001	5.643435e-002
41742276.000	9.811939e-001	5.642728e-002
41748270.000	9.811994e-001	5.636666e-002
41754264.000	9.812379e-001	5.632459e-002
41760258.000	9.812610e-001	5.629705e-002
41766252.000	9.812415e-001	5.627903e-002
41772246.000	9.812121e-001	5.623631e-002
41778240.000	9.812480e-001	5.619494e-002
41784234.000	9.812117e-001	5.618939e-002
41790228.000	9.812089e-001	5.618881e-002
41796222.000	9.812381e-001	5.612292e-002
41802216.000	9.812466e-001	5.608828e-002
41808210.000	9.812394e-001	5.610286e-002
41814204.000	9.812668e-001	5.604142e-002
41820198.000	9.812959e-001	5.601296e-002
41826192.000	9.812823e-001	5.598377e-002
41832186.000	9.812367e-001	5.593186e-002
41838180.000	9.812620e-001	5.592053e-002
41844174.000	9.812641e-001	5.587420e-002
41850168.000	9.812230e-001	5.587076e-002
41856162.000	9.812307e-001	5.582651e-002
41862156.000	9.813114e-001	5.580977e-002
41868150.000	9.812619e-001	5.578358e-002
41874144.000	9.812762e-001	5.573958e-002
41880138.000	9.812944e-001	5.572107e-002
41886132.000	9.812702e-001	5.570441e-002
41892126.000	9.812744e-001	5.566014e-002
41898120.000	9.812575e-001	5.567116e-002
41904114.000	9.812645e-001	5.560924e-002
41910108.000	9.812518e-001	5.555628e-002
41916102.000	9.812721e-001	5.550899e-002
41922096.000	9.812709e-001	5.553797e-002
41928090.000	9.812861e-001	5.548671e-002
41934084.000	9.813038e-001	5.544189e-002
41940078.000	9.812881e-001	5.541011e-002
41946072.000	9.812697e-001	5.539087e-002
41952066.000	9.812986e-001	5.536063e-002
41958060.000	9.813010e-001	5.533102e-002
41964054.000	9.813129e-001	5.530035e-002
41970048.000	9.813390e-001	5.526797e-002
41976042.000	9.812970e-001	5.524154e-002
41982036.000	9.813207e-001	5.518970e-002
41988030.000	9.813055e-001	5.519318e-002
41994024.000	9.813228e-001	5.515824e-002
42000018.000	9.813023e-001	5.512305e-002
42006012.000	9.812958e-001	5.509692e-002
42012006.000	9.812726e-001	5.505886e-002
42018000.000	9.813001e-001	5.502750e-002
42023994.000	9.813570e-001	5.501316e-002
42029988.000	9.813149e-001	5.497585e-002
42035982.000	9.813163e-001	5.494887e-002
42041976.000	9.813258e-001	5.492042e-002
42047970.000	9.813308e-001	5.486635e-002
42053964.000	9.813183e-001	5.483587e-002
42059958.000	9.812902e-001	5.482620e-002
42065952.000	9.813533e-001	5.482373e-002
42071946.000	9.813233e-001	5.476350e-002
42077940.000	9.812941e-001	5.474227e-002
42083934.000	9.813280e-001	5.469624e-002
42089928.000	9.813258e-001	5.467469e-002
42095922.000	9.812908e-001	5.467080e-002
42101916.000	9.813189e-001	5.462526e-002
42107910.000	9.813170e-001	5.458068e-002
42113904.000	9.813027e-001	5.454770e-002
42119898.000	9.813542e-001	5.452226e-002
42125892.000	9.813370e-001	5.450354e-002
42131886.000	9.813050e-001	5.445378e-002
42137880.000	9.813452e-001	5.443388e-002
42143874.000	9.813317e-001	5.440135e-002
42149868.000	9.813235e-001	5.438948e-002
42155862.000	9.813131e-001	5.431949e-002
42161856.000	9.813028e-001	5.428804e-002
42167850.000	9.813341e-001	5.427846e-002
42173844.000	9.813237e-001	5.423597e-002
42179838.000	9.813362e-001	5.421559e-002
42185832.000	9.813272e-001	5.420211e-002
42191826.000	9.813428e-001	5.418018e-002
42197820.000	9.813063e-001	5.409966e-002
42203814.000	9.813265e-001	5.408792e-002
42209808.000	9.813478e-001	5.409192e-002
42215802.000	9.813597e-001	5.405274e-002
42221796.000	9.813595e-001	5.401142e-002
42227790.000	9.813600e-001	5.399183e-002
42233784.000	9.813414e-001	5.395912e-002
42239778.000	9.813892e-001	5.395531e-002
42245772.000	9.813837e-001	5.391877e-002
42251766.000	9.813922e-001	5.386491e-002
42257760.000	9.814298e-001	5.384501e-002
42263754.000	9.813788e-001	5.380675e-002
42269748.000	9.813941e-001	5.381511e-002
42275742.000	9.813772e-001	5.377049e-002
42281736.000	9.814069e-001	5.370095e-002
42287730.000	9.814080e-001	5.369591e-002
42293724.000	9.813889e-001	5.365557e-002
42299718.000	9.814247e-001	5.365249e-002
42305712.000	9.814242e-001	5.363215e-002
42311706.000	9.814032e-001	5.359871e-002
42317700.000	9.813894e-001	5.353996e-002
42323694.000	9.813547e-001	5.350586e-002
42329688.000	9.813469e-001	5.351200e-002
42335682.000	9.813890e-001	5.345723e-002
42341676.000	9.813958e-001	5.344563e-002
42347670.000	9.813758e-001	5.339896e-002
42353664.000	9.813943e-001	5.336304e-002
42359658.000	9.813524e-001	5.335042e-002
42365652.000	9.813766e-001	5.329431e-002
42371646.000	9.813952e-001	5.330006e-002
42377640.000	9.813971e-001	5.324459e-002
42383634.000	9.813856e-001	5.321090e-002
42389628.000	9.814146e-001	5.318225e-002
42395622.000	9.814257e-001	5.317117e-002
42401616.000	9.813622e-001	5.313363e-002
42407610.000	9.814210e-001	5.313233e-002
42413604.000	9.814584e-001	5.309407e-002
42419598.000	9.814376e-001	5.303424e-002
42425592.000	9.814150e-001	5.302978e-002
42431586.000	9.814594e-001	5.300407e-002
42437580.000	9.813946e-001	5.293800e-002
42443574.000	9.814043e-001	5.292733e-002
42449568.000	9.813934e-001	5.289331e-002
42455562.000	9.814374e-001	5.287114e-002
42461556.000	9.813933e-001	5.282942e-002
42467550.000	9.813853e-001	5.281066e-002
42473544.000	9.814527e-001	5.278002e-002
42479538.000	9.813990e-001	5.274827e-002
42485532.000	9.814556e-001	5.272415e-002
42491526.000	9.814562e-001	5.268618e-002
42497520.000	9.814243e-001	5.268243e-002
42503514.000	9.813816e-001	5.265052e-002
42509508.000	9.814236e-001	5.261799e-002
42515502.000	9.813691e-001	5.257489e-002
42521496.000	9.813854e-001	5.257285e-002
42527490.000	9.814367e-001	5.252576e-002
42533484.000	9.814221e-001	5.250513e-002
42539478.000	9.813968e-001	5.251412e-002
42545472.000	9.813998e-001	5.244415e-002
42551466.000	9.813857e-001	5.240120e-002
42557460.000	9.814327e-001	5.236681e-002
42563454.000	9.814015e-001	5.235104e-002
42569448.000	9.814246e-001	5.230137e-002
42575442.000	9.814173e-001	5.229599e-002
42581436.000	9.814078e-001	5.223990e-002
42587430.000	9.814151e-001	5.222199e-002
42593424.000	9.814414e-001	5.217167e-002
42599418.000	9.813989e-001	5.215818e-002
42605412.000	9.814659e-001	5.215888e-002
42611406.000	9.814146e-001	5.208396e-002
42617400.000	9.814155e-001	5.212248e-002
42623394.000	9.814207e-001	5.206426e-002
42629388.000	9.814004e-001	5.203516e-002
42635382.000	9.814208e-001	5.198806e-002
42641376.000	9.814620e-001	5.195498e-002
42647370.000	9.814441e-001	5.192770e-002
42653364.000	9.814292e-001	5.189113e-002
42659358.000	9.814184e-001	5.187919e-002
42665352.000	9.814133e-001	5.184369e-002
42671346.000	9.814335e-001	5.182539e-002
42677340.000	9.814587e-001	5.178983e-002
42683334.000	9.813879e-001	5.173743e-002
42689328.000	9.814161e-001	5.172351e-002
42695322.000	9.814289e-001	5.167714e-002
42701316.000	9.814408e-001	5.164961e-002
42707310.000	9.814230e-001	5.161048e-002
42713304.000	9.814213e-001	5.161578e-002
42719298.000	9.813962e-001	5.158893e-002
42725292.000	9.814315e-001	5.152299e-002
42731286.000	9.814864e-001	5.151304e-002
42737280.000	9.814205e-001	5.145609e-002
42743274.000	9.813980e-001	5.145343e-002
42749268.000	9.814291e-001	5.143599e-002
42755262.000	9.814246e-001	5.140597e-002
42761256.000	9.814376e-001	5.133211e-002
42767250.000	9.814645e-001	5.135138e-002
42773244.000	9.814975e-001	5.135347e-002
42779238.000	9.814982e-001	5.130641e-002
42785232.000	9.814797e-001	5.127080e-002
42791226.000	9.814912e-001	5.127352e-002
42797220.000	9.814118e-001	5.120377e-002
42803214.000	9.814708e-001	5.121438e-002
42809208.000	9.814633e-001	5.115019e-002
42815202.000	9.814996e-001	5.115937e-002
42821196.000	9.814435e-001	5.106709e-002
42827190.000	9.814837e-001	5.104350e-002
42833184.000	9.815075e-001	5.105340e-002
42839178.000	9.815590e-001	5.101920e-002
42845172.000	9.814546e-001	5.099395e-002
42851166.000	9.814518e-001	5.093167e-002
42857160.000	9.814313e-001	5.090511e-002
42863154.000	9.815102e-001	5.089436e-002
42869148.000	9.814927e-001	5.084236e-002
42875142.000	9.814608e-001	5.082410e-002
42881136.000	9.814546e-001	5.076851e-002
42887130.000	9.814422e-001	5.076525e-002
42893124.000	9.815026e-001	5.073315e-002
42899118.000	9.814961e-001	5.069988e-002
42905112.000	9.814568e-001	5.069476e-002
42911106.000	9.814835e-001	5.064214e-002
42917100.000	9.815306e-001	5.060481e-002
42923094.000	9.814818e-001	5.061104e-002
42929088.000	9.814605e-001	5.053987e-002
42935082.000	9.814530e-001	5.051623e-002
42941076.000	9.814999e-001	5.049121e-002
42947070.000	9.814917e-001	5.045221e-002
42953064.000	9.814507e-001	5.040070e-002
42959058.000	9.814691e-001	5.038770e-002
42965052.000	9.814946e-001	5.040359e-002
42971046.000	9.814841e-001	5.035037e-002
42977040.000	9.815188e-001	5.030947e-002
42983034.000	9.814623e-001	5.027272e-002
42989028.000	9.814862e-001	5.027522e-002
42995022.000	9.814728e-001	5.023260e-002
43001016.000	9.814814e-001	5.019132e-002
43007010.000	9.814825e-001	5.017095e-002
43013004.000	9.814785e-001	5.014759e-002
43018998.000	9.815249e-001	5.012592e-002
43024992.000	9.815137e-001	5.007455e-002
43030986.000	9.815438e-001	5.006369e-002
43036980.000	9.814842e-001	5.002149e-002
43042974.000	9.815470e-001	5.003003e-002
43048968.000	9.815152e-001	4.996537e-002
43054962.000	9.815755e-001	4.996075e-002
43060956.000	9.816034e-001	4.989279e-002
43066950.000	9.815713e-001	4.988842e-002
43072944.000	9.815460e-001	4.984287e-002
43078938.000	9.815222e-001	4.983669e-002
43084932.000	9.815215e-001	4.982937e-002
43090926.000	9.815434e-001	4.977130e-002
43096920.000	9.815021e-001	4.975528e-002
43102914.000	9.814854e-001	4.972100e-002
43108908.000	9.815031e-001	4.969697e-002
43114902.000	9.815067e-001	4.964432e-002
43120896.000	9.815370e-001	4.962898e-002
43126890.000	9.815050e-001	4.960773e-002
43132884.000	9.815803e-001	4.958642e-002
43138878.000	9.815657e-001	4.953852e-002
43144872.000	9.815581e-001	4.952382e-002
43150866.000	9.815713e-001	4.949971e-002
43156860.000	9.816191e-001	4.948917e-002
43162854.000	9.815633e-001	4.945488e-002
43168848.000	9.815478e-001	4.939418e-002
43174842.000	9.815431e-001	4.934181e-002
43180836.000	9.815441e-001	4.934324e-002
43186830.000	9.815430e-001	4.930837e-002
43192824.000	9.815261e-001	4.925694e-002
43198818.000	9.815362e-001	4.925955e-002
43204812.000	9.815025e-001	4.918538e-002
43210806.000	9.814986e-001	4.919636e-002
43216800.000	9.814924e-001	4.915493e-002
43222794.000	9.815632e-001	4.914729e-002
43228788.000	9.815817e-001	4.912133e-002
43234782.000	9.815966e-001	4.911094e-002
43240776.000	9.816067e-001	4.906340e-002
43246770.000	9.815950e-001	4.900202e-002
43252764.000	9.815728e-001	4.900058e-002
43258758.000	9.815862e-001	4.897190e-002
43264752.000	9.815858e-001	4.894864e-002
43270746.000	9.815531e-001	4.889950e-002
43276740.000	9.816050e-001	4.887664e-002
43282734.000	9.815930e-001	4.885230e-002
43288728.000	9.815950e-001	4.884316e-002
43294722.000	9.815657e-001	4.876945e-002
43300716.000	9.815690e-001	4.878023e-002
43306710.000	9.816349e-001	4.874530e-002
43312704.000	9.816249e-001	4.872110e-002
43318698.000	9.816001e-001	4.866197e-002
43324692.000	9.815885e-001	4.864176e-002
43330686.000	9.816200e-001	4.860182e-002
43336680.000	9.815812e-001	4.861746e-002
43342674.000	9.815912e-001	4.854451e-002
43348668.000	9.815860e-001	4.850146e-002
43354662.000	9.815525e-001	4.854434e-002
43360656.000	9.815709e-001	4.846621e-002
43366650.000	9.815576e-001	4.844466e-002
43372644.000	9.815591e-001	4.841121e-002
43378638.000	9.815479e-001	4.839228e-002
43384632.000	9.815657e-001	4.835581e-002
43390626.000	9.815475e-001	4.831804e-002
43396620.000	9.815721e-001	4.831426e-002
43402614.000	9.815729e-001	4.826774e-002
43408608.000	9.815424e-001	4.824732e-002
43414602.000	9.816022e-001	4.819391e-002
43420596.000	9.816095e-001	4.820444e-002
43426590.000	9.815864e-001	4.815163e-002
43432584.000	9.815610e-001	4.811693e-002
43438578.000	9.816302e-001	4.812995e-002
43444572.000	9.815821e-001	4.808155e-002
43450566.000	9.816204e-001	4.806544e-002
43456560.000	9.816265e-001	4.799508e-002
43462554.000	9.816014e-001	4.799397e-002
43468548.000	9.816346e-001	4.796674e-002
43474542.000	9.815903e-001	4.793958e-002
43480536.000	9.816584e-001	4.790733e-002
43486530.000	9.816090e-001	4.787396e-002
43492524.000	9.816155e-001	4.782742e-002
43498518.000	9.816344e-001	4.782935e-002
43504512.000	9.816435e-001	4.779808e-002
43510506.000	9.816776e-001	4.780884e-002
43516500.000	9.816127e-001	4.771232e-002
43522494.000	9.816159e-001	4.769990e-002
43528488.000	9.816286e-001	4.769384e-002
43534482.000	9.816279e-001	4.763727e-002
43540476.000	9.816775e-001	4.764999e-002
43546470.000	9.816461e-001	4.757527e-002
43552464.000	9.816587e-001	4.757795e-002
43558458.000	9.816500e-001	4.750012e-002
43564452.000	9.815823e-001	4.746757e-002
43570446.000	9.816652e-001	4.747312e-002
43576440.000	9.816676e-001	4.743160e-002
43582434.000	9.816462e-001	4.742512e-002
43588428.000	9.816465e-001	4.733560e-002
43594422.000	9.816424e-001	4.734836e-002
43600416.000	9.816217e-001	4.732342e-002
43606410.000	9.816615e-001	4.727348e-002
43612404.000	9.816347e-001	4.726656e-002
43618398.000	9.815587e-001	4.725099e-002
43624392.000	9.816168e-001	4.719191e-002
43630386.000	9.816006e-001	4.717512e-002
43636380.000	9.816034e-001	4.713998e-002
43642374.000	9.816004e-001	4.710386e-002
43648368.000	9.815944e-001	4.710186e-002
43654362.000	9.815707e-001	4.706533e-002
43660356.000	9.815949e-001	4.701911e-002
43666350.000	9.816229e-001	4.699502e-002
43672344.000	9.816171e-001	4.698175e-002
43678338.000	9.816420e-001	4.695496e-002
43684332.000	9.816553e-001	4.695729e-002
43690326.000	9.816322e-001	4.691361e-002
43696320.000	9.816219e-001	4.684267e-002
43702314.000	9.816429e-001	4.687491e-002
43708308.000	9.816273e-001	4.681543e-002
43714302.000	9.816023e-001	4.677707e-002
43720296.000	9.815989e-001	4.676487e-002
43726290.000	9.815867e-001	4.674151e-002
43732284.000	9.816245e-001	4.669671e-002
43738278.000	9.816208e-001	4.665908e-002
43744272.000	9.816276e-001	4.665427e-002
43750266.000	9.816120e-001	4.666040e-002
43756260.000	9.816102e-001	4.659414e-002
43762254.000	9.815954e-001	4.656193e-002
43768248.000	9.816334e-001	4.652119e-002
43774242.000	9.816306e-001	4.649989e-002
43780236.000	9.816354e-001	4.646683e-002
43786230.000	9.816678e-001	4.645595e-002
43792224.000	9.816179e-001	4.641998e-002
43798218.000	9.816640e-001	4.636090e-002
43804212.000	9.815807e-001	4.640748e-002
43810206.000	9.816659e-001	4.634271e-002
43816200.000	9.816534e-001	4.629876e-002
43822194.000	9.816392e-001	4.626206e-002
43828188.000	9.816638e-001	4.625057e-002
43834182.000	9.816462e-001	4.622286e-002
43840176.000	9.816439e-001	4.619717e-002
43846170.000	9.816293e-001	4.615180e-002
43852164.000	9.816490e-001	4.608500e-002
43858158.000	9.816678e-001	4.609095e-002
43864152.000	9.816740e-001	4.609702e-002
43870146.000	9.816423e-001	4.604235e-002
43876140.000	9.816789e-001	4.605530e-002
43882134.000	9.816328e-001	4.599778e-002
43888128.000	9.816894e-001	4.595922e-002
43894122.000	9.816766e-001	4.595394e-002
43900116.000	9.817174e-001	4.593380e-002
43906110.000	9.816731e-001	4.587215e-002
43912104.000	9.816727e-001	4.585840e-002
43918098.000	9.816831e-001	4.584960e-002
43924092.000	9.816655e-001	4.579554e-002
43930086.000	9.816717e-001	4.576554e-002
43936080.000	9.816407e-001	4.576379e-002
43942074.000	9.816712e-001	4.570315e-002
43948068.000	9.816492e-001	4.567068e-002
43954062.000	9.816401e-001	4.565744e-002
43960056.000	9.816943e-001	4.564516e-002
43966050.000	9.816462e-001	4.563705e-002
43972044.000	9.816615e-001	4.556644e-002
43978038.000	9.816771e-001	4.551205e-002
43984032.000	9.816158e-001	4.549779e-002
43990026.000	9.816779e-001	4.547747e-002
43996020.000	9.817066e-001	4.548400e-002
44002014.000	9.816647e-001	4.543955e-002
44008008.000	9.816671e-001	4.540202e-002
44014002.000	9.816684e-001	4.540955e-002
44019996.000	9.816946e-001	4.534336e-002
44025990.000	9.816972e-001	4.530967e-002
44031984.000	9.816918e-001	4.529107e-002
44037978.000	9.816792e-001	4.528147e-002
44043972.000	9.816993e-001	4.523764e-002
44049966.000	9.817270e-001	4.521636e-002
44055960.000	9.816956e-001	4.521651e-002
44061954.000	9.816590e-001	4.516326e-002
44067948.000	9.817095e-001	4.513836e-002
44073942.000	9.816977e-001	4.508975e-002
44079936.000	9.817222e-001	4.511015e-002
44085930.000	9.817258e-001	4.504735e-002
44091924.000	9.816817e-001	4.501277e-002
44097918.000	9.817430e-001	4.498305e-002
44103912.000	9.816893e-001	4.494635e-002
44109906.000	9.816972e-001	4.489151e-002
44115900.000	9.816969e-001	4.491558e-002
44121894.000	9.816954e-001	4.488728e-002
44127888.000	9.817334e-001	4.485925e-002
44133882.000	9.817244e-001	4.482635e-002
44139876.000	9.816947e-001	4.477618e-002
44145870.000	9.816558e-001	4.479195e-002
44151864.000	9.816846e-001	4.473354e-002
44157858.000	9.817337e-001	4.470084e-002
44163852.000	9.816775e-001	4.466258e-002
44169846.000	9.817133e-001	4.465612e-002
44175840.000	9.816770e-001	4.459864e-002
44181834.000	9.817131e-001	4.459460e-002
44187828.000	9.816949e-001	4.456669e-002
44193822.000	9.817128e-001	4.449629e-002
44199816.000	9.817144e-001	4.448880e-002
44205810.000	9.817414e-001	4.450251e-002
44211804.000	9.817379e-001	4.445248e-002
44217798.000	9.817470e-001	4.444028e-002
44223792.000	9.816754e-001	4.439409e-002
44229786.000	9.817135e-001	4.436883e-002
44235780.000	9.817066e-001	4.434061e-002
44241774.000	9.817199e-001	4.428302e-002
44247768.000	9.816976e-001	4.430098e-002
44253762.000	9.817218e-001	4.426099e-002
44259756.000	9.817377e-001	4.423705e-002
44265750.000	9.817176e-001	4.417982e-002
44271744.000	9.817356e-001	4.418827e-002
44277738.000	9.817242e-001	4.413415e-002
44283732.000	9.817025e-001	4.413155e-002
44289726.000	9.817043e-001	4.405810e-002
44295720.000	9.816873e-001	4.405618e-002
44301714.000	9.817015e-001	4.401078e-002
44307708.000	9.817283e-001	4.397299e-002
44313702.000	9.817086e-001	4.396313e-002
44319696.000	9.817452e-001	4.392070e-002
44325690.000	9.816965e-001	4.390919e-002
44331684.000	9.817011e-001	4.388375e-002
44337678.000	9.817544e-001	4.383639e-002
44343672.000	9.817557e-001	4.384364e-002
44349666.000	9.817396e-001	4.380878e-002
44355660.000	9.817413e-001	4.376742e-002
44361654.000	9.817445e-001	4.376790e-002
44367648.000	9.817345e-001	4.370613e-002
44373642.000	9.817082e-001	4.370830e-002
44379636.000	9.817605e-001	4.363844e-002
44385630.000	9.817124e-001	4.363165e-002
44391624.000	9.817430e-001	4.360630e-002
44397618.000	9.817479e-001	4.357308e-002
44403612.000	9.817118e-001	4.358265e-002
44409606.000	9.817465e-001	4.351520e-002
44415600.000	9.817064e-001	4.345243e-002
44421594.000	9.817076e-001	4.344157e-002
44427588.000	9.817288e-001	4.340161e-002
44433582.000	9.816834e-001	4.340733e-002
44439576.000	9.817150e-001	4.337068e-002
44445570.000	9.817498e-001	4.332096e-002
44451564.000	9.816992e-001	4.334366e-002
44457558.000	9.817448e-001	4.329190e-002
44463552.000	9.817232e-001	4.325197e-002
44469546.000	9.817079e-001	4.322284e-002
44475540.000	9.816956e-001	4.317065e-002
44481534.000	9.817006e-001	4.315754e-002
44487528.000	9.817469e-001	4.311952e-002
44493522.000	9.817350e-001	4.313432e-002
44499516.000	9.817943e-001	4.308626e-002
44505510.000	9.817482e-001	4.305486e-002
44511504.000	9.817389e-001	4.306617e-002
44517498.000	9.817336e-001	4.300796e-002
44523492.000	9.817482e-001	4.297392e-002
44529486.000	9.817208e-001	4.290392e-002
44535480.000	9.817475e-001	4.291805e-002
44541474.000	9.817809e-001	4.286272e-002
44547468.000	9.817642e-001	4.284808e-002
44553462.000	9.817651e-001	4.283086e-002
44559456.000	9.817645e-001	4.283911e-002
44565450.000	9.817836e-001	4.277640e-002
44571444.000	9.817912e-001	4.276146e-002
44577438.000	9.817966e-001	4.277657e-002
44583432.000	9.818175e-001	4.272196e-002
44589426.000	9.818391e-001	4.270308e-002
44595420.000	9.817841e-001	4.266523e-002
44601414.000	9.817484e-001	4.263948e-002
44607408.000	9.817729e-001	4.257899e-002
44613402.000	9.817252e-001	4.257073e-002
44619396.000	9.817562e-001	4.253709e-002
44625390.000	9.817041e-001	4.255611e-002
44631384.000	9.817709e-001	4.249565e-002
44637378.000	9.817552e-001	4.244048e-002
44643372.000	9.817517e-001	4.242012e-002
44649366.000	9.817856e-001	4.242132e-002
44655360.000	9.817820e-001	4.232531e-002
44661354.000	9.817760e-001	4.236336e-002
44667348.000	9.818005e-001	4.232509e-002
44673342.000	9.818078e-001	4.226040e-002
44679336.000	9.817614e-001	4.225275e-002
44685330.000	9.817801e-001	4.224412e-002
44691324.000	9.817501e-001	4.217744e-002
44697318.000	9.817932e-001	4.220857e-002
44703312.000	9.817997e-001	4.216786e-002
44709306.000	9.817744e-001	4.215484e-002
44715300.000	9.817674e-001	4.211463e-002
44721294.000	9.817659e-001	4.203801e-002
44727288.000	9.818000e-001	4.201075e-002
44733282.000	9.817588e-001	4.199988e-002
44739276.000	9.817349e-001	4.194703e-002
44745270.000	9.817961e-001	4.195622e-002
44751264.000	9.817684e-001	4.190483e-002
44757258.000	9.817935e-001	4.187810e-002
44763252.000	9.817764e-001	4.182051e-002
44769246.000	9.818216e-001	4.181441e-002
44775240.000	9.817871e-001	4.182838e-002
44781234.000	9.817681e-001	4.176537e-002
44787228.000	9.818059e-001	4.177367e-002
44793222.000	9.818053e-001	4.172380e-002
44799216.000	9.818315e-001	4.165764e-002
44805210.000	9.818126e-001	4.171685e-002
44811204.000	9.818558e-001	4.165418e-002
44817198.000	9.818290e-001	4.163240e-002
44823192.000	9.818524e-001	4.159459e-002
44829186.000	9.818536e-001	4.156617e-002
44835180.000	9.817809e-001	4.154173e-002
44841174.000	9.817805e-001	4.149357e-002
44847168.000	9.817865e-001	4.144610e-002
44853162.000	9.817911e-001	4.144088e-002
44859156.000	9.818451e-001	4.140763e-002
44865150.000	9.818307e-001	4.139328e-002
44871144.000	9.818322e-001	4.135698e-002
44877138.000	9.818505e-001	4.132351e-002
44883132.000	9.818005e-001	4.134055e-002
44889126.000	9.817829e-001	4.126545e-002
44895120.000	9.818172e-001	4.124037e-002
44901114.000	9.818270e-001	4.122343e-002
44907108.000	9.818155e-001	4.118804e-002
44913102.000	9.818108e-001	4.118974e-002
44919096.000	9.818003e-001	4.117165e-002
44925090.000	9.818764e-001	4.116057e-002
44931084.000	9.818288e-001	4.112413e-002
44937078.000	9.817991e-001	4.104762e-002
44943072.000	9.818266e-001	4.103256e-002
44949066.000	9.818717e-001	4.101508e-002
44955060.000	9.818505e-001	4.098990e-002
44961054.000	9.818864e-001	4.096830e-002
44967048.000	9.818450e-001	4.092381e-002
44973042.000	9.818225e-001	4.090810e-002
44979036.000	9.818234e-001	4.088642e-002
44985030.000	9.818313e-001	4.084266e-002
44991024.000	9.818393e-001	4.083083e-002
44997018.000	9.818236e-001	4.076105e-002
45003012.000	9.818660e-001	4.073133e-002
45009006.000	9.818653e-001	4.071657e-002
45015000.000	9.818388e-001	4.073454e-002
45020994.000	9.818211e-001	4.072277e-002
45026988.000	9.818491e-001	4.064933e-002
45032982.000	9.818447e-001	4.060306e-002
45038976.000	9.818712e-001	4.059455e-002
45044970.000	9.818463e-001	4.055975e-002
45050964.000	9.818452e-001	4.052594e-002
45056958.000	9.818586e-001	4.047674e-002
45062952.000	9.818201e-001	4.048339e-002
45068946.000	9.818274e-001	4.048290e-002
45074940.000	9.818085e-001	4.041691e-002
45080934.000	9.818581e-001	4.040203e-002
45086928.000	9.818384e-001	4.037851e-002
45092922.000	9.818800e-001	4.036997e-002
45098916.000	9.818517e-001	4.031999e-002
45104910.000	9.818639e-001	4.026483e-002
45110904.000	9.818322e-001	4.025804e-002
45116898.000	9.818114e-001	4.022130e-002
45122892.000	9.817803e-001	4.022778e-002
45128886.000	9.818416e-001	4.017318e-002
45134880.000	9.818330e-001	4.013055e-002
45140874.000	9.818002e-001	4.014168e-002
45146868.000	9.818224e-001	4.010000e-002
45152862.000	9.818199e-001	4.006425e-002
45158856.000	9.818159e-001	4.002833e-002
45164850.000	9.817672e-001	4.004248e-002
45170844.000	9.818894e-001	3.999800e-002
45176838.000	9.818630e-001	3.997317e-002
45182832.000	9.818643e-001	3.993575e-002
45188826.000	9.818578e-001	3.989306e-002
45194820.000	9.818242e-001	3.985817e-002
45200814.000	9.819033e-001	3.989723e-002
45206808.000	9.818171e-001	3.976328e-002
45212802.000	9.818018e-001	3.977432e-002
45218796.000	9.818746e-001	3.978300e-002
45224790.000	9.818288e-001	3.972335e-002
45230784.000	9.818776e-001	3.971720e-002
45236778.000	9.819053e-001	3.965731e-002
45242772.000	9.818861e-001	3.965331e-002
45248766.000	9.818816e-001	3.962846e-002
45254760.000	9.818628e-001	3.960098e-002
45260754.000	9.818627e-001	3.956731e-002
45266748.000	9.818895e-001	3.952773e-002
45272742.000	9.818664e-001	3.949914e-002
45278736.000	9.818768e-001	3.949984e-002
45284730.000	9.818427e-001	3.946240e-002
45290724.000	9.818517e-001	3.942577e-002
45296718.000	9.818614e-001	3.939370e-002
45302712.000	9.818542e-001	3.937978e-002
45308706.000	9.818935e-001	3.934714e-002
45314700.000	9.818889e-001	3.935775e-002
45320694.000	9.818953e-001	3.926383e-002
45326688.000	9.818499e-001	3.924208e-002
45332682.000	9.818233e-001	3.922867e-002
45338676.000	9.818586e-001	3.922385e-002
45344670.000	9.818411e-001	3.917626e-002
45350664.000	9.818431e-001	3.912652e-002
45356658.000	9.818385e-001	3.910593e-002
45362652.000	9.818730e-001	3.910642e-002
45368646.000	9.818723e-001	3.908030e-002
45374640.000	9.818673e-001	3.902918e-002
45380634.000	9.818756e-001	3.905292e-002
45386628.000	9.818562e-001	3.896219e-002
45392622.000	9.818216e-001	3.897214e-002
45398616.000	9.818104e-001	3.893028e-002
45404610.000	9.818801e-001	3.891100e-002
45410604.000	9.818702e-001	3.885234e-002
45416598.000	9.818590e-001	3.885333e-002
45422592.000	9.818734e-001	3.881290e-002
45428586.000	9.818139e-001	3.883396e-002
45434580.000	9.818710e-001	3.879162e-002
45440574.000	9.818941e-001	3.872482e-002
45446568.000	9.818893e-001	3.870727e-002
45452562.000	9.819146e-001	3.868136e-002
45458556.000	9.818903e-001	3.865434e-002
45464550.000	9.819257e-001	3.865777e-002
45470544.000	9.818827e-001	3.861828e-002
45476538.000	9.819088e-001	3.858656e-002
45482532.000	9.818617e-001	3.854781e-002
45488526.000	9.819234e-001	3.851606e-002
45494520.000	9.818976e-001	3.850938e-002
45500514.000	9.818892e-001	3.848882e-002
45506508.000	9.819072e-001	3.843037e-002
45512502.000	9.818849e-001	3.842868e-002
45518496.000	9.819045e-001	3.838324e-002
45524490.000	9.818675e-001	3.834127e-002
45530484.000	9.818490e-001	3.832869e-002
45536478.000	9.818307e-001	3.829845e-002
45542472.000	9.818292e-001	3.828628e-002
45548466.000	9.818374e-001	3.823523e-002
45554460.000	9.818637e-001	3.820016e-002
45560454.000	9.818934e-001	3.817835e-002
45566448.000	9.819329e-001	3.817990e-002
45572442.000	9.818846e-001	3.813626e-002
45578436.000	9.818867e-001	3.808693e-002
45584430.000	9.819221e-001	3.811847e-002
45590424.000	9.819142e-001	3.806974e-002
45596418.000	9.819028e-001	3.801837e-002
45602412.000	9.819125e-001	3.802802e-002
45608406.000	9.819533e-001	3.793848e-002
45614400.000	9.818999e-001	3.796201e-002
45620394.000	9.819209e-001	3.795041e-002
45626388.000	9.819315e-001	3.792432e-002
45632382.000	9.819273e-001	3.785035e-002
45638376.000	9.819234e-001	3.786540e-002
45644370.000	9.819302e-001	3.781016e-002
45650364.000	9.818797e-001	3.777553e-002
45656358.000	9.819349e-001	3.777928e-002
45662352.000	9.819283e-001	3.774326e-002
45668346.000	9.819668e-001	3.771722e-002
45674340.000	9.819403e-001	3.768994e-002
45680334.000	9.819161e-001	3.767928e-002
45686328.000	9.819594e-001	3.765287e-002
45692322.000	9.819591e-001	3.760332e-002
45698316.000	9.819101e-001	3.758440e-002
45704310.000	9.819284e-001	3.754958e-002
45710304.000	9.819000e-001	3.751646e-002
45716298.000	9.819296e-001	3.749000e-002
45722292.000	9.818557e-001	3.743765e-002
45728286.000	9.819400e-001	3.745149e-002
45734280.000	9.819097e-001	3.742365e-002
45740274.000	9.819212e-001	3.736236e-002
45746268.000	9.819231e-001	3.736552e-002
45752262.000	9.819505e-001	3.733316e-002
45758256.000	9.819310e-001	3.732732e-002
45764250.000	9.819705e-001	3.729358e-002
45770244.000	9.819223e-001	3.729500e-002
45776238.000	9.819194e-001	3.721704e-002
45782232.000	9.818994e-001	3.719007e-002
45788226.000	9.819075e-001	3.717432e-002
45794220.000	9.819203e-001	3.712785e-002
45800214.000	9.819301e-001	3.714250e-002
45806208.000	9.819350e-001	3.709570e-002
45812202.000	9.819291e-001	3.703574e-002
45818196.000	9.819121e-001	3.701666e-002
45824190.000	9.819415e-001	3.701899e-002
45830184.000	9.819302e-001	3.702442e-002
45836178.000	9.819263e-001	3.697801e-002
45842172.000	9.819412e-001	3.692189e-002
45848166.000	9.819520e-001	3.691302e-002
45854160.000	9.819345e-001	3.687449e-002
45860154.000	9.819302e-001	3.686792e-002
45866148.000	9.819203e-001	3.679152e-002
45872142.000	9.819269e-001	3.676835e-002
45878136.000	9.819827e-001	3.674820e-002
45884130.000	9.819184e-001	3.675402e-002
45890124.000	9.819419e-001	3.672613e-002
45896118.000	9.819191e-001	3.666495e-002
45902112.000	9.819266e-001	3.663890e-002
45908106.000	9.819491e-001	3.663586e-002
45914100.000	9.819348e-001	3.659529e-002
45920094.000	9.819012e-001	3.657846e-002
45926088.000	9.819387e-001	3.657286e-002
45932082.000	9.819096e-001	3.649801e-002
45938076.000	9.819248e-001	3.645821e-002
45944070.000	9.818745e-001	3.646156e-002
45950064.000	9.818930e-001	3.641716e-002
45956058.000	9.818946e-001	3.641036e-002
45962052.000	9.819315e-001	3.638421e-002
45968046.000	9.819435e-001	3.635897e-002
45974040.000	9.818765e-001	3.632175e-002
45980034.000	9.819503e-001	3.631618e-002
45986028.000	9.819294e-001	3.628624e-002
45992022.000	9.819386e-001	3.623769e-002
45998016.000	9.819461e-001	3.622608e-002
46004010.000	9.819403e-001	3.620967e-002
46010004.000	9.819676e-001	3.616938e-002
46015998.000	9.819143e-001	3.617361e-002
46021992.000	9.819406e-001	3.612612e-002
46027986.000	9.819607e-001	3.609128e-002
46033980.000	9.819783e-001	3.603931e-002
46039974.000	9.819544e-001	3.603203e-002
46045968.000	9.819866e-001	3.602283e-002
46051962.000	9.819320e-001	3.594737e-002
46057956.000	9.819345e-001	3.594973e-002
46063950.000	9.819379e-001	3.590263e-002
46069944.000	9.819303e-001	3.588654e-002
46075938.000	9.819249e-001	3.587393e-002
46081932.000	9.819144e-001	3.585409e-002
46087926.000	9.819883e-001	3.581148e-002
46093920.000	9.819377e-001	3.578726e-002
46099914.000	9.819462e-001	3.576067e-002
46105908.000	9.819613e-001	3.574629e-002
46111902.000	9.819038e-001	3.569555e-002
46117896.000	9.819761e-001	3.568799e-002
46123890.000	9.819929e-001	3.566533e-002
46129884.000	9.819927e-001	3.563872e-002
46135878.000	9.819491e-001	3.560957e-002
46141872.000	9.819922e-001	3.559165e-002
46147866.000	9.819212e-001	3.555098e-002
46153860.000	9.819411e-001	3.550839e-002
46159854.000	9.819575e-001	3.552994e-002
46165848.000	9.819344e-001	3.548191e-002
46171842.000	9.819057e-001	3.542732e-002
46177836.000	9.819831e-001	3.543817e-002
46183830.000	9.819561e-001	3.538674e-002
46189824.000	9.819600e-001	3.535546e-002
46195818.000	9.819455e-001	3.534048e-002
46201812.000	9.820351e-001	3.532232e-002
46207806.000	9.819905e-001	3.528905e-002
46213800.000	9.819923e-001	3.526417e-002
46219794.000	9.819609e-001	3.524626e-002
46225788.000	9.819470e-001	3.519773e-002
46231782.000	9.819447e-001	3.518491e-002
46237776.000	9.819358e-001	3.515305e-002
46243770.000	9.819743e-001	3.514748e-002
46249764.000	9.819828e-001	3.513222e-002
46255758.000	9.819985e-001	3.509705e-002
46261752.000	9.819761e-001	3.507302e-002
46267746.000	9.819718e-001	3.502515e-002
46273740.000	9.819525e-001	3.498448e-002
46279734.000	9.820090e-001	3.500913e-002
46285728.000	9.819922e-001	3.497443e-002
46291722.000	9.819857e-001	3.492872e-002
46297716.000	9.819656e-001	3.485152e-002
46303710.000	9.819677e-001	3.487264e-002
46309704.000	9.819532e-001	3.481439e-002
46315698.000	9.819879e-001	3.481282e-002
46321692.000	9.819597e-001	3.480793e-002
46327686.000	9.820005e-001	3.474792e-002
46333680.000	9.820098e-001	3.473670e-002
46339674.000	9.819795e-001	3.471324e-002
46345668.000	9.820344e-001	3.470803e-002
46351662.000	9.819741e-001	3.465820e-002
46357656.000	9.820156e-001	3.463747e-002
46363650.000	9.819949e-001	3.457623e-002
46369644.000	9.819717e-001	3.455768e-002
46375638.000	9.819914e-001	3.451006e-002
46381632.000	9.819613e-001	3.453354e-002
46387626.000	9.820189e-001	3.448948e-002
46393620.000	9.819570e-001	3.443936e-002
46399614.000	9.820220e-001	3.445838e-002
46405608.000	9.820088e-001	3.441227e-002
46411602.000	9.820430e-001	3.436117e-002
46417596.000	9.819818e-001	3.433423e-002
46423590.000	9.819778e-001	3.439974e-002
46429584.000	9.820162e-001	3.433094e-002
46435578.000	9.820321e-001	3.421134e-002
46441572.000	9.820236e-001	3.427943e-002
46447566.000	9.819919e-001	3.419891e-002
46453560.000	9.819663e-001	3.419642e-002
46459554.000	9.819944e-001	3.417614e-002
46465548.000	9.819969e-001	3.414258e-002
46471542.000	9.820295e-001	3.411231e-002
46477536.000	9.820344e-001	3.411916e-002
46483530.000	9.820273e-001	3.406690e-002
46489524.000	9.820401e-001	3.404357e-002
46495518.000	9.820565e-001	3.402078e-002
46501512.000	9.820365e-001	3.396677e-002
46507506.000	9.820640e-001	3.399037e-002
46513500.000	9.820635e-001	3.393002e-002
46519494.000	9.820130e-001	3.392296e-002
46525488.000	9.820154e-001	3.386159e-002
46531482.000	9.820178e-001	3.386298e-002
46537476.000	9.820090e-001	3.382244e-002
46543470.000	9.820441e-001	3.380055e-002
46549464.000	9.819518e-001	3.374848e-002
46555458.000	9.819483e-001	3.378741e-002
46561452.000	9.819997e-001	3.371979e-002
46567446.000	9.819861e-001	3.371161e-002
46573440.000	9.820074e-001	3.368980e-002
46579434.000	9.820510e-001	3.365778e-002
46585428.000	9.820164e-001	3.361537e-002
46591422.000	9.819855e-001	3.359162e-002
46597416.000	9.820570e-001	3.357379e-002
46603410.000	9.820174e-001	3.352165e-002
46609404.000	9.820371e-001	3.346766e-002
46615398.000	9.820224e-001	3.342297e-002
46621392.000	9.820152e-001	3.344562e-002
46627386.000	9.820126e-001	3.337984e-002
46633380.000	9.819734e-001	3.341117e-002
46639374.000	9.819872e-001	3.331455e-002
46645368.000	9.819945e-001	3.334985e-002
46651362.000	9.819993e-001	3.327638e-002
46657356.000	9.819965e-001	3.328903e-002
46663350.000	9.819838e-001	3.325559e-002
46669344.000	9.820064e-001	3.322077e-002
46675338.000	9.820419e-001	3.322926e-002
46681332.000	9.820626e-001	3.322126e-002
46687326.000	9.820253e-001	3.316351e-002
46693320.000	9.819815e-001	3.314016e-002
46699314.000	9.820192e-001	3.311909e-002
46705308.000	9.819937e-001	3.305290e-002
46711302.000	9.820282e-001	3.304288e-002
46717296.000	9.820875e-001	3.300897e-002
46723290.000	9.820357e-001	3.297228e-002
46729284.000	9.820255e-001	3.296442e-002
46735278.000	9.820264e-001	3.296289e-002
46741272.000	9.820267e-001	3.291749e-002
46747266.000	9.820396e-001	3.286367e-002
46753260.000	9.820231e-001	3.284423e-002
46759254.000	9.820194e-001	3.279165e-002
46765248.000	9.819794e-001	3.277247e-002
46771242.000	9.820420e-001	3.276783e-002
46777236.000	9.820456e-001	3.276623e-002
46783230.000	9.820326e-001	3.270823e-002
46789224.000	9.820543e-001	3.268303e-002
46795218.000	9.820178e-001	3.266992e-002
46801212.000	9.819775e-001	3.264222e-002
46807206.000	9.819855e-001	3.261837e-002
46813200.000	9.820466e-001	3.257909e-002
46819194.000	9.820278e-001	3.257974e-002
46825188.000	9.820242e-001	3.250226e-002
46831182.000	9.820316e-001	3.248171e-002
46837176.000	9.820539e-001	3.247660e-002
46843170.000	9.820293e-001	3.250529e-002
46849164.000	9.820235e-001	3.242581e-002
46855158.000	9.820494e-001	3.240680e-002
46861152.000	9.820468e-001	3.241446e-002
46867146.000	9.820526e-001	3.238421e-002
46873140.000	9.820063e-001	3.232388e-002
46879134.000	9.820801e-001	3.232074e-002
46885128.000	9.820533e-001	3.227425e-002
46891122.000	9.820644e-001	3.221806e-002
46897116.000	9.820339e-001	3.218980e-002
46903110.000	9.820663e-001	3.220367e-002
46909104.000	9.820382e-001	3.217987e-002
46915098.000	9.820402e-001	3.215193e-002
46921092.000	9.820186e-001	3.210786e-002
46927086.000	9.820195e-001	3.214507e-002
46933080.000	9.820207e-001	3.203753e-002
46939074.000	9.820144e-001	3.203105e-002
46945068.000	9.820287e-001	3.203291e-002
46951062.000	9.820233e-001	3.201074e-002
46957056.000	9.820543e-001	3.196094e-002
46963050.000	9.820513e-001	3.194914e-002
46969044.000	9.820100e-001	3.188848e-002
46975038.000	9.820475e-001	3.189060e-002
46981032.000	9.820413e-001	3.183709e-002
46987026.000	9.820329e-001	3.183548e-002
46993020.000	9.820158e-001	3.178202e-002
46999014.000	9.820475e-001	3.177243e-002
47005008.000	9.820533e-001	3.171264e-002
47011002.000	9.820306e-001	3.168994e-002
47016996.000	9.820491e-001	3.169259e-002
47022990.000	9.820617e-001	3.169047e-002
47028984.000	9.820336e-001	3.162941e-002
47034978.000	9.820589e-001	3.164530e-002
47040972.000	9.820214e-001	3.159332e-002
47046966.000	9.820485e-001	3.153507e-002
47052960.000	9.820203e-001	3.150827e-002
47058954.000	9.820456e-001	3.154053e-002
47064948.000	9.820383e-001	3.147934e-002
47070942.000	9.820223e-001	3.148739e-002
47076936.000	9.820673e-001	3.145474e-002
47082930.000	9.820358e-001	3.139508e-002
47088924.000	9.820837e-001	3.142107e-002
47094918.000	9.820771e-001	3.138611e-002
47100912.000	9.820884e-001	3.134285e-002
47106906.000	9.820696e-001	3.129705e-002
47112900.000	9.821173e-001	3.128262e-002
47118894.000	9.820637e-001	3.128336e-002
47124888.000	9.820610e-001	3.124840e-002
47130882.000	9.820602e-001	3.122549e-002
47136876.000	9.820921e-001	3.118135e-002
47142870.000	9.820671e-001	3.112426e-002
47148864.000	9.821265e-001	3.113292e-002
47154858.000	9.820997e-001	3.109620e-002
47160852.000	9.820828e-001	3.103834e-002
47166846.000	9.820585e-001	3.107318e-002
47172840.000	9.821212e-001	3.100005e-002
47178834.000	9.820765e-001	3.095214e-002
47184828.000	9.820861e-001	3.095886e-002
47190822.000	9.820796e-001	3.092118e-002
47196816.000	9.820930e-001	3.092062e-002
47202810.000	9.821133e-001	3.087761e-002
47208804.000	9.821129e-001	3.085217e-002
47214798.000	9.820757e-001	3.082935e-002
47220792.000	9.820747e-001	3.081629e-002
47226786.000	9.821287e-001	3.077845e-002
47232780.000	9.820849e-001	3.077252e-002
47238774.000	9.821163e-001	3.073595e-002
47244768.000	9.820941e-001	3.075320e-002
47250762.000	9.820701e-001	3.069547e-002
47256756.000	9.820922e-001	3.067990e-002
47262750.000	9.821290e-001	3.060062e-002
47268744.000	9.820831e-001	3.060360e-002
47274738.000	9.821014e-001	3.058796e-002
47280732.000	9.820797e-001	3.055341e-002
47286726.000	9.820662e-001	3.052026e-002
47292720.000	9.821181e-001	3.045979e-002
47298714.000	9.821304e-001	3.046803e-002
47304708.000	9.821175e-001	3.046954e-002
47310702.000	9.820973e-001	3.044191e-002
47316696.000	9.820802e-001	3.036972e-002
47322690.000	9.821203e-001	3.037408e-002
47328684.000	9.820906e-001	3.033967e-002
47334678.000	9.820928e-001	3.030198e-002
47340672.000	9.821171e-001	3.029020e-002
47346666.000	9.820807e-001	3.026171e-002
47352660.000	9.821142e-001	3.021402e-002
47358654.000	9.821101e-001	3.021329e-002
47364648.000	9.820970e-001	3.016800e-002
47370642.000	9.820997e-001	3.013905e-002
47376636.000	9.820919e-001	3.012954e-002
47382630.000	9.820490e-001	3.010800e-002
47388624.000	9.821056e-001	3.009841e-002
47394618.000	9.821088e-001	3.001928e-002
47400612.000	9.821011e-001	3.006605e-002
47406606.000	9.820864e-001	3.002738e-002
47412600.000	9.820756e-001	2.998153e-002
47418594.000	9.820649e-001	2.992748e-002
47424588.000	9.820854e-001	2.990244e-002
47430582.000	9.820794e-001	2.985153e-002
47436576.000	9.820196e-001	2.986335e-002
47442570.000	9.820556e-001	2.984497e-002
47448564.000	9.820429e-001	2.981354e-002
47454558.000	9.820402e-001	2.975689e-002
47460552.000	9.820296e-001	2.973726e-002
47466546.000	9.820829e-001	2.968364e-002
47472540.000	9.820468e-001	2.970119e-002
47478534.000	9.820309e-001	2.965987e-002
47484528.000	9.820412e-001	2.963256e-002
47490522.000	9.820385e-001	2.962183e-002
47496516.000	9.820508e-001	2.961240e-002
47502510.000	9.820373e-001	2.954389e-002
47508504.000	9.820417e-001	2.951032e-002
47514498.000	9.820658e-001	2.949582e-002
47520492.000	9.820535e-001	2.951228e-002
47526486.000	9.820655e-001	2.948293e-002
47532480.000	9.820687e-001	2.942368e-002
47538474.000	9.820301e-001	2.941626e-002
47544468.000	9.821118e-001	2.936839e-002
47550462.000	9.820675e-001	2.934744e-002
47556456.000	9.820443e-001	2.933243e-002
47562450.000	9.820797e-001	2.928378e-002
47568444.000	9.820567e-001	2.928279e-002
47574438.000	9.820792e-001	2.926055e-002
47580432.000	9.821198e-001	2.920814e-002
47586426.000	9.820421e-001	2.920790e-002
47592420.000	9.820501e-001	2.918591e-002
47598414.000	9.821183e-001	2.914438e-002
47604408.000	9.820839e-001	2.913861e-002
47610402.000	9.820587e-001	2.910279e-002
47616396.000	9.820936e-001	2.908111e-002
47622390.000	9.820885e-001	2.904079e-002
47628384.000	9.820782e-001	2.900916e-002
47634378.000	9.821045e-001	2.899761e-002
47640372.000	9.820793e-001	2.891609e-002
47646366.000	9.820728e-001	2.894123e-002
47652360.000	9.820536e-001	2.888630e-002
47658354.000	9.820951e-001	2.888952e-002
47664348.000	9.821177e-001	2.885626e-002
47670342.000	9.821056e-001	2.884398e-002
47676336.000	9.821286e-001	2.880975e-002
47682330.000	9.820658e-001	2.878316e-002
47688324.000	9.820475e-001	2.878254e-002
47694318.000	9.820605e-001	2.873233e-002
47700312.000	9.820707e-001	2.871886e-002
47706306.000	9.821174e-001	2.868023e-002
47712300.000	9.820525e-001	2.866588e-002
47718294.000	9.820590e-001	2.865318e-002
47724288.000	9.820752e-001	2.861657e-002
47730282.000	9.820906e-001	2.858562e-002
47736276.000	9.820591e-001	2.859941e-002
47742270.000	9.821273e-001	2.851994e-002
47748264.000	9.820645e-001	2.849495e-002
47754258.000	9.820910e-001	2.849569e-002
47760252.000	9.820922e-001	2.848711e-002
47766246.000	9.820771e-001	2.839164e-002
47772240.000	9.820793e-001	2.843042e-002
47778234.000	9.820901e-001	2.838108e-002
47784228.000	9.820603e-001	2.834102e-002
47790222.000	9.820979e-001	2.831228e-002
47796216.000	9.821209e-001	2.830725e-002
47802210.000	9.820469e-001	2.828682e-002
47808204.000	9.820636e-001	2.826076e-002
47814198.000	9.820569e-001	2.823013e-002
47820192.000	9.820480e-001	2.819744e-002
47826186.000	9.820637e-001	2.816154e-002
47832180.000	9.820473e-001	2.813048e-002
47838174.000	9.820452e-001	2.813046e-002
47844168.000	9.820943e-001	2.808430e-002
47850162.000	9.821507e-001	2.807370e-002
47856156.000	9.820679e-001	2.808887e-002
47862150.000	9.821025e-001	2.804089e-002
47868144.000	9.820779e-001	2.801011e-002
47874138.000	9.820409e-001	2.795548e-002
47880132.000	9.820661e-001	2.793617e-002
47886126.000	9.820522e-001	2.791811e-002
47892120.000	9.821080e-001	2.790803e-002
47898114.000	9.820663e-001	2.787618e-002
47904108.000	9.820783e-001	2.782196e-002
47910102.000	9.820644e-001	2.778395e-002
47916096.000	9.820428e-001	2.779280e-002
47922090.000	9.820956e-001	2.775307e-002
47928084.000	9.821406e-001	2.773679e-002
47934078.000	9.820947e-001	2.769928e-002
47940072.000	9.821181e-001	2.769014e-002
47946066.000	9.821268e-001	2.767154e-002
47952060.000	9.821013e-001	2.764913e-002
47958054.000	9.821405e-001	2.764078e-002
47964048.000	9.821246e-001	2.757258e-002
47970042.000	9.821131e-001	2.754037e-002
47976036.000	9.821091e-001	2.755512e-002
47982030.000	9.821551e-001	2.751678e-002
47988024.000	9.821230e-001	2.747515e-002
47994018.000	9.821061e-001	2.744854e-002
48000012.000	9.821022e-001	2.742776e-002
48006006.000	9.820683e-001	2.738863e-002
48012000.000	9.820932e-001	2.735544e-002
48017994.000	9.821052e-001	2.737147e-002
48023988.000	9.820691e-001	2.730446e-002
48029982.000	9.820964e-001	2.731027e-002
48035976.000	9.821459e-001	2.726576e-002
48041970.000	9.821668e-001	2.723935e-002
48047964.000	9.821234e-001	2.722578e-002
48053958.000	9.821033e-001	2.717873e-002
48059952.000	9.820863e-001	2.717706e-002
48065946.000	9.820422e-001	2.711933e-002
48071940.000	9.820860e-001	2.708816e-002
48077934.000	9.821001e-001	2.711150e-002
48083928.000	9.820607e-001	2.702725e-002
48089922.000	9.820610e-001	2.699572e-002
48095916.000	9.820440e-001	2.700289e-002
48101910.000	9.820502e-001	2.696816e-002
48107904.000	9.820757e-001	2.691780e-002
48113898.000	9.820944e-001	2.691965e-002
48119892.000	9.820654e-001	2.689729e-002
48125886.000	9.820962e-001	2.686849e-002
48131880.000	9.820860e-001	2.686099e-002
48137874.000	9.820960e-001	2.684190e-002
48143868.000	9.821522e-001	2.681884e-002
48149862.000	9.821214e-001	2.675738e-002
48155856.000	9.821298e-001	2.675843e-002
48161850.000	9.821091e-001	2.671471e-002
48167844.000	9.820792e-001	2.667330e-002
48173838.000	9.821184e-001	2.667821e-002
48179832.000	9.820772e-001	2.666002e-002
48185826.000	9.820914e-001	2.661358e-002
48191820.000	9.820373e-001	2.659352e-002
48197814.000	9.820130e-001	2.655593e-002
48203808.000	9.820669e-001	2.651281e-002
48209802.000	9.820429e-001	2.651581e-002
48215796.000	9.821018e-001	2.650017e-002
48221790.000	9.820920e-001	2.645072e-002
48227784.000	9.820781e-001	2.644476e-002
48233778.000	9.820428e-001	2.640177e-002
48239772.000	9.820684e-001	2.637662e-002
48245766.000	9.820891e-001	2.636534e-002
48251760.000	9.820958e-001	2.632277e-002
48257754.000	9.820794e-001	2.631196e-002
48263748.000	9.820758e-001	2.628541e-002
48269742.000	9.820707e-001	2.625638e-002
48275736.000	9.820889e-001	2.622957e-002
48281730.000	9.820204e-001	2.621721e-002
48287724.000	9.820899e-001	2.619245e-002
48293718.000	9.820933e-001	2.613657e-002
48299712.000	9.821255e-001	2.613987e-002
48305706.000	9.821176e-001	2.609812e-002
48311700.000	9.821094e-001	2.607335e-002
48317694.000	9.820823e-001	2.605511e-002
48323688.000	9.820583e-001	2.601335e-002
48329682.000	9.820752e-001	2.599200e-002
48335676.000	9.820383e-001	2.596494e-002
48341670.000	9.820347e-001	2.597034e-002
48347664.000	9.820715e-001	2.592868e-002
48353658.000	9.820404e-001	2.592170e-002
48359652.000	9.820642e-001	2.584532e-002
48365646.000	9.821113e-001	2.586405e-002
48371640.000	9.821532e-001	2.583502e-002
48377634.000	9.820981e-001	2.580756e-002
48383628.000	9.821169e-001	2.574674e-002
48389622.000	9.821352e-001	2.575075e-002
48395616.000	9.820635e-001	2.572755e-002
48401610.000	9.821054e-001	2.569155e-002
48407604.000	9.821178e-001	2.567467e-002
48413598.000	9.820966e-001	2.566343e-002
48419592.000	9.820570e-001	2.564695e-002
48425586.000	9.821538e-001	2.558559e-002
48431580.000	9.821531e-001	2.561376e-002
48437574.000	9.821080e-001	2.555332e-002
48443568.000	9.821090e-001	2.551407e-002
48449562.000	9.821229e-001	2.549400e-002
48455556.000	9.821540e-001	2.548972e-002
48461550.000	9.821158e-001	2.545888e-002
48467544.000	9.821148e-001	2.542049e-002
48473538.000	9.821498e-001	2.542464e-002
48479532.000	9.821387e-001	2.537705e-002
48485526.000	9.821660e-001	2.536430e-002
48491520.000	9.821525e-001	2.536061e-002
48497514.000	9.821644e-001	2.532712e-002
48503508.000	9.821755e-001	2.530111e-002
48509502.000	9.821482e-001	2.526550e-002
48515496.000	9.821112e-001	2.520973e-002
48521490.000	9.821162e-001	2.518692e-002
48527484.000	9.821098e-001	2.515953e-002
48533478.000	9.821081e-001	2.514191e-002
48539472.000	9.820705e-001	2.513116e-002
48545466.000	9.820941e-001	2.509030e-002
48551460.000	9.821425e-001	2.504865e-002
48557454.000	9.820689e-001	2.503654e-002
48563448.000	9.821061e-001	2.498573e-002
48569442.000	9.820985e-001	2.497458e-002
48575436.000	9.821083e-001	2.496097e-002
48581430.000	9.821377e-001	2.489219e-002
48587424.000	9.821135e-001	2.493666e-002
48593418.000	9.821759e-001	2.487344e-002
48599412.000	9.821455e-001	2.485696e-002
48605406.000	9.821547e-001	2.485556e-002
48611400.000	9.821642e-001	2.486648e-002
48617394.000	9.821753e-001	2.480078e-002
48623388.000	9.821795e-001	2.475334e-002
48629382.000	9.821222e-001	2.470562e-002
48635376.000	9.821883e-001	2.469792e-002
48641370.000	9.821227e-001	2.468801e-002
48647364.000	9.821674e-001	2.468368e-002
48653358.000	9.821610e-001	2.464834e-002
48659352.000	9.822306e-001	2.462428e-002
48665346.000	9.821401e-001	2.459349e-002
48671340.000	9.821129e-001	2.455378e-002
48677334.000	9.821087e-001	2.451810e-002
48683328.000	9.821360e-001	2.450891e-002
48689322.000	9.821737e-001	2.447626e-002
48695316.000	9.821876e-001	2.445066e-002
48701310.000	9.821386e-001	2.440871e-002
48707304.000	9.821734e-001	2.441734e-002
48713298.000	9.821727e-001	2.439555e-002
48719292.000	9.821518e-001	2.433112e-002
48725286.000	9.821430e-001	2.431919e-002
48731280.000	9.821678e-001	2.431901e-002
48737274.000	9.821795e-001	2.430205e-002
48743268.000	9.821879e-001	2.426495e-002
48749262.000	9.821833e-001	2.421891e-002
48755256.000	9.821605e-001	2.419689e-002
48761250.000	9.821949e-001	2.417280e-002
48767244.000	9.821335e-001	2.414621e-002
48773238.000	9.821832e-001	2.411526e-002
48779232.000	9.821442e-001	2.406078e-002
48785226.000	9.821789e-001	2.409970e-002
48791220.000	9.821744e-001	2.404530e-002
48797214.000	9.821943e-001	2.403369e-002
48803208.000	9.821700e-001	2.394730e-002
48809202.000	9.821879e-001	2.398352e-002
48815196.000	9.821923e-001	2.393985e-002
48821190.000	9.822008e-001	2.393221e-002
48827184.000	9.821722e-001	2.386766e-002
48833178.000	9.821189e-001	2.387821e-002
48839172.000	9.821008e-001	2.384088e-002
48845166.000	9.821599e-001	2.381246e-002
48851160.000	9.821817e-001	2.382450e-002
48857154.000	9.821626e-001	2.375257e-002
48863148.000	9.821741e-001	2.371748e-002
48869142.000	9.821675e-001	2.372692e-002
48875136.000	9.821855e-001	2.370416e-002
48881130.000	9.821537e-001	2.369290e-002
48887124.000	9.821721e-001	2.365748e-002
48893118.000	9.821819e-001	2.362865e-002
48899112.000	9.822199e-001	2.358684e-002
48905106.000	9.821707e-001	2.357801e-002
48911100.000	9.821510e-001	2.350733e-002
48917094.000	9.821680e-001	2.351444e-002
48923088.000	9.821477e-001	2.351122e-002
48929082.000	9.822151e-001	2.343413e-002
48935076.000	9.821693e-001	2.343683e-002
48941070.000	9.821561e-001	2.340360e-002
48947064.000	9.821773e-001	2.337382e-002
48953058.000	9.822143e-001	2.335030e-002
48959052.000	9.821896e-001	2.332021e-002
48965046.000	9.822325e-001	2.328061e-002
48971040.000	9.821683e-001	2.329635e-002
48977034.000	9.822044e-001	2.330693e-002
48983028.000	9.821817e-001	2.320467e-002
48989022.000	9.821976e-001	2.318199e-002
48995016.000	9.821645e-001	2.316860e-002
49001010.000	9.824519e-001	2.323259e-002
49007004.000	9.822043e-001	2.314130e-002
49012998.000	9.821877e-001	2.314539e-002
49018992.000	9.821820e-001	2.307877e-002
49024986.000	9.821583e-001	2.309226e-002
49030980.000	9.821924e-001	2.305855e-002
49036974.000	9.822073e-001	2.302366e-002
49042968.000	9.821822e-001	2.300542e-002
49048962.000	9.822273e-001	2.296893e-002
49054956.000	9.822001e-001	2.298168e-002
49060950.000	9.822340e-001	2.296164e-002
49066944.000	9.822397e-001	2.289326e-002
49072938.000	9.822387e-001	2.291335e-002
49078932.000	9.822370e-001	2.285369e-002
49084926.000	9.821936e-001	2.283788e-002
49090920.000	9.821492e-001	2.277843e-002
49096914.000	9.821623e-001	2.275520e-002
49102908.000	9.822002e-001	2.272532e-002
49108902.000	9.821722e-001	2.271586e-002
49114896.000	9.822293e-001	2.269144e-002
49120890.000	9.822406e-001	2.271049e-002
49126884.000	9.821936e-001	2.266356e-002
49132878.000	9.821776e-001	2.263863e-002
49138872.000	9.822221e-001	2.260720e-002
49144866.000	9.822011e-001	2.261760e-002
49150860.000	9.821849e-001	2.251567e-002
49156854.000	9.822324e-001	2.251637e-002
49162848.000	9.821813e-001	2.247091e-002
49168842.000	9.821773e-001	2.247261e-002
49174836.000	9.821421e-001	2.242185e-002
49180830.000	9.821290e-001	2.241793e-002
49186824.000	9.821681e-001	2.243456e-002
49192818.000	9.821995e-001	2.236527e-002
49198812.000	9.821758e-001	2.231712e-002
49204806.000	9.821814e-001	2.233903e-002
49210800.000	9.822076e-001	2.228029e-002
49216794.000	9.822010e-001	2.231130e-002
49222788.000	9.821824e-001	2.222227e-002
49228782.000	9.821474e-001	2.223865e-002
49234776.000	9.821709e-001	2.218851e-002
49240770.000	9.822190e-001	2.215058e-002
49246764.000	9.821947e-001	2.213766e-002
49252758.000	9.822125e-001	2.213241e-002
49258752.000	9.822160e-001	2.209279e-002
49264746.000	9.821990e-001	2.208959e-002
49270740.000	9.822165e-001	2.204545e-002
49276734.000	9.822057e-001	2.203033e-002
49282728.000	9.821767e-001	2.198673e-002
49288722.000	9.821669e-001	2.197292e-002
49294716.000	9.821765e-001	2.194712e-002
49300710.000	9.821892e-001	2.192250e-002
49306704.000	9.821696e-001	2.189497e-002
49312698.000	9.822251e-001	2.185498e-002
49318692.000	9.821863e-001	2.186263e-002
49324686.000	9.822347e-001	2.182375e-002
49330680.000	9.822218e-001	2.180137e-002
49336674.000	9.821935e-001	2.175911e-002
49342668.000	9.822387e-001	2.176110e-002
49348662.000	9.821970e-001	2.172993e-002
49354656.000	9.822356e-001	2.167805e-002
49360650.000	9.821149e-001	2.168053e-002
49366644.000	9.822056e-001	2.163668e-002
49372638.000	9.822008e-001	2.161550e-002
49378632.000	9.822046e-001	2.159916e-002
49384626.000	9.821623e-001	2.156973e-002
49390620.000	9.821765e-001	2.155020e-002
49396614.000	9.821734e-001	2.148868e-002
49402608.000	9.822038e-001	2.151997e-002
49408602.000	9.822184e-001	2.148589e-002
49414596.000	9.822022e-001	2.143361e-002
49420590.000	9.821546e-001	2.139798e-002
49426584.000	9.822275e-001	2.140459e-002
49432578.000	9.821864e-001	2.138207e-002
49438572.000	9.821664e-001	2.134882e-002
49444566.000	9.821833e-001	2.134717e-002
49450560.000	9.822027e-001	2.131608e-002
49456554.000	9.821538e-001	2.129037e-002
49462548.000	9.822370e-001	2.124298e-002
49468542.000	9.822109e-001	2.120472e-002
49474536.000	9.822222e-001	2.121625e-002
49480530.000	9.821870e-001	2.119606e-002
49486524.000	9.821790e-001	2.113437e-002
49492518.000	9.821961e-001	2.111794e-002
49498512.000	9.821529e-001	2.107814e-002
49504506.000	9.821941e-001	2.105655e-002
49510500.000	9.821871e-001	2.106884e-002
49516494.000	9.821419e-001	2.097063e-002
49522488.000	9.821897e-001	2.101520e-002
49528482.000	9.821798e-001	2.096884e-002
49534476.000	9.821809e-001	2.096483e-002
49540470.000	9.822127e-001	2.091884e-002
49546464.000	9.822529e-001	2.089059e-002
49552458.000	9.822223e-001	2.085890e-002
49558452.000	9.821972e-001	2.084395e-002
49564446.000	9.822364e-001	2.081249e-002
49570440.000	9.821733e-001	2.080032e-002
49576434.000	9.821945e-001	2.077366e-002
49582428.000	9.822200e-001	2.072344e-002
49588422.000	9.821788e-001	2.071659e-002
49594416.000	9.821648e-001	2.067373e-002
49600410.000	9.821554e-001	2.064594e-002
49606404.000	9.821900e-001	2.062098e-002
49612398.000	9.821573e-001	2.061291e-002
49618392.000	9.821578e-001	2.058390e-002
49624386.000	9.821791e-001	2.059873e-002
49630380.000	9.821804e-001	2.054134e-002
49636374.000	9.821617e-001	2.051944e-002
49642368.000	9.821800e-001	2.048399e-002
49648362.000	9.822050e-001	2.045304e-002
49654356.000	9.822165e-001	2.044194e-002
49660350.000	9.822073e-001	2.043227e-002
49666344.000	9.821823e-001	2.038309e-002
49672338.000	9.821381e-001	2.035815e-002
49678332.000	9.821457e-001	2.029633e-002
49684326.000	9.821566e-001	2.029586e-002
49690320.000	9.822031e-001	2.028815e-002
49696314.000	9.822237e-001	2.028371e-002
49702308.000	9.821893e-001	2.022551e-002
49708302.000	9.822143e-001	2.025052e-002
49714296.000	9.822281e-001	2.017494e-002
49720290.000	9.821836e-001	2.014716e-002
49726284.000	9.821723e-001	2.014029e-002
49732278.000	9.822167e-001	2.012147e-002
49738272.000	9.822049e-001	2.006286e-002
49744266.000	9.821881e-001	2.006548e-002
49750260.000	9.821735e-001	2.001944e-002
49756254.000	9.821841e-001	2.003886e-002
49762248.000	9.822201e-001	1.999942e-002
49768242.000	9.821754e-001	1.996344e-002
49774236.000	9.822014e-001	1.995091e-002
49780230.000	9.821839e-001	1.992008e-002
49786224.000	9.822114e-001	1.985401e-002
49792218.000	9.821897e-001	1.982120e-002
49798212.000	9.821791e-001	1.982136e-002
49804206.000	9.821856e-001	1.982726e-002
49810200.000	9.821602e-001	1.976222e-002
49816194.000	9.821492e-001	1.975280e-002
49822188.000	9.821310e-001	1.971928e-002
49828182.000	9.821994e-001	1.972706e-002
49834176.000	9.822232e-001	1.969537e-002
49840170.000	9.822285e-001	1.967237e-002
49846164.000	9.821521e-001	1.963155e-002
49852158.000	9.821558e-001	1.960379e-002
49858152.000	9.821401e-001	1.960097e-002
49864146.000	9.821633e-001	1.956012e-002
49870140.000	9.821885e-001	1.954794e-002
49876134.000	9.821568e-001	1.950626e-002
49882128.000	9.821709e-001	1.947103e-002
49888122.000	9.821856e-001	1.946213e-002
49894116.000	9.822400e-001	1.946449e-002
49900110.000	9.822213e-001	1.942559e-002
49906104.000	9.821975e-001	1.938441e-002
49912098.000	9.822054e-001	1.937430e-002
49918092.000	9.821655e-001	1.934362e-002
49924086.000	9.821943e-001	1.930674e-002
49930080.000	9.821523e-001	1.929663e-002
49936074.000	9.821958e-001	1.926220e-002
49942068.000	9.822241e-001	1.923402e-002
49948062.000	9.821803e-001	1.923108e-002
49954056.000	9.821810e-001	1.916617e-002
49960050.000	9.822206e-001	1.920412e-002
49966044.000	9.822155e-001	1.917445e-002
49972038.000	9.821945e-001	1.911717e-002
49978032.000	9.821862e-001	1.908133e-002
49984026.000	9.822222e-001	1.908749e-002
49990020.000	9.822457e-001	1.906719e-002
49996014.000	9.822655e-001	1.903811e-002
50002008.000	9.822753e-001	1.900380e-002
50008002.000	9.821804e-001	1.897145e-002
50013996.000	9.822091e-001	1.892707e-002
50019990.000	9.822174e-001	1.893256e-002
50025984.000	9.822402e-001	1.891755e-002
50031978.000	9.821927e-001	1.884422e-002
50037972.000	9.822184e-001	1.881733e-002
50043966.000	9.822508e-001	1.881341e-002
50049960.000	9.821633e-001	1.875258e-002
50055954.000	9.821518e-001	1.874015e-002
50061948.000	9.821904e-001	1.872542e-002
50067942.000	9.821870e-001	1.870334e-002
50073936.000	9.822188e-001	1.869455e-002
50079930.000	9.821951e-001	1.867765e-002
50085924.000	9.822666e-001	1.865954e-002
50091918.000	9.822685e-001	1.864920e-002
50097912.000	9.822058e-001	1.862331e-002
50103906.000	9.822257e-001	1.857460e-002
50109900.000	9.822482e-001	1.856921e-002
50115894.000	9.822425e-001	1.853892e-002
50121888.000	9.822550e-001	1.851282e-002
50127882.000	9.822069e-001	1.844891e-002
50133876.000	9.822201e-001	1.848270e-002
50139870.000	9.822556e-001	1.842627e-002
50145864.000	9.822294e-001	1.845374e-002
50151858.000	9.822466e-001	1.840829e-002
50157852.000	9.822525e-001	1.835565e-002
50163846.000	9.822662e-001	1.834812e-002
50169840.000	9.822179e-001	1.829791e-002
50175834.000	9.822359e-001	1.829193e-002
50181828.000	9.822075e-001	1.823810e-002
50187822.000	9.822118e-001	1.825556e-002
50193816.000	9.822518e-001	1.822616e-002
50199810.000	9.821914e-001	1.817010e-002
50205804.000	9.822061e-001	1.813681e-002
50211798.000	9.822048e-001	1.816473e-002
50217792.000	9.822192e-001	1.809460e-002
50223786.000	9.822341e-001	1.806756e-002
50229780.000	9.822371e-001	1.807721e-002
50235774.000	9.822196e-001	1.804399e-002
50241768.000	9.822146e-001	1.799667e-002
50247762.000	9.822458e-001	1.798096e-002
50253756.000	9.822230e-001	1.796926e-002
50259750.000	9.822266e-001	1.794277e-002
50265744.000	9.822090e-001	1.791198e-002
50271738.000	9.822175e-001	1.790160e-002
50277732.000	9.822369e-001	1.789391e-002
50283726.000	9.821799e-001	1.783880e-002
50289720.000	9.821974e-001	1.780480e-002
50295714.000	9.822163e-001	1.780186e-002
50301708.000	9.822076e-001	1.775132e-002
50307702.000	9.822047e-001	1.772242e-002
50313696.000	9.821871e-001	1.769661e-002
50319690.000	9.821415e-001	1.768179e-002
50325684.000	9.821880e-001	1.766848e-002
50331678.000	9.821573e-001	1.763595e-002
50337672.000	9.821501e-001	1.762512e-002
50343666.000	9.821824e-001	1.757676e-002
50349660.000	9.821855e-001	1.753970e-002
50355654.000	9.821765e-001	1.755897e-002
50361648.000	9.821435e-001	1.753860e-002
50367642.000	9.821338e-001	1.749833e-002
50373636.000	9.821947e-001	1.748867e-002
50379630.000	9.822081e-001	1.744899e-002
50385624.000	9.822766e-001	1.739689e-002
50391618.000	9.821897e-001	1.742021e-002
50397612.000	9.822272e-001	1.736866e-002
50403606.000	9.821894e-001	1.733318e-002
50409600.000	9.822010e-001	1.736025e-002
50415594.000	9.822096e-001	1.727359e-002
50421588.000	9.822474e-001	1.727627e-002
50427582.000	9.822026e-001	1.724334e-002
50433576.000	9.822476e-001	1.725346e-002
50439570.000	9.821911e-001	1.720790e-002
50445564.000	9.822175e-001	1.715357e-002
50451558.000	9.822461e-001	1.719233e-002
50457552.000	9.822007e-001	1.710425e-002
50463546.000	9.821750e-001	1.705570e-002
50469540.000	9.822066e-001	1.708898e-002
50475534.000	9.821973e-001	1.703934e-002
50481528.000	9.822053e-001	1.701423e-002
50487522.000	9.821615e-001	1.698684e-002
50493516.000	9.821879e-001	1.697906e-002
50499510.000	9.822336e-001	1.693062e-002
50505504.000	9.821868e-001	1.692605e-002
50511498.000	9.821510e-001	1.686049e-002
50517492.000	9.821936e-001	1.688733e-002
50523486.000	9.822348e-001	1.686608e-002
50529480.000	9.822317e-001	1.682453e-002
50535474.000	9.822014e-001	1.682620e-002
50541468.000	9.822293e-001	1.680268e-002
50547462.000	9.822426e-001	1.677457e-002
50553456.000	9.822268e-001	1.674314e-002
50559450.000	9.822424e-001	1.673757e-002
50565444.000	9.822264e-001	1.669087e-002
50571438.000	9.822107e-001	1.665988e-002
50577432.000	9.821835e-001	1.661640e-002
50583426.000	9.821705e-001	1.657530e-002
50589420.000	9.821543e-001	1.660442e-002
50595414.000	9.821882e-001	1.653007e-002
50601408.000	9.822261e-001	1.655501e-002
50607402.000	9.822061e-001	1.652418e-002
50613396.000	9.822380e-001	1.647883e-002
50619390.000	9.822434e-001	1.649749e-002
50625384.000	9.822640e-001	1.647152e-002
50631378.000	9.822337e-001	1.642264e-002
50637372.000	9.822355e-001	1.643186e-002
50643366.000	9.822128e-001	1.637041e-002
50649360.000	9.822319e-001	1.634708e-002
50655354.000	9.822768e-001	1.634660e-002
50661348.000	9.822056e-001	1.628858e-002
50667342.000	9.821820e-001	1.626637e-002
50673336.000	9.822022e-001	1.624306e-002
50679330.000	9.822428e-001	1.621692e-002
50685324.000	9.822155e-001	1.619852e-002
50691318.000	9.822099e-001	1.616885e-002
50697312.000	9.822125e-001	1.615363e-002
50703306.000	9.822309e-001	1.611595e-002
50709300.000	9.822472e-001	1.608422e-002
50715294.000	9.822803e-001	1.608115e-002
50721288.000	9.822439e-001	1.605735e-002
50727282.000	9.822565e-001	1.603203e-002
50733276.000	9.822212e-001	1.597111e-002
50739270.000	9.822056e-001	1.596931e-002
50745264.000	9.822251e-001	1.593796e-002
50751258.000	9.822513e-001	1.591339e-002
50757252.000	9.822263e-001	1.591288e-002
50763246.000	9.821808e-001	1.588534e-002
50769240.000	9.822103e-001	1.584528e-002
50775234.000	9.822222e-001	1.583480e-002
50781228.000	9.822326e-001	1.581745e-002
50787222.000	9.822585e-001	1.579169e-002
50793216.000	9.822317e-001	1.577416e-002
50799210.000	9.822777e-001	1.574707e-002
50805204.000	9.822245e-001	1.571122e-002
50811198.000	9.822284e-001	1.570823e-002
50817192.000	9.822192e-001	1.567841e-002
50823186.000	9.822166e-001	1.563206e-002
50829180.000	9.822397e-001	1.560884e-002
50835174.000	9.822174e-001	1.559635e-002
50841168.000	9.821732e-001	1.555698e-002
50847162.000	9.822170e-001	1.554115e-002
50853156.000	9.822048e-001	1.551675e-002
50859150.000	9.821786e-001	1.549672e-002
50865144.000	9.822268e-001	1.550717e-002
50871138.000	9.822328e-001	1.545300e-002
50877132.000	9.822706e-001	1.543795e-002
50883126.000	9.822180e-001	1.539541e-002
50889120.000	9.822095e-001	1.535894e-002
50895114.000	9.822382e-001	1.533271e-002
50901108.000	9.822455e-001	1.532429e-002
50907102.000	9.822650e-001	1.530414e-002
50913096.000	9.822391e-001	1.527442e-002
50919090.000	9.822447e-001	1.524825e-002
50925084.000	9.821937e-001	1.521982e-002
50931078.000	9.822228e-001	1.520873e-002
50937072.000	9.822190e-001	1.514950e-002
50943066.000	9.822150e-001	1.513652e-002
50949060.000	9.822138e-001	1.514401e-002
50955054.000	9.822622e-001	1.512079e-002
50961048.000	9.822805e-001	1.510552e-002
50967042.000	9.822301e-001	1.509860e-002
50973036.000	9.822972e-001	1.506840e-002
50979030.000	9.822799e-001	1.501481e-002
50985024.000	9.822419e-001	1.498110e-002
50991018.000	9.822453e-001	1.497333e-002
50997012.000	9.822828e-001	1.491904e-002
51003006.000	9.822513e-001	1.490528e-002
51009000.000	9.823022e-001	1.490638e-002
51014994.000	9.822518e-001	1.486382e-002
51020988.000	9.822428e-001	1.484450e-002
51026982.000	9.822257e-001	1.479649e-002
51032976.000	9.822534e-001	1.480398e-002
51038970.000	9.822398e-001	1.476306e-002
51044964.000	9.822213e-001	1.474080e-002
51050958.000	9.821973e-001	1.469316e-002
51056952.000	9.822274e-001	1.469277e-002
51062946.000	9.822415e-001	1.465889e-002
51068940.000	9.822341e-001	1.462433e-002
51074934.000	9.822173e-001	1.460201e-002
51080928.000	9.822592e-001	1.458154e-002
51086922.000	9.822395e-001	1.456661e-002
51092916.000	9.822185e-001	1.454859e-002
51098910.000	9.822144e-001	1.452968e-002
51104904.000	9.822178e-001	1.449175e-002
51110898.000	9.822582e-001	1.447345e-002
51116892.000	9.822621e-001	1.445698e-002
51122886.000	9.821900e-001	1.438637e-002
51128880.000	9.822099e-001	1.439425e-002
51134874.000	9.822475e-001	1.435707e-002
51140868.000	9.821925e-001	1.433716e-002
51146862.000	9.822025e-001	1.433207e-002
51152856.000	9.822463e-001	1.430313e-002
51158850.000	9.822376e-001	1.427253e-002
51164844.000	9.822615e-001	1.425855e-002
51170838.000	9.821839e-001	1.421677e-002
51176832.000	9.822074e-001	1.419606e-002
51182826.000	9.822265e-001	1.419884e-002
51188820.000	9.822464e-001	1.412274e-002
51194814.000	9.822359e-001	1.413569e-002
51200808.000	9.821934e-001	1.408913e-002
51206802.000	9.821707e-001	1.404310e-002
51212796.000	9.822466e-001	1.404483e-002
51218790.000	9.822752e-001	1.403301e-002
51224784.000	9.822439e-001	1.403754e-002
51230778.000	9.821984e-001	1.401666e-002
51236772.000	9.822333e-001	1.395731e-002
51242766.000	9.822662e-001	1.391453e-002
51248760.000	9.822106e-001	1.387666e-002
51254754.000	9.822054e-001	1.392215e-002
51260748.000	9.822561e-001	1.389230e-002
51266742.000	9.822359e-001	1.381049e-002
51272736.000	9.821750e-001	1.383155e-002
51278730.000	9.822135e-001	1.374892e-002
51284724.000	9.822378e-001	1.374513e-002
51290718.000	9.822332e-001	1.373561e-002
51296712.000	9.821928e-001	1.372894e-002
51302706.000	9.822311e-001	1.367279e-002
51308700.000	9.821641e-001	1.365143e-002
51314694.000	9.822081e-001	1.360834e-002
51320688.000	9.822296e-001	1.364039e-002
51326682.000	9.822419e-001	1.357842e-002
51332676.000	9.822280e-001	1.356406e-002
51338670.000	9.822473e-001	1.350918e-002
51344664.000	9.822100e-001	1.346951e-002
51350658.000	9.822470e-001	1.348718e-002
51356652.000	9.822224e-001	1.349315e-002
51362646.000	9.821923e-001	1.344865e-002
51368640.000	9.822062e-001	1.341839e-002
51374634.000	9.822256e-001	1.339996e-002
51380628.000	9.822415e-001	1.336785e-002
51386622.000	9.822440e-001	1.336737e-002
51392616.000	9.822275e-001	1.333409e-002
51398610.000	9.822301e-001	1.327979e-002
51404604.000	9.822272e-001	1.329817e-002
51410598.000	9.822410e-001	1.328107e-002
51416592.000	9.822213e-001	1.322832e-002
51422586.000	9.822750e-001	1.323809e-002
51428580.000	9.822740e-001	1.319035e-002
51434574.000	9.822320e-001	1.314625e-002
51440568.000	9.822432e-001	1.313001e-002
51446562.000	9.822513e-001	1.305827e-002
51452556.000	9.822023e-001	1.306930e-002
51458550.000	9.822350e-001	1.306486e-002
51464544.000	9.822494e-001	1.301345e-002
51470538.000	9.822590e-001	1.305735e-002
51476532.000	9.821773e-001	1.298302e-002
51482526.000	9.822358e-001	1.296889e-002
51488520.000	9.821846e-001	1.289623e-002
51494514.000	9.822012e-001	1.290625e-002
51500508.000	9.821944e-001	1.289648e-002
51506502.000	9.822088e-001	1.283793e-002
51512496.000	9.822212e-001	1.282360e-002
51518490.000	9.822361e-001	1.282127e-002
51524484.000	9.821778e-001	1.279136e-002
51530478.000	9.822125e-001	1.275741e-002
51536472.000	9.822351e-001	1.277604e-002
51542466.000	9.822307e-001	1.271186e-002
51548460.000	9.822611e-001	1.272116e-002
51554454.000	9.822940e-001	1.268330e-002
51560448.000	9.822340e-001	1.264611e-002
51566442.000	9.822509e-001	1.261004e-002
51572436.000	9.822219e-001	1.260726e-002
51578430.000	9.822482e-001	1.260561e-002
51584424.000	9.822376e-001	1.256696e-002
51590418.000	9.822739e-001	1.255271e-002
51596412.000	9.822417e-001	1.253722e-002
51602406.000	9.822976e-001	1.252823e-002
51608400.000	9.822643e-001	1.245887e-002
51614394.000	9.823086e-001	1.246450e-002
51620388.000	9.823216e-001	1.241383e-002
51626382.000	9.822713e-001	1.240495e-002
51632376.000	9.822278e-001	1.235830e-002
51638370.000	9.822155e-001	1.233174e-002
51644364.000	9.822026e-001	1.230907e-002
51650358.000	9.822630e-001	1.230057e-002
51656352.000	9.822529e-001	1.231147e-002
51662346.000	9.823060e-001	1.224702e-002
51668340.000	9.822767e-001	1.220994e-002
51674334.000	9.822713e-001	1.219382e-002
51680328.000	9.822281e-001	1.216978e-002
51686322.000	9.822096e-001	1.213726e-002
51692316.000	9.822313e-001	1.211811e-002
51698310.000	9.822312e-001	1.213572e-002
51704304.000	9.822480e-001	1.207979e-002
51710298.000	9.822856e-001	1.204779e-002
51716292.000	9.822497e-001	1.205434e-002
51722286.000	9.822615e-001	1.202567e-002
51728280.000	9.822519e-001	1.196892e-002
51734274.000	9.822457e-001	1.195473e-002
51740268.000	9.822366e-001	1.195253e-002
51746262.000	9.822933e-001	1.193720e-002
51752256.000	9.822348e-001	1.189736e-002
51758250.000	9.822381e-001	1.185846e-002
51764244.000	9.822417e-001	1.183583e-002
51770238.000	9.822284e-001	1.180399e-002
51776232.000	9.822588e-001	1.180850e-002
51782226.000	9.822712e-001	1.173276e-002
51788220.000	9.822792e-001	1.176001e-002
51794214.000	9.822552e-001	1.169546e-002
51800208.000	9.822441e-001	1.167616e-002
51806202.000	9.822143e-001	1.166188e-002
51812196.000	9.822635e-001	1.165894e-002
51818190.000	9.822693e-001	1.164339e-002
51824184.000	9.822916e-001	1.161105e-002
51830178.000	9.822738e-001	1.159692e-002
51836172.000	9.822578e-001	1.157780e-002
51842166.000	9.822855e-001	1.154055e-002
51848160.000	9.822462e-001	1.148717e-002
51854154.000	9.822832e-001	1.146441e-002
51860148.000	9.823066e-001	1.148579e-002
51866142.000	9.822719e-001	1.144717e-002
51872136.000	9.822666e-001	1.139413e-002
51878130.000	9.822324e-001	1.138656e-002
51884124.000	9.822950e-001	1.136781e-002
51890118.000	9.822335e-001	1.133919e-002
51896112.000	9.822868e-001	1.136124e-002
51902106.000	9.822651e-001	1.128866e-002
51908100.000	9.822761e-001	1.126046e-002
51914094.000	9.822521e-001	1.124699e-002
51920088.000	9.823008e-001	1.124402e-002
51926082.000	9.822566e-001	1.119561e-002
51932076.000	9.822663e-001	1.116948e-002
51938070.000	9.822369e-001	1.114406e-002
51944064.000	9.822387e-001	1.111758e-002
51950058.000	9.822612e-001	1.109473e-002
51956052.000	9.823093e-001	1.108852e-002
51962046.000	9.822721e-001	1.109329e-002
51968040.000	9.822345e-001	1.101481e-002
51974034.000	9.822624e-001	1.098237e-002
51980028.000	9.822757e-001	1.099853e-002
51986022.000	9.823007e-001	1.097475e-002
51992016.000	9.822766e-001	1.093302e-002
51998010.000	9.821781e-001	1.088707e-002
52004004.000	9.822089e-001	1.088047e-002
52009998.000	9.822289e-001	1.086415e-002
52015992.000	9.822103e-001	1.081018e-002
52021986.000	9.822202e-001	1.078296e-002
52027980.000	9.822086e-001	1.080306e-002
52033974.000	9.822539e-001	1.077914e-002
52039968.000	9.822497e-001	1.070438e-002
52045962.000	9.822387e-001	1.070240e-002
52051956.000	9.822566e-001	1.069349e-002
52057950.000	9.822751e-001	1.068310e-002
52063944.000	9.822742e-001	1.062141e-002
52069938.000	9.822609e-001	1.064754e-002
52075932.000	9.822568e-001	1.061913e-002
52081926.000	9.822590e-001	1.056579e-002
52087920.000	9.822504e-001	1.053428e-002
52093914.000	9.822568e-001	1.051718e-002
52099908.000	9.822493e-001	1.049015e-002
52105902.000	9.822635e-001	1.047496e-002
52111896.000	9.822054e-001	1.044184e-002
52117890.000	9.821960e-001	1.040343e-002
52123884.000	9.821857e-001	1.038687e-002
52129878.000	9.822454e-001	1.038503e-002
52135872.000	9.822236e-001	1.033749e-002
52141866.000	9.822072e-001	1.029358e-002
52147860.000	9.821972e-001	1.031092e-002
52153854.000	9.821936e-001	1.028308e-002
52159848.000	9.822547e-001	1.023570e-002
52165842.000	9.822658e-001	1.022175e-002
52171836.000	9.822255e-001	1.021011e-002
52177830.000	9.822215e-001	1.020192e-002
52183824.000	9.822417e-001	1.016467e-002
52189818.000	9.822646e-001	1.012269e-002
52195812.000	9.822407e-001	1.011857e-002
52201806.000	9.822256e-001	1.010199e-002
52207800.000	9.821812e-001	1.006441e-002
52213794.000	9.822106e-001	1.005521e-002
52219788.000	9.822246e-001	9.998655e-003
52225782.000	9.822215e-001	1.000699e-002
52231776.000	9.822613e-001	9.962059e-003
52237770.000	9.821927e-001	9.929560e-003
52243764.000	9.821836e-001	9.930881e-003
52249758.000	9.822141e-001	9.910797e-003
52255752.000	9.822042e-001	9.887913e-003
52261746.000	9.821838e-001	9.871674e-003
52267740.000	9.822169e-001	9.826401e-003
52273734.000	9.822195e-001	9.799983e-003
52279728.000	9.822049e-001	9.753715e-003
52285722.000	9.822221e-001	9.762399e-003
52291716.000	9.822216e-001	9.712357e-003
52297710.000	9.822362e-001	9.723862e-003
52303704.000	9.821732e-001	9.664206e-003
52309698.000	9.822838e-001	9.663710e-003
52315692.000	9.822402e-001	9.640046e-003
52321686.000	9.822310e-001	9.620012e-003
52327680.000	9.822572e-001	9.626229e-003
52333674.000	9.822482e-001	9.598184e-003
52339668.000	9.822756e-001	9.578586e-003
52345662.000	9.822448e-001	9.522070e-003
52351656.000	9.822481e-001	9.485932e-003
52357650.000	9.822325e-001	9.499423e-003
52363644.000	9.822553e-001	9.457626e-003
52369638.000	9.822182e-001	9.448852e-003
52375632.000	9.822353e-001	9.387595e-003
52381626.000	9.821975e-001	9.352351e-003
52387620.000	9.822339e-001	9.388087e-003
52393614.000	9.822805e-001	9.347590e-003
52399608.000	9.822557e-001	9.310323e-003
52405602.000	9.822137e-001	9.291611e-003
52411596.000	9.822487e-001	9.252027e-003
52417590.000	9.822359e-001	9.251094e-003
52423584.000	9.822684e-001	9.233757e-003
52429578.000	9.822849e-001	9.198350e-003
52435572.000	9.823139e-001	9.193186e-003
52441566.000	9.822439e-001	9.156481e-003
52447560.000	9.822767e-001	9.136028e-003
52453554.000	9.822289e-001	9.117484e-003
52459548.000	9.822080e-001	9.065834e-003
52465542.000	9.822512e-001	9.058295e-003
52471536.000	9.822027e-001	9.006826e-003
52477530.000	9.821972e-001	8.998054e-003
52483524.000	9.822405e-001	8.943365e-003
52489518.000	9.822084e-001	8.967743e-003
52495512.000	9.822243e-001	8.909512e-003
52501506.000	9.821624e-001	8.889562e-003
52507500.000	9.822471e-001	8.873288e-003
52513494.000	9.822031e-001	8.842713e-003
52519488.000	9.821931e-001	8.827479e-003
52525482.000	9.821793e-001	8.790688e-003
52531476.000	9.821995e-001	8.809796e-003
52537470.000	9.821870e-001	8.734128e-003
52543464.000	9.822141e-001	8.719449e-003
52549458.000	9.822337e-001	8.746727e-003
52555452.000	9.822168e-001	8.684086e-003
52561446.000	9.822240e-001	8.678970e-003
52567440.000	9.822286e-001	8.623938e-003
52573434.000	9.822561e-001	8.639232e-003
52579428.000	9.822151e-001	8.612993e-003
52585422.000	9.822249e-001	8.585314e-003
52591416.000	9.822269e-001	8.534518e-003
52597410.000	9.822407e-001	8.519396e-003
52603404.000	9.822998e-001	8.530008e-003
52609398.000	9.822216e-001	8.507378e-003
52615392.000	9.822266e-001	8.454995e-003
52621386.000	9.822325e-001	8.431432e-003
52627380.000	9.822286e-001	8.409844e-003
52633374.000	9.822165e-001	8.405474e-003
52639368.000	9.822359e-001	8.339211e-003
52645362.000	9.822405e-001	8.348737e-003
52651356.000	9.822299e-001	8.350790e-003
52657350.000	9.822236e-001	8.277042e-003
52663344.000	9.822802e-001	8.255266e-003
52669338.000	9.821941e-001	8.219811e-003
52675332.000	9.822388e-001	8.229605e-003
52681326.000	9.822263e-001	8.191648e-003
52687320.000	9.822801e-001	8.219273e-003
52693314.000	9.822325e-001	8.150120e-003
52699308.000	9.822322e-001	8.111109e-003
52705302.000	9.822531e-001	8.113638e-003
52711296.000	9.822211e-001	8.070708e-003
52717290.000	9.821543e-001	8.045404e-003
52723284.000	9.822017e-001	8.036063e-003
52729278.000	9.822347e-001	7.989455e-003
52735272.000	9.822383e-001	7.982543e-003
52741266.000	9.822239e-001	7.956378e-003
52747260.000	9.821881e-001	7.939228e-003
52753254.000	9.822002e-001	7.960386e-003
52759248.000	9.822116e-001	7.852410e-003
52765242.000	9.821969e-001	7.869929e-003
52771236.000	9.821640e-001	7.810382e-003
52777230.000	9.821924e-001	7.818869e-003
52783224.000	9.821895e-001	7.787593e-003
52789218.000	9.822383e-001	7.776591e-003
52795212.000	9.821839e-001	7.708647e-003
52801206.000	9.821835e-001	7.711953e-003
52807200.000	9.822051e-001	7.693030e-003
52813194.000	9.821822e-001	7.651381e-003
52819188.000	9.822056e-001	7.636259e-003
52825182.000	9.822023e-001	7.650541e-003
52831176.000	9.822358e-001	7.585612e-003
52837170.000	9.822161e-001	7.581259e-003
52843164.000	9.821853e-001	7.549677e-003
52849158.000	9.822380e-001	7.526048e-003
52855152.000	9.822255e-001	7.535647e-003
52861146.000	9.822123e-001	7.468943e-003
52867140.000	9.821977e-001	7.460216e-003
52873134.000	9.822686e-001	7.462356e-003
52879128.000	9.822413e-001	7.401733e-003
52885122.000	9.822410e-001	7.388003e-003
52891116.000	9.822368e-001	7.367835e-003
52897110.000	9.822495e-001	7.357161e-003
52903104.000	9.822601e-001	7.334292e-003
52909098.000	9.822366e-001	7.328878e-003
52915092.000	9.822272e-001	7.268136e-003
52921086.000	9.822218e-001	7.274731e-003
52927080.000	9.822092e-001	7.225496e-003
52933074.000	9.822334e-001	7.210853e-003
52939068.000	9.821874e-001	7.160175e-003
52945062.000	9.821951e-001	7.134474e-003
52951056.000	9.822373e-001	7.134167e-003
52957050.000	9.822001e-001	7.125185e-003
52963044.000	9.822216e-001	7.066378e-003
52969038.000	9.821376e-001	7.050911e-003
52975032.000	9.822149e-001	7.042622e-003
52981026.000	9.822375e-001	7.022546e-003
52987020.000	9.821729e-001	6.995812e-003
52993014.000	9.822668e-001	6.984522e-003
52999008.000	9.822389e-001	6.992476e-003
53005002.000	9.822362e-001	6.927193e-003
53010996.000	9.822571e-001	6.929119e-003
53016990.000	9.822212e-001	6.889830e-003
53022984.000	9.822025e-001	6.863741e-003
53028978.000	9.822047e-001	6.839421e-003
53034972.000	9.822185e-001	6.799379e-003
53040966.000	9.822070e-001	6.805804e-003
53046960.000	9.822169e-001	6.760621e-003
53052954.000	9.821870e-001	6.716599e-003
53058948.000	9.822390e-001	6.721765e-003
53064942.000	9.822509e-001	6.720184e-003
53070936.000	9.822022e-001	6.705177e-003
53076930.000	9.821694e-001	6.628321e-003
53082924.000	9.822478e-001	6.623273e-003
53088918.000	9.822193e-001	6.603641e-003
53094912.000	9.822528e-001	6.592440e-003
53100906.000	9.821947e-001	6.532881e-003
53106900.000	9.821659e-001	6.559231e-003
53112894.000	9.821984e-001	6.500998e-003
53118888.000	9.821926e-001	6.476118e-003
53124882.000	9.821753e-001	6.436509e-003
53130876.000	9.821835e-001	6.445290e-003
53136870.000	9.821962e-001	6.408637e-003
53142864.000	9.821935e-001	6.382360e-003
53148858.000	9.822404e-001	6.315331e-003
53154852.000	9.822017e-001	6.325487e-003
53160846.000	9.822147e-001	6.330048e-003
53166840.000	9.821936e-001	6.270298e-003
53172834.000	9.822414e-001	6.238336e-003
53178828.000	9.822150e-001	6.257474e-003
53184822.000	9.822547e-001	6.226572e-003
53190816.000	9.822011e-001	6.207334e-003
53196810.000	9.821993e-001	6.204674e-003
53202804.000	9.822279e-001	6.146994e-003
53208798.000	9.822733e-001	6.137661e-003
53214792.000	9.822610e-001	6.142469e-003
53220786.000	9.822225e-001	6.077968e-003
53226780.000	9.821704e-001	6.035710e-003
53232774.000	9.821960e-001	6.024745e-003
53238768.000	9.822217e-001	6.009013e-003
53244762.000	9.821923e-001	5.961261e-003
53250756.000	9.821953e-001	5.980170e-003
53256750.000	9.822362e-001	5.965007e-003
53262744.000	9.822031e-001	5.889480e-003
53268738.000	9.821735e-001	5.904179e-003
53274732.000	9.821759e-001	5.892799e-003
53280726.000	9.822396e-001	5.850618e-003
53286720.000	9.822113e-001	5.829546e-003
53292714.000	9.822517e-001	5.811661e-003
53298708.000	9.822222e-001	5.796183e-003
53304702.000	9.821986e-001	5.735848e-003
53310696.000	9.822233e-001	5.726847e-003
53316690.000	9.822498e-001	5.724263e-003
53322684.000	9.822204e-001	5.697222e-003
53328678.000	9.822227e-001	5.678303e-003
53334672.000	9.822114e-001	5.662955e-003
53340666.000	9.822072e-001	5.572783e-003
53346660.000	9.821949e-001	5.607331e-003
53352654.000	9.821864e-001	5.567302e-003
53358648.000	9.821618e-001	5.535846e-003
53364642.000	9.822388e-001	5.529258e-003
53370636.000	9.822047e-001	5.489368e-003
53376630.000	9.822309e-001	5.474207e-003
53382624.000	9.822065e-001	5.498241e-003
53388618.000	9.822171e-001	5.450719e-003
53394612.000	9.821934e-001	5.397773e-003
53400606.000	9.822225e-001	5.381130e-003
53406600.000	9.821687e-001	5.334186e-003
53412594.000	9.822232e-001	5.342754e-003
53418588.000	9.822516e-001	5.299930e-003
53424582.000	9.821842e-001	5.300924e-003
53430576.000	9.821771e-001	5.245419e-003
53436570.000	9.821936e-001	5.276969e-003
53442564.000	9.822154e-001	5.218620e-003
53448558.000	9.821781e-001	5.215330e-003
53454552.000	9.821910e-001	5.179904e-003
53460546.000	9.821490e-001	5.157014e-003
53466540.000	9.821675e-001	5.122569e-003
53472534.000	9.822121e-001	5.117914e-003
53478528.000	9.821793e-001	5.074754e-003
53484522.000	9.821886e-001	5.086928e-003
53490516.000	9.821792e-001	5.028387e-003
53496510.000	9.821624e-001	4.992308e-003
53502504.000	9.822023e-001	4.972765e-003
53508498.000	9.821987e-001	4.909176e-003
53514492.000	9.821750e-001	4.921794e-003
53520486.000	9.821928e-001	4.911731e-003
53526480.000	9.821982e-001	4.909055e-003
53532474.000	9.821930e-001	4.869690e-003
53538468.000	9.821852e-001	4.843690e-003
53544462.000	9.822228e-001	4.819375e-003
53550456.000	9.821668e-001	4.783586e-003
53556450.000	9.821652e-001	4.762252e-003
53562444.000	9.821873e-001	4.760820e-003
53568438.000	9.822476e-001	4.716272e-003
53574432.000	9.822250e-001	4.694514e-003
53580426.000	9.821803e-001	4.683706e-003
53586420.000	9.821973e-001	4.685498e-003
53592414.000	9.822312e-001	4.610344e-003
53598408.000	9.822111e-001	4.622663e-003
53604402.000	9.821920e-001	4.581824e-003
53610396.000	9.822335e-001	4.568479e-003
53616390.000	9.821724e-001	4.545885e-003
53622384.000	9.821940e-001	4.535786e-003
53628378.000	9.821656e-001	4.509339e-003
53634372.000	9.821776e-001	4.491237e-003
53640366.000	9.822334e-001	4.442268e-003
53646360.000	9.821866e-001	4.405181e-003
53652354.000	9.822340e-001	4.397716e-003
53658348.000	9.821930e-001	4.407803e-003
53664342.000	9.821760e-001	4.369303e-003
53670336.000	9.822022e-001	4.346504e-003
53676330.000	9.821633e-001	4.332889e-003
53682324.000	9.821995e-001	4.283874e-003
53688318.000	9.821880e-001	4.274414e-003
53694312.000	9.822539e-001	4.263735e-003
53700306.000	9.821971e-001	4.226801e-003
53706300.000	9.821995e-001	4.199333e-003
53712294.000	9.822530e-001	4.192615e-003
53718288.000	9.821986e-001	4.121393e-003
53724282.000	9.821860e-001	4.123973e-003
53730276.000	9.821748e-001	4.104978e-003
53736270.000	9.822072e-001	4.039546e-003
53742264.000	9.822096e-001	4.075665e-003
53748258.000	9.822262e-001	4.045571e-003
53754252.000	9.822037e-001	4.015314e-003
53760246.000	9.822265e-001	4.036910e-003
53766240.000	9.821790e-001	3.993386e-003
53772234.000	9.821881e-001	3.965395e-003
53778228.000	9.822131e-001	3.956217e-003
53784222.000	9.822362e-001	3.888424e-003
53790216.000	9.821935e-001	3.905179e-003
53796210.000	9.822006e-001	3.850351e-003
53802204.000	9.822202e-001	3.812947e-003
53808198.000	9.821941e-001	3.792509e-003
53814192.000	9.821915e-001	3.786580e-003
53820186.000	9.821815e-001	3.763029e-003
53826180.000	9.822175e-001	3.733332e-003
53832174.000	9.822071e-001	3.723291e-003
53838168.000	9.821633e-001	3.672007e-003
53844162.000	9.822049e-001	3.657040e-003
53850156.000	9.821994e-001	3.635688e-003
53856150.000	9.821675e-001	3.622605e-003
53862144.000	9.821868e-001	3.593905e-003
53868138.000	9.821811e-001	3.564185e-003
53874132.000	9.821123e-001	3.533224e-003
53880126.000	9.821476e-001	3.489619e-003
53886120.000	9.821877e-001	3.487835e-003
53892114.000	9.821933e-001	3.488545e-003
53898108.000	9.821910e-001	3.427640e-003
53904102.000	9.822138e-001	3.403195e-003
53910096.000	9.821979e-001	3.402994e-003
53916090.000	9.822040e-001	3.379974e-003
53922084.000	9.821300e-001	3.340370e-003
53928078.000	9.822156e-001	3.332605e-003
53934072.000	9.821753e-001	3.320339e-003
53940066.000	9.821951e-001	3.301126e-003
53946060.000	9.821830e-001	3.258099e-003
53952054.000	9.821990e-001	3.251313e-003
53958048.000	9.821519e-001	3.212092e-003
53964042.000	9.821694e-001	3.172550e-003
53970036.000	9.821418e-001	3.182169e-003
53976030.000	9.821506e-001	3.148851e-003
53982024.000	9.821597e-001	3.108756e-003
53988018.000	9.821357e-001	3.135604e-003
53994012.000	9.821720e-001	3.067742e-003
54000006.000	9.821795e-001	3.087285e-003
54006000.000	9.822167e-001	3.042659e-003
54011994.000	9.821934e-001	3.005338e-003
54017988.000	9.822027e-001	3.000616e-003
54023982.000	9.822215e-001	2.988625e-003
54029976.000	9.821513e-001	2.938270e-003
54035970.000	9.822181e-001	2.947933e-003
54041964.000	9.822347e-001	2.912320e-003
54047958.000	9.822223e-001	2.891946e-003
54053952.000	9.821926e-001	2.889094e-003
54059946.000	9.821534e-001	2.820655e-003
54065940.000	9.821803e-001	2.793531e-003
54071934.000	9.821899e-001	2.776432e-003
54077928.000	9.821796e-001	2.759320e-003
54083922.000	9.821757e-001	2.710399e-003
54089916.000	9.822173e-001	2.700440e-003
54095910.000	9.822166e-001	2.697520e-003
54101904.000	9.821706e-001	2.669305e-003
54107898.000	9.821804e-001	2.645484e-003
54113892.000	9.822244e-001	2.643784e-003
54119886.000	9.821950e-001	2.636261e-003
54125880.000	9.822160e-001	2.581459e-003
54131874.000	9.822040e-001	2.565353e-003
54137868.000	9.822426e-001	2.526655e-003
54143862.000	9.821897e-001	2.502802e-003
54149856.000	9.821998e-001	2.499572e-003
54155850.000	9.821830e-001	2.472009e-003
54161844.000	9.821938e-001	2.476351e-003
54167838.000	9.822041e-001	2.411571e-003
54173832.000	9.822139e-001	2.386563e-003
54179826.000	9.821652e-001	2.345870e-003
54185820.000	9.821599e-001	2.340380e-003
54191814.000	9.822017e-001	2.311322e-003
54197808.000	9.821755e-001	2.305505e-003
54203802.000	9.821775e-001	2.266853e-003
54209796.000	9.821607e-001	2.243586e-003
54215790.000	9.822124e-001	2.248224e-003
54221784.000	9.822339e-001	2.221863e-003
54227778.000	9.822236e-001	2.163183e-003
54233772.000	9.822719e-001	2.129948e-003
54239766.000	9.821912e-001	2.172930e-003
54245760.000	9.821635e-001	2.079876e-003
54251754.000	9.821586e-001	2.079704e-003
54257748.000	9.821676e-001	2.070405e-003
54263742.000	9.821905e-001	2.041381e-003
54269736.000	9.821462e-001	2.052379e-003
54275730.000	9.821746e-001	2.018951e-003
54281724.000	9.821639e-001	1.989899e-003
54287718.000	9.821818e-001	1.965604e-003
54293712.000	9.822351e-001	1.967709e-003
54299706.000	9.822423e-001	1.913012e-003
54305700.000	9.822024e-001	1.885757e-003
54311694.000	9.822177e-001	1.873334e-003
54317688.000	9.822068e-001	1.873961e-003
54323682.000	9.822159e-001	1.871069e-003
54329676.000	9.822123e-001	1.803220e-003
54335670.000	9.822559e-001	1.810117e-003
54341664.000	9.822122e-001	1.760265e-003
54347658.000	9.822227e-001	1.741455e-003
54353652.000	9.822257e-001	1.681640e-003
54359646.000	9.822186e-001	1.728729e-003
54365640.000	9.822345e-001	1.688134e-003
54371634.000	9.822314e-001	1.647899e-003
54377628.000	9.821637e-001	1.616274e-003
54383622.000	9.821848e-001	1.582265e-003
54389616.000	9.821478e-001	1.537247e-003
54395610.000	9.822020e-001	1.564750e-003
54401604.000	9.822151e-001	1.533616e-003
54407598.000	9.822575e-001	1.515293e-003
54413592.000	9.822362e-001	1.488291e-003
54419586.000	9.822175e-001	1.476350e-003
54425580.000	9.821888e-001	1.406397e-003
54431574.000	9.821922e-001	1.407100e-003
54437568.000	9.821888e-001	1.388527e-003
54443562.000	9.822203e-001	1.384777e-003
54449556.000	9.821856e-001	1.380555e-003
54455550.000	9.821844e-001	1.304457e-003
54461544.000	9.822132e-001	1.306373e-003
54467538.000	9.821989e-001	1.280572e-003
54473532.000	9.821850e-001	1.218763e-003
54479526.000	9.821520e-001	1.229161e-003
54485520.000	9.821778e-001	1.182991e-003
54491514.000	9.821536e-001	1.195460e-003
54497508.000	9.821709e-001	1.147613e-003
54503502.000	9.821647e-001	1.110543e-003
54509496.000	9.821597e-001	1.106523e-003
54515490.000	9.821904e-001	1.077666e-003
54521484.000	9.822152e-001	1.084044e-003
54527478.000	9.821805e-001	1.056181e-003
54533472.000	9.821894e-001	1.045658e-003
54539466.000	9.821999e-001	1.025063e-003
54545460.000	9.821488e-001	9.841520e-004
54551454.000	9.822116e-001	9.749712e-004
54557448.000	9.821567e-001	9.127441e-004
54563442.000	9.821650e-001	9.335798e-004
54569436.000	9.822252e-001	8.946608e-004
54575430.000	9.822186e-001	8.822417e-004
54581424.000	9.822292e-001	8.564787e-004
54587418.000	9.821743e-001	7.799207e-004
54593412.000	9.821683e-001	7.883246e-004
54599406.000	9.821963e-001	7.858786e-004
54605400.000	9.821788e-001	7.134583e-004
54611394.000	9.821775e-001	6.973816e-004
54617388.000	9.821042e-001	6.759851e-004
54623382.000	9.821205e-001	6.667766e-004
54629376.000	9.821446e-001	6.654173e-004
54635370.000	9.821261e-001	6.332694e-004
54641364.000	9.821317e-001	5.933016e-004
54647358.000	9.821544e-001	6.090197e-004
54653352.000	9.821290e-001	5.849501e-004
54659346.000	9.821604e-001	5.089495e-004
54665340.000	9.821225e-001	4.884545e-004
54671334.000	9.821497e-001	4.638790e-004
54677328.000	9.821339e-001	4.431843e-004
54683322.000	9.821350e-001	4.849059e-004
54689316.000	9.821393e-001	3.917329e-004
54695310.000	9.821286e-001	4.439831e-004
54701304.000	9.821698e-001	3.642642e-004
54707298.000	9.821546e-001	3.623729e-004
54713292.000	9.821663e-001	3.617155e-004
54719286.000	9.821641e-001	3.139758e-004
54725280.000	9.821403e-001	2.558175e-004
54731274.000	9.821482e-001	2.511978e-004
54737268.000	9.821274e-001	2.240452e-004
54743262.000	9.821801e-001	2.487850e-004
54749256.000	9.821876e-001	2.251669e-004
54755250.000	9.821736e-001	1.853944e-004
54761244.000	9.821958e-001	1.612385e-004
54767238.000	9.821642e-001	1.563372e-004
54773232.000	9.821845e-001	1.106101e-004
54779226.000	9.821676e-001	6.365970e-005
54785220.000	9.821470e-001	6.799688e-005
54791214.000	9.821465e-001	3.985996e-005
54797208.000	9.821731e-001	6.746373e-005
54803202.000	9.821708e-001	-8.395843e-006
54809196.000	9.821750e-001	-3.594713e-005
54815190.000	9.821546e-001	-6.410303e-005
54821184.000	9.821428e-001	-9.305750e-005
54827178.000	9.821216e-001	-6.357424e-005
54833172.000	9.820794e-001	-1.350855e-004
54839166.000	9.821221e-001	-1.373367e-004
54845160.000	9.821363e-001	-1.800730e-004
54851154.000	9.821510e-001	-1.995068e-004
54857148.000	9.821791e-001	-2.401946e-004
54863142.000	9.821766e-001	-2.569892e-004
54869136.000	9.821112e-001	-2.644195e-004
54875130.000	9.821470e-001	-2.842611e-004
54881124.000	9.821176e-001	-3.266789e-004
54887118.000	9.821509e-001	-3.472823e-004
54893112.000	9.821410e-001	-3.252009e-004
54899106.000	9.821522e-001	-3.524449e-004
54905100.000	9.821606e-001	-4.021870e-004
54911094.000	9.822052e-001	-4.272018e-004
54917088.000	9.821491e-001	-4.795520e-004
54923082.000	9.821705e-001	-4.860576e-004
54929076.000	9.822145e-001	-4.722364e-004
54935070.000	9.821911e-001	-5.255511e-004
54941064.000	9.821818e-001	-5.411556e-004
54947058.000	9.821346e-001	-5.510459e-004
54953052.000	9.821743e-001	-5.869719e-004
54959046.000	9.822199e-001	-5.796401e-004
54965040.000	9.821882e-001	-6.108689e-004
54971034.000	9.822317e-001	-6.441101e-004
54977028.000	9.822068e-001	-6.111896e-004
54983022.000	9.821647e-001	-6.845125e-004
54989016.000	9.821378e-001	-7.127451e-004
54995010.000	9.821167e-001	-7.254583e-004
55001004.000	9.821657e-001	-7.779103e-004
55006998.000	9.821969e-001	-7.756408e-004
55012992.000	9.821656e-001	-8.026174e-004
55018986.000	9.821964e-001	-8.287378e-004
55024980.000	9.821411e-001	-8.526342e-004
55030974.000	9.821439e-001	-8.685807e-004
55036968.000	9.821358e-001	-9.196196e-004
55042962.000	9.821184e-001	-9.119803e-004
55048956.000	9.821297e-001	-9.370547e-004
55054950.000	9.821198e-001	-9.784081e-004
55060944.000	9.821582e-001	-1.001653e-003
55066938.000	9.821523e-001	-1.016755e-003
55072932.000	9.821044e-001	-1.028503e-003
55078926.000	9.821120e-001	-1.072069e-003
55084920.000	9.821545e-001	-1.075888e-003
55090914.000	9.820942e-001	-1.163408e-003
55096908.000	9.821080e-001	-1.155600e-003
55102902.000	9.821716e-001	-1.152204e-003
55108896.000	9.821572e-001	-1.166164e-003
55114890.000	9.821306e-001	-1.176126e-003
55120884.000	9.821588e-001	-1.220858e-003
55126878.000	9.821240e-001	-1.262698e-003
55132872.000	9.821302e-001	-1.278316e-003
55138866.000	9.821749e-001	-1.273384e-003
55144860.000	9.821148e-001	-1.310381e-003
55150854.000	9.821106e-001	-1.325692e-003
55156848.000	9.821082e-001	-1.362435e-003
55162842.000	9.821369e-001	-1.380985e-003
55168836.000	9.821407e-001	-1.395308e-003
55174830.000	9.821357e-001	-1.406947e-003
55180824.000	9.821532e-001	-1.446708e-003
55186818.000	9.821648e-001	-1.473197e-003
55192812.000	9.821939e-001	-1.500304e-003
55198806.000	9.821078e-001	-1.508338e-003
55204800.000	9.821294e-001	-1.534939e-003
55210794.000	9.821636e-001	-1.563964e-003
55216788.000	9.821697e-001	-1.565832e-003
55222782.000	9.821487e-001	-1.587660e-003
55228776.000	9.821372e-001	-1.611240e-003
55234770.000	9.821283e-001	-1.657703e-003
55240764.000	9.821280e-001	-1.665925e-003
55246758.000	9.820979e-001	-1.681978e-003
55252752.000	9.821613e-001	-1.683728e-003
55258746.000	9.821428e-001	-1.744101e-003
55264740.000	9.821645e-001	-1.752042e-003
55270734.000	9.821916e-001	-1.765001e-003
55276728.000	9.822208e-001	-1.785749e-003
55282722.000	9.821889e-001	-1.808341e-003
55288716.000	9.821776e-001	-1.815938e-003
55294710.000	9.821595e-001	-1.852788e-003
55300704.000	9.821438e-001	-1.874986e-003
55306698.000	9.821418e-001	-1.910810e-003
55312692.000	9.821282e-001	-1.916603e-003
55318686.000	9.821316e-001	-1.953639e-003
55324680.000	9.821041e-001	-1.966652e-003
55330674.000	9.821269e-001	-2.003017e-003
55336668.000	9.821161e-001	-2.035294e-003
55342662.000	9.821112e-001	-2.059070e-003
55348656.000	9.821065e-001	-2.110149e-003
55354650.000	9.821307e-001	-2.109738e-003
55360644.000	9.821579e-001	-2.094337e-003
55366638.000	9.821740e-001	-2.142450e-003
55372632.000	9.820635e-001	-2.168750e-003
55378626.000	9.821216e-001	-2.214229e-003
55384620.000	9.821402e-001	-2.201139e-003
55390614.000	9.821331e-001	-2.238293e-003
55396608.000	9.821171e-001	-2.264582e-003
55402602.000	9.820871e-001	-2.287299e-003
55408596.000	9.820811e-001	-2.310085e-003
55414590.000	9.821262e-001	-2.344653e-003
55420584.000	9.821279e-001	-2.380885e-003
55426578.000	9.821123e-001	-2.379486e-003
55432572.000	9.821154e-001	-2.405580e-003
55438566.000	9.821255e-001	-2.442379e-003
55444560.000	9.821326e-001	-2.453022e-003
55450554.000	9.821953e-001	-2.458611e-003
55456548.000	9.821481e-001	-2.486558e-003
55462542.000	9.822124e-001	-2.534386e-003
55468536.000	9.821378e-001	-2.519580e-003
55474530.000	9.821562e-001	-2.540024e-003
55480524.000	9.821271e-001	-2.578939e-003
55486518.000	9.821524e-001	-2.599063e-003
55492512.000	9.821095e-001	-2.639398e-003
55498506.000	9.821598e-001	-2.631084e-003
55504500.000	9.821304e-001	-2.636084e-003
55510494.000	9.820819e-001	-2.682470e-003
55516488.000	9.821422e-001	-2.694112e-003
55522482.000	9.821088e-001	-2.746573e-003
55528476.000	9.820948e-001	-2.753465e-003
55534470.000	9.821143e-001	-2.771717e-003
55540464.000	9.820832e-001	-2.781964e-003
55546458.000	9.821486e-001	-2.809346e-003
55552452.000	9.821413e-001	-2.827031e-003
55558446.000	9.821569e-001	-2.861078e-003
55564440.000	9.821091e-001	-2.897603e-003
55570434.000	9.821188e-001	-2.918657e-003
55576428.000	9.821698e-001	-2.945928e-003
55582422.000	9.821326e-001	-2.958569e-003
55588416.000	9.820973e-001	-2.975337e-003
55594410.000	9.821063e-001	-2.995402e-003
55600404.000	9.821307e-001	-3.006207e-003
55606398.000	9.821411e-001	-3.071563e-003
55612392.000	9.821157e-001	-3.073009e-003
55618386.000	9.821243e-001	-3.100208e-003
55624380.000	9.821068e-001	-3.088210e-003
55630374.000	9.821148e-001	-3.146865e-003
55636368.000	9.821193e-001	-3.146229e-003
55642362.000	9.821594e-001	-3.162044e-003
55648356.000	9.821354e-001	-3.234777e-003
55654350.000	9.820987e-001	-3.220596e-003
55660344.000	9.821333e-001	-3.258824e-003
55666338.000	9.821077e-001	-3.274116e-003
55672332.000	9.821554e-001	-3.292444e-003
55678326.000	9.821479e-001	-3.286251e-003
55684320.000	9.821368e-001	-3.323157e-003
55690314.000	9.821655e-001	-3.331021e-003
55696308.000	9.821179e-001	-3.361708e-003
55702302.000	9.821516e-001	-3.430005e-003
55708296.000	9.821061e-001	-3.420326e-003
55714290.000	9.821427e-001	-3.467082e-003
55720284.000	9.821212e-001	-3.466123e-003
55726278.000	9.821416e-001	-3.503605e-003
55732272.000	9.821864e-001	-3.532727e-003
55738266.000	9.821135e-001	-3.542923e-003
55744260.000	9.821117e-001	-3.553980e-003
55750254.000	9.821342e-001	-3.606668e-003
55756248.000	9.821279e-001	-3.577999e-003
55762242.000	9.821400e-001	-3.595476e-003
55768236.000	9.821397e-001	-3.621970e-003
55774230.000	9.821558e-001	-3.678381e-003
55780224.000	9.821522e-001	-3.702003e-003
55786218.000	9.821602e-001	-3.722566e-003
55792212.000	9.821311e-001	-3.757158e-003
55798206.000	9.821437e-001	-3.757524e-003
55804200.000	9.821165e-001	-3.778379e-003
55810194.000	9.821217e-001	-3.844513e-003
55816188.000	9.821467e-001	-3.843601e-003
55822182.000	9.821286e-001	-3.898861e-003
55828176.000	9.820978e-001	-3.888816e-003
55834170.000	9.821063e-001	-3.917041e-003
55840164.000	9.820561e-001	-3.949973e-003
55846158.000	9.821107e-001	-3.975809e-003
55852152.000	9.821428e-001	-3.979302e-003
55858146.000	9.821525e-001	-3.994890e-003
55864140.000	9.821325e-001	-4.027274e-003
55870134.000	9.821281e-001	-4.043409e-003
55876128.000	9.821451e-001	-4.046594e-003
55882122.000	9.821236e-001	-4.067565e-003
55888116.000	9.821021e-001	-4.072677e-003
55894110.000	9.821600e-001	-4.070657e-003
55900104.000	9.821406e-001	-4.123476e-003
55906098.000	9.821348e-001	-4.173157e-003
55912092.000	9.821479e-001	-4.189550e-003
55918086.000	9.821563e-001	-4.221964e-003
55924080.000	9.821044e-001	-4.230523e-003
55930074.000	9.821136e-001	-4.233101e-003
55936068.000	9.821185e-001	-4.252473e-003
55942062.000	9.821377e-001	-4.314465e-003
55948056.000	9.821646e-001	-4.308291e-003
55954050.000	9.821398e-001	-4.329727e-003
55960044.000	9.821366e-001	-4.343275e-003
55966038.000	9.821438e-001	-4.390097e-003
55972032.000	9.820870e-001	-4.404276e-003
55978026.000	9.820988e-001	-4.448558e-003
55984020.000	9.821161e-001	-4.462759e-003
55990014.000	9.821455e-001	-4.475216e-003
55996008.000	9.821542e-001	-4.502194e-003
56002002.000	9.821330e-001	-4.526685e-003
56007996.000	9.820944e-001	-4.528297e-003
56013990.000	9.821380e-001	-4.551995e-003
56019984.000	9.821348e-001	-4.558135e-003
56025978.000	9.821294e-001	-4.630828e-003
56031972.000	9.821038e-001	-4.673455e-003
56037966.000	9.821205e-001	-4.655790e-003
56043960.000	9.821040e-001	-4.680464e-003
56049954.000	9.821189e-001	-4.693138e-003
56055948.000	9.821005e-001	-4.714248e-003
56061942.000	9.821552e-001	-4.726610e-003
56067936.000	9.821186e-001	-4.770955e-003
56073930.000	9.821055e-001	-4.770858e-003
56079924.000	9.821370e-001	-4.817527e-003
56085918.000	9.821213e-001	-4.813989e-003
56091912.000	9.821708e-001	-4.820736e-003
56097906.000	9.821507e-001	-4.884951e-003
56103900.000	9.821261e-001	-4.914395e-003
56109894.000	9.821092e-001	-4.911473e-003
56115888.000	9.821447e-001	-4.926880e-003
56121882.000	9.821177e-001	-4.989999e-003
56127876.000	9.820809e-001	-5.031760e-003
56133870.000	9.820535e-001	-5.030019e-003
56139864.000	9.820949e-001	-5.041477e-003
56145858.000	9.821092e-001	-5.069212e-003
56151852.000	9.821139e-001	-5.075996e-003
56157846.000	9.820931e-001	-5.121088e-003
56163840.000	9.820999e-001	-5.149256e-003
56169834.000	9.821021e-001	-5.145093e-003
56175828.000	9.820973e-001	-5.186735e-003
56181822.000	9.820935e-001	-5.205816e-003
56187816.000	9.821127e-001	-5.238853e-003
56193810.000	9.821067e-001	-5.252888e-003
56199804.000	9.820807e-001	-5.262683e-003
56205798.000	9.821070e-001	-5.305209e-003
56211792.000	9.820721e-001	-5.336608e-003
56217786.000	9.820736e-001	-5.352203e-003
56223780.000	9.820915e-001	-5.363923e-003
56229774.000	9.821012e-001	-5.358962e-003
56235768.000	9.821168e-001	-5.387484e-003
56241762.000	9.820844e-001	-5.442992e-003
56247756.000	9.820970e-001	-5.445325e-003
56253750.000	9.820885e-001	-5.507964e-003
56259744.000	9.820900e-001	-5.490250e-003
56265738.000	9.820674e-001	-5.448088e-003
56271732.000	9.820978e-001	-5.552430e-003
56277726.000	9.820749e-001	-5.532169e-003
56283720.000	9.821149e-001	-5.607533e-003
56289714.000	9.820627e-001	-5.588766e-003
56295708.000	9.820056e-001	-5.623759e-003
56301702.000	9.821200e-001	-5.690977e-003
56307696.000	9.820588e-001	-5.683341e-003
56313690.000	9.820978e-001	-5.696077e-003
56319684.000	9.820213e-001	-5.697020e-003
56325678.000	9.820424e-001	-5.732685e-003
56331672.000	9.820424e-001	-5.769547e-003
56337666.000	9.820803e-001	-5.773459e-003
56343660.000	9.820591e-001	-5.813437e-003
56349654.000	9.820537e-001	-5.837574e-003
56355648.000	9.820592e-001	-5.850503e-003
56361642.000	9.820296e-001	-5.904269e-003
56367636.000	9.820570e-001	-5.909012e-003
56373630.000	9.820553e-001	-5.937248e-003
56379624.000	9.820401e-001	-5.954464e-003
56385618.000	9.820956e-001	-5.944751e-003
56391612.000	9.820421e-001	-5.976858e-003
56397606.000	9.820642e-001	-5.994452e-003
56403600.000	9.820687e-001	-6.019797e-003
56409594.000	9.820534e-001	-6.042399e-003
56415588.000	9.820689e-001	-6.071220e-003
56421582.000	9.820456e-001	-6.098330e-003
56427576.000	9.820289e-001	-6.134643e-003
56433570.000	9.820313e-001	-6.137385e-003
56439564.000	9.820605e-001	-6.190428e-003
56445558.000	9.820798e-001	-6.183709e-003
56451552.000	9.821094e-001	-6.229122e-003
56457546.000	9.820608e-001	-6.228161e-003
56463540.000	9.820878e-001	-6.219034e-003
56469534.000	9.821107e-001	-6.258593e-003
56475528.000	9.820586e-001	-6.279012e-003
56481522.000	9.820715e-001	-6.304587e-003
56487516.000	9.820870e-001	-6.348148e-003
56493510.000	9.820597e-001	-6.354518e-003
56499504.000	9.820763e-001	-6.416595e-003
56505498.000	9.820461e-001	-6.410849e-003
56511492.000	9.820413e-001	-6.465379e-003
56517486.000	9.820192e-001	-6.456360e-003
56523480.000	9.820447e-001	-6.463608e-003
56529474.000	9.820605e-001	-6.527242e-003
56535468.000	9.820652e-001	-6.540694e-003
56541462.000	9.820519e-001	-6.537729e-003
56547456.000	9.820277e-001	-6.585812e-003
56553450.000	9.820752e-001	-6.577676e-003
56559444.000	9.820408e-001	-6.608729e-003
56565438.000	9.820747e-001	-6.632792e-003
56571432.000	9.820311e-001	-6.638377e-003
56577426.000	9.820729e-001	-6.684161e-003
56583420.000	9.820394e-001	-6.680336e-003
56589414.000	9.820342e-001	-6.760679e-003
56595408.000	9.820177e-001	-6.753228e-003
56601402.000	9.820552e-001	-6.792334e-003
56607396.000	9.820819e-001	-6.810086e-003
56613390.000	9.820468e-001	-6.805236e-003
56619384.000	9.820646e-001	-6.814104e-003
56625378.000	9.821102e-001	-6.868350e-003
56631372.000	9.820617e-001	-6.843590e-003
56637366.000	9.820526e-001	-6.889907e-003
56643360.000	9.820427e-001	-6.915601e-003
56649354.000	9.820250e-001	-6.967742e-003
56655348.000	9.820126e-001	-6.982331e-003
56661342.000	9.821001e-001	-6.973575e-003
56667336.000	9.820552e-001	-6.967530e-003
56673330.000	9.820524e-001	-7.011641e-003
56679324.000	9.820679e-001	-7.025006e-003
56685318.000	9.820644e-001	-7.097163e-003
56691312.000	9.820671e-001	-7.099265e-003
56697306.000	9.820911e-001	-7.135264e-003
56703300.000	9.820416e-001	-7.143732e-003
56709294.000	9.820274e-001	-7.167435e-003
56715288.000	9.820137e-001	-7.202543e-003
56721282.000	9.820458e-001	-7.225056e-003
56727276.000	9.820206e-001	-7.254526e-003
56733270.000	9.820208e-001	-7.235134e-003
56739264.000	9.820278e-001	-7.254860e-003
56745258.000	9.820508e-001	-7.304224e-003
56751252.000	9.820274e-001	-7.336800e-003
56757246.000	9.819959e-001	-7.353049e-003
56763240.000	9.820193e-001	-7.360056e-003
56769234.000	9.820287e-001	-7.401407e-003
56775228.000	9.820008e-001	-7.421041e-003
56781222.000	9.820321e-001	-7.442880e-003
56787216.000	9.820129e-001	-7.452872e-003
56793210.000	9.820590e-001	-7.465475e-003
56799204.000	9.820062e-001	-7.545121e-003
56805198.000	9.820065e-001	-7.532962e-003
56811192.000	9.820269e-001	-7.540185e-003
56817186.000	9.820257e-001	-7.577649e-003
56823180.000	9.820226e-001	-7.625387e-003
56829174.000	9.820350e-001	-7.618957e-003
56835168.000	9.820048e-001	-7.624966e-003
56841162.000	9.819995e-001	-7.653224e-003
56847156.000	9.820012e-001	-7.703241e-003
56853150.000	9.820300e-001	-7.661490e-003
56859144.000	9.820310e-001	-7.719000e-003
56865138.000	9.820477e-001	-7.775540e-003
56871132.000	9.820836e-001	-7.784192e-003
56877126.000	9.820880e-001	-7.769909e-003
56883120.000	9.820492e-001	-7.801616e-003
56889114.000	9.820217e-001	-7.803804e-003
56895108.000	9.819951e-001	-7.852965e-003
56901102.000	9.820579e-001	-7.849899e-003
56907096.000	9.820027e-001	-7.890199e-003
56913090.000	9.820030e-001	-7.936574e-003
56919084.000	9.820432e-001	-7.957508e-003
56925078.000	9.820350e-001	-7.990299e-003
56931072.000	9.820565e-001	-7.987739e-003
56937066.000	9.820291e-001	-8.036011e-003
56943060.000	9.820473e-001	-8.046966e-003
56949054.000	9.820410e-001	-8.040734e-003
56955048.000	9.820477e-001	-8.087429e-003
56961042.000	9.819899e-001	-8.102728e-003
56967036.000	9.819878e-001	-8.134133e-003
56973030.000	9.819854e-001	-8.199810e-003
56979024.000	9.819841e-001	-8.167557e-003
56985018.000	9.820172e-001	-8.235677e-003
56991012.000	9.819974e-001	-8.208353e-003
56997006.000	9.819866e-001	-8.264516e-003
57003000.000	9.820031e-001	-8.273544e-003
57008994.000	9.819526e-001	-8.305144e-003
57014988.000	9.819634e-001	-8.323499e-003
57020982.000	9.820075e-001	-8.300496e-003
57026976.000	9.819655e-001	-8.362529e-003
57032970.000	9.819958e-001	-8.353443e-003
57038964.000	9.820149e-001	-8.392284e-003
57044958.000	9.820132e-001	-8.401087e-003
57050952.000	9.819756e-001	-8.410345e-003
57056946.000	9.820368e-001	-8.440327e-003
57062940.000	9.820129e-001	-8.469405e-003
57068934.000	9.819931e-001	-8.508036e-003
57074928.000	9.820246e-001	-8.492836e-003
57080922.000	9.820458e-001	-8.528106e-003
57086916.000	9.820313e-001	-8.546957e-003
57092910.000	9.819801e-001	-8.579753e-003
57098904.000	9.819800e-001	-8.628361e-003
57104898.000	9.819549e-001	-8.644228e-003
57110892.000	9.819855e-001	-8.675914e-003
57116886.000	9.819756e-001	-8.663064e-003
57122880.000	9.820175e-001	-8.698496e-003
57128874.000	9.819949e-001	-8.727336e-003
57134868.000	9.820044e-001	-8.708151e-003
57140862.000	9.819612e-001	-8.760359e-003
57146856.000	9.819802e-001	-8.791872e-003
57152850.000	9.820495e-001	-8.793889e-003
57158844.000	9.820110e-001	-8.885783e-003
57164838.000	9.819761e-001	-8.863574e-003
57170832.000	9.819782e-001	-8.890189e-003
57176826.000	9.820141e-001	-8.884676e-003
57182820.000	9.819601e-001	-8.938644e-003
57188814.000	9.819509e-001	-8.956619e-003
57194808.000	9.819785e-001	-8.992041e-003
57200802.000	9.820374e-001	-8.977362e-003
57206796.000	9.820048e-001	-8.987600e-003
57212790.000	9.819436e-001	-9.022609e-003
57218784.000	9.819473e-001	-9.093938e-003
57224778.000	9.820122e-001	-9.069964e-003
57230772.000	9.819482e-001	-9.108392e-003
57236766.000	9.819742e-001	-9.145161e-003
57242760.000	9.819237e-001	-9.183223e-003
57248754.000	9.818888e-001	-9.193860e-003
57254748.000	9.819513e-001	-9.176864e-003
57260742.000	9.820004e-001	-9.241569e-003
57266736.000	9.819284e-001	-9.242232e-003
57272730.000	9.819378e-001	-9.263570e-003
57278724.000	9.819827e-001	-9.289707e-003
57284718.000	9.819770e-001	-9.321655e-003
57290712.000	9.819773e-001	-9.335562e-003
57296706.000	9.819807e-001	-9.373939e-003
57302700.000	9.819607e-001	-9.360749e-003
57308694.000	9.819786e-001	-9.412473e-003
57314688.000	9.819920e-001	-9.409491e-003
57320682.000	9.819301e-001	-9.427478e-003
57326676.000	9.819479e-001	-9.457553e-003
57332670.000	9.819513e-001	-9.451723e-003
57338664.000	9.819281e-001	-9.517593e-003
57344658.000	9.819531e-001	-9.544998e-003
57350652.000	9.819749e-001	-9.522466e-003
57356646.000	9.820077e-001	-9.592703e-003
57362640.000	9.819652e-001	-9.572950e-003
57368634.000	9.820158e-001	-9.602973e-003
57374628.000	9.820002e-001	-9.621451e-003
57380622.000	9.819869e-001	-9.635700e-003
57386616.000	9.819812e-001	-9.680804e-003
57392610.000	9.820018e-001	-9.698539e-003
57398604.000	9.819671e-001	-9.683842e-003
57404598.000	9.819930e-001	-9.752356e-003
57410592.000	9.819776e-001	-9.713073e-003
57416586.000	9.819509e-001	-9.814998e-003
57422580.000	9.819688e-001	-9.818742e-003
57428574.000	9.819715e-001	-9.842691e-003
57434568.000	9.820010e-001	-9.877608e-003
57440562.000	9.819748e-001	-9.884659e-003
57446556.000	9.819028e-001	-9.873472e-003
57452550.000	9.819776e-001	-9.903079e-003
57458544.000	9.819697e-001	-9.925552e-003
57464538.000	9.819380e-001	-9.948031e-003
57470532.000	9.819171e-001	-9.968576e-003
57476526.000	9.819283e-001	-9.999427e-003
57482520.000	9.819817e-001	-1.000823e-002
57488514.000	9.819332e-001	-1.001750e-002
57494508.000	9.819984e-001	-1.002901e-002
57500502.000	9.819900e-001	-1.010070e-002
57506496.000	9.819575e-001	-1.011388e-002
57512490.000	9.819782e-001	-1.014914e-002
57518484.000	9.819629e-001	-1.011620e-002
57524478.000	9.819967e-001	-1.016416e-002
57530472.000	9.819299e-001	-1.020469e-002
57536466.000	9.819798e-001	-1.022039e-002
57542460.000	9.819876e-001	-1.019750e-002
57548454.000	9.819267e-001	-1.025547e-002
57554448.000	9.819624e-001	-1.028073e-002
57560442.000	9.819720e-001	-1.031059e-002
57566436.000	9.819705e-001	-1.034110e-002
57572430.000	9.819772e-001	-1.035873e-002
57578424.000	9.819642e-001	-1.035966e-002
57584418.000	9.819578e-001	-1.039386e-002
57590412.000	9.819464e-001	-1.042935e-002
57596406.000	9.819274e-001	-1.042724e-002
57602400.000	9.818899e-001	-1.042559e-002
57608394.000	9.819116e-001	-1.049468e-002
57614388.000	9.818817e-001	-1.049791e-002
57620382.000	9.819405e-001	-1.050024e-002
57626376.000	9.819244e-001	-1.054370e-002
57632370.000	9.819439e-001	-1.056766e-002
57638364.000	9.819057e-001	-1.061767e-002
57644358.000	9.818989e-001	-1.063213e-002
57650352.000	9.819731e-001	-1.059495e-002
57656346.000	9.819204e-001	-1.062864e-002
57662340.000	9.819387e-001	-1.067623e-002
57668334.000	9.819562e-001	-1.069542e-002
57674328.000	9.819887e-001	-1.071279e-002
57680322.000	9.819381e-001	-1.074171e-002
57686316.000	9.819524e-001	-1.077819e-002
57692310.000	9.819893e-001	-1.078943e-002
57698304.000	9.819395e-001	-1.080468e-002
57704298.000	9.818942e-001	-1.079788e-002
57710292.000	9.819474e-001	-1.083194e-002
57716286.000	9.819637e-001	-1.087671e-002
57722280.000	9.820102e-001	-1.087645e-002
57728274.000	9.819455e-001	-1.090156e-002
57734268.000	9.819481e-001	-1.098588e-002
57740262.000	9.819569e-001	-1.099004e-002
57746256.000	9.819710e-001	-1.097708e-002
57752250.000	9.819878e-001	-1.097799e-002
57758244.000	9.819804e-001	-1.098493e-002
57764238.000	9.819652e-001	-1.102203e-002
57770232.000	9.820042e-001	-1.107582e-002
57776226.000	9.820004e-001	-1.107778e-002
57782220.000	9.819708e-001	-1.110812e-002
57788214.000	9.819645e-001	-1.111658e-002
57794208.000	9.819597e-001	-1.115494e-002
57800202.000	9.819056e-001	-1.115896e-002
57806196.000	9.819824e-001	-1.115792e-002
57812190.000	9.819592e-001	-1.121867e-002
57818184.000	9.819607e-001	-1.125464e-002
57824178.000	9.819808e-001	-1.127859e-002
57830172.000	9.819514e-001	-1.125728e-002
57836166.000	9.819725e-001	-1.129201e-002
57842160.000	9.819393e-001	-1.132534e-002
57848154.000	9.819849e-001	-1.132140e-002
57854148.000	9.819332e-001	-1.132884e-002
57860142.000	9.819218e-001	-1.139547e-002
57866136.000	9.819587e-001	-1.143978e-002
57872130.000	9.819649e-001	-1.141783e-002
57878124.000	9.818982e-001	-1.145308e-002
57884118.000	9.819611e-001	-1.145870e-002
57890112.000	9.820011e-001	-1.149353e-002
57896106.000	9.819414e-001	-1.153898e-002
57902100.000	9.819801e-001	-1.152553e-002
57908094.000	9.819227e-001	-1.157382e-002
57914088.000	9.819389e-001	-1.155160e-002
57920082.000	9.819146e-001	-1.159911e-002
57926076.000	9.819234e-001	-1.164642e-002
57932070.000	9.819329e-001	-1.165085e-002
57938064.000	9.819359e-001	-1.165496e-002
57944058.000	9.819013e-001	-1.171405e-002
57950052.000	9.819426e-001	-1.170597e-002
57956046.000	9.819266e-001	-1.176389e-002
57962040.000	9.819418e-001	-1.177674e-002
57968034.000	9.819448e-001	-1.176694e-002
57974028.000	9.819238e-001	-1.180890e-002
57980022.000	9.819319e-001	-1.186550e-002
57986016.000	9.819386e-001	-1.186327e-002
57992010.000	9.819279e-001	-1.186153e-002
57998004.000	9.819323e-001	-1.190717e-002
58003998.000	9.819741e-001	-1.191188e-002
58009992.000	9.819224e-001	-1.191723e-002
58015986.000	9.819472e-001	-1.195691e-002
58021980.000	9.819298e-001	-1.199789e-002
58027974.000	9.819251e-001	-1.200243e-002
58033968.000	9.819806e-001	-1.200211e-002
58039962.000	9.819467e-001	-1.200951e-002
58045956.000	9.819458e-001	-1.202034e-002
58051950.000	9.819566e-001	-1.206233e-002
58057944.000	9.819218e-001	-1.205714e-002
58063938.000	9.819562e-001	-1.212448e-002
58069932.000	9.819070e-001	-1.215097e-002
58075926.000	9.819548e-001	-1.216812e-002
58081920.000	9.819687e-001	-1.217975e-002
58087914.000	9.819267e-001	-1.223691e-002
58093908.000	9.819227e-001	-1.226547e-002
58099902.000	9.819568e-001	-1.226311e-002
58105896.000	9.819678e-001	-1.227224e-002
58111890.000	9.819615e-001	-1.226521e-002
58117884.000	9.819477e-001	-1.231137e-002
58123878.000	9.819497e-001	-1.235989e-002
58129872.000	9.818967e-001	-1.236789e-002
58135866.000	9.819081e-001	-1.240648e-002
58141860.000	9.819061e-001	-1.245418e-002
58147854.000	9.819200e-001	-1.246979e-002
58153848.000	9.819234e-001	-1.247520e-002
58159842.000	9.818806e-001	-1.249360e-002
58165836.000	9.819374e-001	-1.250089e-002
58171830.000	9.818841e-001	-1.251674e-002
58177824.000	9.818930e-001	-1.249435e-002
58183818.000	9.819284e-001	-1.258613e-002
58189812.000	9.819099e-001	-1.259519e-002
58195806.000	9.819246e-001	-1.262358e-002
58201800.000	9.819203e-001	-1.261535e-002
58207794.000	9.819220e-001	-1.268533e-002
58213788.000	9.819245e-001	-1.268153e-002
58219782.000	9.819353e-001	-1.269027e-002
58225776.000	9.819244e-001	-1.269820e-002
58231770.000	9.818865e-001	-1.274184e-002
58237764.000	9.818838e-001	-1.279237e-002
58243758.000	9.818795e-001	-1.279979e-002
58249752.000	9.818817e-001	-1.282921e-002
58255746.000	9.819108e-001	-1.283782e-002
58261740.000	9.819394e-001	-1.285383e-002
58267734.000	9.819218e-001	-1.289421e-002
58273728.000	9.819084e-001	-1.287415e-002
58279722.000	9.819028e-001	-1.290880e-002
58285716.000	9.819499e-001	-1.292967e-002
58291710.000	9.819696e-001	-1.293984e-002
58297704.000	9.819615e-001	-1.297176e-002
58303698.000	9.819026e-001	-1.299142e-002
58309692.000	9.819722e-001	-1.300829e-002
58315686.000	9.819311e-001	-1.302035e-002
58321680.000	9.819425e-001	-1.302793e-002
58327674.000	9.819609e-001	-1.312358e-002
58333668.000	9.819265e-001	-1.308951e-002
58339662.000	9.819356e-001	-1.311436e-002
58345656.000	9.819266e-001	-1.314550e-002
58351650.000	9.819423e-001	-1.316085e-002
58357644.000	9.819242e-001	-1.320153e-002
58363638.000	9.819692e-001	-1.320516e-002
58369632.000	9.819303e-001	-1.322365e-002
58375626.000	9.819218e-001	-1.325949e-002
58381620.000	9.819345e-001	-1.327695e-002
58387614.000	9.818837e-001	-1.328528e-002
58393608.000	9.819507e-001	-1.330366e-002
58399602.000	9.819275e-001	-1.333304e-002
58405596.000	9.818976e-001	-1.336504e-002
58411590.000	9.818973e-001	-1.337256e-002
58417584.000	9.818918e-001	-1.338863e-002
58423578.000	9.818813e-001	-1.344011e-002
58429572.000	9.818974e-001	-1.344468e-002
58435566.000	9.818658e-001	-1.347533e-002
58441560.000	9.818958e-001	-1.350799e-002
58447554.000	9.818783e-001	-1.353834e-002
58453548.000	9.818971e-001	-1.354310e-002
58459542.000	9.818831e-001	-1.355208e-002
58465536.000	9.819004e-001	-1.356930e-002
58471530.000	9.819025e-001	-1.362683e-002
58477524.000	9.819295e-001	-1.361654e-002
58483518.000	9.819050e-001	-1.362576e-002
58489512.000	9.818794e-001	-1.370347e-002
58495506.000	9.818863e-001	-1.367457e-002
58501500.000	9.818914e-001	-1.369652e-002
58507494.000	9.818937e-001	-1.373857e-002
58513488.000	9.819271e-001	-1.377630e-002
58519482.000	9.819110e-001	-1.375184e-002
58525476.000	9.819057e-001	-1.380408e-002
58531470.000	9.818701e-001	-1.380175e-002
58537464.000	9.818710e-001	-1.383773e-002
58543458.000	9.818688e-001	-1.389160e-002
58549452.000	9.818931e-001	-1.386206e-002
58555446.000	9.818801e-001	-1.389867e-002
58561440.000	9.818414e-001	-1.392249e-002
58567434.000	9.818598e-001	-1.395244e-002
58573428.000	9.819462e-001	-1.395954e-002
58579422.000	9.818768e-001	-1.402674e-002
58585416.000	9.818975e-001	-1.404471e-002
58591410.000	9.818392e-001	-1.404005e-002
58597404.000	9.818485e-001	-1.412344e-002
58603398.000	9.819048e-001	-1.408584e-002
58609392.000	9.819037e-001	-1.409084e-002
58615386.000	9.818555e-001	-1.411516e-002
58621380.000	9.818414e-001	-1.417430e-002
58627374.000	9.819430e-001	-1.416237e-002
58633368.000	9.818869e-001	-1.418824e-002
58639362.000	9.818937e-001	-1.418216e-002
58645356.000	9.819276e-001	-1.422022e-002
58651350.000	9.818824e-001	-1.423427e-002
58657344.000	9.818702e-001	-1.427435e-002
58663338.000	9.818194e-001	-1.429818e-002
58669332.000	9.819116e-001	-1.435286e-002
58675326.000	9.818896e-001	-1.433369e-002
58681320.000	9.818621e-001	-1.436472e-002
58687314.000	9.818883e-001	-1.437428e-002
58693308.000	9.818710e-001	-1.440408e-002
58699302.000	9.818227e-001	-1.445315e-002
58705296.000	9.818382e-001	-1.445149e-002
58711290.000	9.818792e-001	-1.448710e-002
58717284.000	9.818664e-001	-1.450793e-002
58723278.000	9.818696e-001	-1.449893e-002
58729272.000	9.818361e-001	-1.450715e-002
58735266.000	9.818608e-001	-1.456526e-002
58741260.000	9.818000e-001	-1.460356e-002
58747254.000	9.818130e-001	-1.461607e-002
58753248.000	9.818162e-001	-1.460532e-002
58759242.000	9.818295e-001	-1.464797e-002
58765236.000	9.818413e-001	-1.466785e-002
58771230.000	9.818508e-001	-1.468396e-002
58777224.000	9.818536e-001	-1.471698e-002
58783218.000	9.818374e-001	-1.475206e-002
58789212.000	9.818988e-001	-1.473879e-002
58795206.000	9.818663e-001	-1.480913e-002
58801200.000	9.818764e-001	-1.478108e-002
58807194.000	9.818458e-001	-1.479681e-002
58813188.000	9.818216e-001	-1.487394e-002
58819182.000	9.818255e-001	-1.487228e-002
58825176.000	9.818331e-001	-1.490097e-002
58831170.000	9.818412e-001	-1.491208e-002
58837164.000	9.818031e-001	-1.494402e-002
58843158.000	9.818362e-001	-1.495301e-002
58849152.000	9.818517e-001	-1.497601e-002
58855146.000	9.817947e-001	-1.503413e-002
58861140.000	9.818379e-001	-1.499202e-002
58867134.000	9.818799e-001	-1.501368e-002
58873128.000	9.818473e-001	-1.504043e-002
58879122.000	9.818384e-001	-1.508570e-002
58885116.000	9.818409e-001	-1.512687e-002
58891110.000	9.817809e-001	-1.512210e-002
58897104.000	9.818323e-001	-1.515378e-002
58903098.000	9.818308e-001	-1.516499e-002
58909092.000	9.818313e-001	-1.516932e-002
58915086.000	9.818277e-001	-1.521095e-002
58921080.000	9.817863e-001	-1.525983e-002
58927074.000	9.818181e-001	-1.525701e-002
58933068.000	9.818252e-001	-1.528606e-002
58939062.000	9.818396e-001	-1.531046e-002
58945056.000	9.818327e-001	-1.532008e-002
58951050.000	9.818215e-001	-1.535794e-002
58957044.000	9.818616e-001	-1.531797e-002
58963038.000	9.818520e-001	-1.534962e-002
58969032.000	9.817957e-001	-1.543900e-002
58975026.000	9.818393e-001	-1.543050e-002
58981020.000	9.818648e-001	-1.543147e-002
58987014.000	9.818327e-001	-1.548290e-002
58993008.000	9.818551e-001	-1.545947e-002
58999002.000	9.818343e-001	-1.552709e-002
59004996.000	9.818366e-001	-1.552898e-002
59010990.000	9.818289e-001	-1.555368e-002
59016984.000	9.818014e-001	-1.558771e-002
59022978.000	9.818280e-001	-1.558515e-002
59028972.000	9.818210e-001	-1.563011e-002
59034966.000	9.818107e-001	-1.564134e-002
59040960.000	9.817969e-001	-1.569429e-002
59046954.000	9.818233e-001	-1.569105e-002
59052948.000	9.818018e-001	-1.569432e-002
59058942.000	9.818108e-001	-1.571939e-002
59064936.000	9.818226e-001	-1.574132e-002
59070930.000	9.818406e-001	-1.577659e-002
59076924.000	9.818697e-001	-1.574849e-002
59082918.000	9.818171e-001	-1.579220e-002
59088912.000	9.818211e-001	-1.584629e-002
59094906.000	9.817801e-001	-1.583792e-002
59100900.000	9.818500e-001	-1.588832e-002
59106894.000	9.818427e-001	-1.587684e-002
59112888.000	9.818028e-001	-1.593433e-002
59118882.000	9.817843e-001	-1.596530e-002
59124876.000	9.818048e-001	-1.595602e-002
59130870.000	9.818085e-001	-1.596934e-002
59136864.000	9.818285e-001	-1.598922e-002
59142858.000	9.817744e-001	-1.598448e-002
59148852.000	9.818499e-001	-1.606010e-002
59154846.000	9.818265e-001	-1.609312e-002
59160840.000	9.818021e-001	-1.608054e-002
59166834.000	9.818137e-001	-1.612570e-002
59172828.000	9.817857e-001	-1.616985e-002
59178822.000	9.817959e-001	-1.616958e-002
59184816.000	9.818180e-001	-1.618343e-002
59190810.000	9.817998e-001	-1.618661e-002
59196804.000	9.818380e-001	-1.621670e-002
59202798.000	9.818082e-001	-1.622941e-002
59208792.000	9.818003e-001	-1.622777e-002
59214786.000	9.818058e-001	-1.628795e-002
59220780.000	9.817999e-001	-1.631621e-002
59226774.000	9.818037e-001	-1.632165e-002
59232768.000	9.817813e-001	-1.635372e-002
59238762.000	9.817686e-001	-1.635996e-002
59244756.000	9.817951e-001	-1.637594e-002
59250750.000	9.818361e-001	-1.641332e-002
59256744.000	9.818296e-001	-1.643967e-002
59262738.000	9.818205e-001	-1.644923e-002
59268732.000	9.817861e-001	-1.642887e-002
59274726.000	9.817997e-001	-1.651468e-002
59280720.000	9.817835e-001	-1.652751e-002
59286714.000	9.818055e-001	-1.652316e-002
59292708.000	9.818093e-001	-1.654763e-002
59298702.000	9.817961e-001	-1.656819e-002
59304696.000	9.818199e-001	-1.660107e-002
59310690.000	9.818423e-001	-1.663284e-002
59316684.000	9.818153e-001	-1.664956e-002
59322678.000	9.817980e-001	-1.663027e-002
59328672.000	9.817752e-001	-1.668765e-002
59334666.000	9.817804e-001	-1.673764e-002
59340660.000	9.817917e-001	-1.673794e-002
59346654.000	9.817996e-001	-1.674795e-002
59352648.000	9.817602e-001	-1.679559e-002
59358642.000	9.817674e-001	-1.679782e-002
59364636.000	9.817847e-001	-1.684278e-002
59370630.000	9.817950e-001	-1.684553e-002
59376624.000	9.818244e-001	-1.684406e-002
59382618.000	9.817773e-001	-1.688934e-002
59388612.000	9.817941e-001	-1.691659e-002
59394606.000	9.817684e-001	-1.696042e-002
59400600.000	9.817938e-001	-1.694975e-002
59406594.000	9.818038e-001	-1.697490e-002
59412588.000	9.817554e-001	-1.701556e-002
59418582.000	9.817362e-001	-1.704398e-002
59424576.000	9.817349e-001	-1.705868e-002
59430570.000	9.817497e-001	-1.708453e-002
59436564.000	9.817546e-001	-1.710389e-002
59442558.000	9.817941e-001	-1.707106e-002
59448552.000	9.817207e-001	-1.712960e-002
59454546.000	9.817848e-001	-1.717173e-002
59460540.000	9.817869e-001	-1.712663e-002
59466534.000	9.817916e-001	-1.718436e-002
59472528.000	9.817566e-001	-1.719514e-002
59478522.000	9.817815e-001	-1.725301e-002
59484516.000	9.818008e-001	-1.725970e-002
59490510.000	9.818052e-001	-1.724779e-002
59496504.000	9.818218e-001	-1.726095e-002
59502498.000	9.818333e-001	-1.729943e-002
59508492.000	9.817908e-001	-1.730836e-002
59514486.000	9.817829e-001	-1.732841e-002
59520480.000	9.817826e-001	-1.737296e-002
59526474.000	9.817574e-001	-1.741062e-002
59532468.000	9.817601e-001	-1.744593e-002
59538462.000	9.818002e-001	-1.745252e-002
59544456.000	9.817814e-001	-1.746585e-002
59550450.000	9.818347e-001	-1.746268e-002
59556444.000	9.817906e-001	-1.747569e-002
59562438.000	9.818187e-001	-1.752679e-002
59568432.000	9.818270e-001	-1.752427e-002
59574426.000	9.818092e-001	-1.756001e-002
59580420.000	9.817875e-001	-1.759180e-002
59586414.000	9.818227e-001	-1.760211e-002
59592408.000	9.817689e-001	-1.761022e-002
59598402.000	9.817954e-001	-1.763977e-002
59604396.000	9.817820e-001	-1.765906e-002
59610390.000	9.817429e-001	-1.769549e-002
59616384.000	9.817617e-001	-1.769894e-002
59622378.000	9.817510e-001	-1.776361e-002
59628372.000	9.817298e-001	-1.775160e-002
59634366.000	9.817693e-001	-1.779715e-002
59640360.000	9.817457e-001	-1.781769e-002
59646354.000	9.817631e-001	-1.779880e-002
59652348.000	9.817541e-001	-1.782216e-002
59658342.000	9.817789e-001	-1.788089e-002
59664336.000	9.817484e-001	-1.788017e-002
59670330.000	9.817826e-001	-1.786704e-002
59676324.000	9.817227e-001	-1.793487e-002
59682318.000	9.817285e-001	-1.796111e-002
59688312.000	9.817650e-001	-1.797244e-002
59694306.000	9.817714e-001	-1.796258e-002
59700300.000	9.817567e-001	-1.801112e-002
59706294.000	9.817579e-001	-1.806369e-002
59712288.000	9.817311e-001	-1.804997e-002
59718282.000	9.817679e-001	-1.807341e-002
59724276.000	9.817496e-001	-1.811518e-002
59730270.000	9.817533e-001	-1.810479e-002
59736264.000	9.817204e-001	-1.809793e-002
59742258.000	9.817785e-001	-1.817886e-002
59748252.000	9.817707e-001	-1.814450e-002
59754246.000	9.817400e-001	-1.817092e-002
59760240.000	9.817629e-001	-1.823332e-002
59766234.000	9.817220e-001	-1.823975e-002
59772228.000	9.817278e-001	-1.827839e-002
59778222.000	9.817226e-001	-1.831340e-002
59784216.000	9.817479e-001	-1.832198e-002
59790210.000	9.817481e-001	-1.833668e-002
59796204.000	9.817538e-001	-1.835359e-002
59802198.000	9.817086e-001	-1.836701e-002
59808192.000	9.817142e-001	-1.839493e-002
59814186.000	9.817063e-001	-1.840492e-002
59820180.000	9.817562e-001	-1.847531e-002
59826174.000	9.817752e-001	-1.843392e-002
59832168.000	9.817420e-001	-1.844766e-002
59838162.000	9.817509e-001	-1.848692e-002
59844156.000	9.817387e-001	-1.854327e-002
59850150.000	9.817449e-001	-1.854629e-002
59856144.000	9.817190e-001	-1.856263e-002
59862138.000	9.817172e-001	-1.862831e-002
59868132.000	9.817487e-001	-1.861796e-002
59874126.000	9.817709e-001	-1.863070e-002
59880120.000	9.817448e-001	-1.867855e-002
59886114.000	9.817338e-001	-1.866286e-002
59892108.000	9.817420e-001	-1.871893e-002
59898102.000	9.817894e-001	-1.871313e-002
59904096.000	9.817566e-001	-1.874529e-002
59910090.000	9.817360e-001	-1.876639e-002
59916084.000	9.817091e-001	-1.879151e-002
59922078.000	9.817126e-001	-1.880905e-002
59928072.000	9.817261e-001	-1.884784e-002
59934066.000	9.817255e-001	-1.881000e-002
59940060.000	9.817396e-001	-1.889651e-002
59946054.000	9.817393e-001	-1.887732e-002
59952048.000	9.817467e-001	-1.891052e-002
59958042.000	9.817188e-001	-1.890419e-002
59964036.000	9.817222e-001	-1.895855e-002
59970030.000	9.817328e-001	-1.902112e-002
59976024.000	9.817014e-001	-1.897691e-002
59982018.000	9.817296e-001	-1.899734e-002
59988012.000	9.817291e-001	-1.908905e-002
59994006.000	9.816757e-001	-1.909354e-002
60000000.000	9.816969e-001	-1.908476e-002
