!Keysight Technologies,E5063A,MY54100949,A.07.30
!Date: Wed Dec 31 03:38:37 2025
!Data & Calibration Information:
!Freq	S11:SOLT1(ON)
# Hz S RI R 50
60000.000	-9.913886e-001	1.238699e-002
65994.000	-9.923808e-001	1.307076e-002
71988.000	-9.921894e-001	1.400864e-002
77982.000	-9.926471e-001	1.430805e-002
83976.000	-9.923479e-001	1.516091e-002
89970.000	-9.920363e-001	1.598664e-002
95964.000	-9.921017e-001	1.672007e-002
101958.000	-9.919112e-001	1.765862e-002
107952.000	-9.918849e-001	1.844848e-002
113946.000	-9.919975e-001	1.904970e-002
119940.000	-9.918226e-001	1.975496e-002
125934.000	-9.919061e-001	2.074037e-002
131928.000	-9.916547e-001	2.160569e-002
137922.000	-9.915060e-001	2.220316e-002
143916.000	-9.915760e-001	2.308222e-002
149910.000	-9.914630e-001	2.395861e-002
155904.000	-9.918751e-001	2.491793e-002
161898.000	-9.915171e-001	2.556131e-002
167892.000	-9.915240e-001	2.627439e-002
173886.000	-9.913612e-001	2.732273e-002
179880.000	-9.912769e-001	2.809573e-002
185874.000	-9.912478e-001	2.923935e-002
191868.000	-9.911697e-001	2.984381e-002
197862.000	-9.912877e-001	3.089648e-002
203856.000	-9.910398e-001	3.138966e-002
209850.000	-9.913842e-001	3.239427e-002
215844.000	-9.912439e-001	3.326316e-002
221838.000	-9.912278e-001	3.444158e-002
227832.000	-9.912617e-001	3.488473e-002
233826.000	-9.908205e-001	3.585092e-002
239820.000	-9.910180e-001	3.671028e-002
245814.000	-9.909300e-001	3.771923e-002
251808.000	-9.908825e-001	3.837823e-002
257802.000	-9.908388e-001	3.943510e-002
263796.000	-9.908400e-001	3.999462e-002
269790.000	-9.905735e-001	4.099987e-002
275784.000	-9.907756e-001	4.185413e-002
281778.000	-9.906802e-001	4.264591e-002
287772.000	-9.905709e-001	4.344713e-002
293766.000	-9.907459e-001	4.438462e-002
299760.000	-9.905376e-001	4.531712e-002
305754.000	-9.904649e-001	4.602714e-002
311748.000	-9.904733e-001	4.692776e-002
317742.000	-9.903181e-001	4.799900e-002
323736.000	-9.905121e-001	4.873680e-002
329730.000	-9.902616e-001	4.955590e-002
335724.000	-9.902541e-001	5.048112e-002
341718.000	-9.901385e-001	5.117847e-002
347712.000	-9.902266e-001	5.223785e-002
353706.000	-9.900438e-001	5.291807e-002
359700.000	-9.901370e-001	5.392089e-002
365694.000	-9.899926e-001	5.459244e-002
371688.000	-9.899109e-001	5.554602e-002
377682.000	-9.900116e-001	5.642233e-002
383676.000	-9.899236e-001	5.721246e-002
389670.000	-9.898406e-001	5.808110e-002
395664.000	-9.898091e-001	5.892282e-002
401658.000	-9.895493e-001	5.981975e-002
407652.000	-9.896162e-001	6.049123e-002
413646.000	-9.896133e-001	6.140975e-002
419640.000	-9.894727e-001	6.225252e-002
425634.000	-9.894473e-001	6.314041e-002
431628.000	-9.895683e-001	6.421495e-002
437622.000	-9.892619e-001	6.469503e-002
443616.000	-9.892568e-001	6.579709e-002
449610.000	-9.892875e-001	6.663360e-002
455604.000	-9.892457e-001	6.751450e-002
461598.000	-9.891685e-001	6.819938e-002
467592.000	-9.890341e-001	6.918888e-002
473586.000	-9.889490e-001	6.975396e-002
479580.000	-9.890512e-001	7.075816e-002
485574.000	-9.888709e-001	7.166644e-002
491568.000	-9.887722e-001	7.252881e-002
497562.000	-9.887093e-001	7.335699e-002
503556.000	-9.886658e-001	7.416337e-002
509550.000	-9.887200e-001	7.503815e-002
515544.000	-9.885665e-001	7.585547e-002
521538.000	-9.886694e-001	7.675645e-002
527532.000	-9.884342e-001	7.772985e-002
533526.000	-9.884173e-001	7.860224e-002
539520.000	-9.883476e-001	7.926426e-002
545514.000	-9.882867e-001	8.015830e-002
551508.000	-9.882700e-001	8.100039e-002
557502.000	-9.882290e-001	8.190160e-002
563496.000	-9.879055e-001	8.271096e-002
569490.000	-9.880223e-001	8.380909e-002
575484.000	-9.880886e-001	8.427409e-002
581478.000	-9.879227e-001	8.531799e-002
587472.000	-9.876182e-001	8.607865e-002
593466.000	-9.876986e-001	8.692560e-002
599460.000	-9.876254e-001	8.761720e-002
605454.000	-9.874289e-001	8.873282e-002
611448.000	-9.874309e-001	8.956166e-002
617442.000	-9.874821e-001	9.040089e-002
623436.000	-9.871239e-001	9.113236e-002
629430.000	-9.871927e-001	9.204216e-002
635424.000	-9.870713e-001	9.297959e-002
641418.000	-9.869137e-001	9.365032e-002
647412.000	-9.868158e-001	9.450225e-002
653406.000	-9.868081e-001	9.557974e-002
659400.000	-9.866472e-001	9.619214e-002
665394.000	-9.864477e-001	9.712660e-002
671388.000	-9.864851e-001	9.797178e-002
677382.000	-9.865476e-001	9.876492e-002
683376.000	-9.864516e-001	9.962078e-002
689370.000	-9.860559e-001	1.004990e-001
695364.000	-9.862533e-001	1.012981e-001
701358.000	-9.861168e-001	1.020699e-001
707352.000	-9.859873e-001	1.030188e-001
713346.000	-9.859146e-001	1.039839e-001
719340.000	-9.857255e-001	1.045903e-001
725334.000	-9.857979e-001	1.055852e-001
731328.000	-9.855401e-001	1.064065e-001
737322.000	-9.854942e-001	1.072102e-001
743316.000	-9.854479e-001	1.080775e-001
749310.000	-9.853615e-001	1.089263e-001
755304.000	-9.851652e-001	1.097227e-001
761298.000	-9.851665e-001	1.105905e-001
767292.000	-9.849686e-001	1.115006e-001
773286.000	-9.849320e-001	1.123250e-001
779280.000	-9.847248e-001	1.131086e-001
785274.000	-9.846661e-001	1.139348e-001
791268.000	-9.846419e-001	1.147694e-001
797262.000	-9.845538e-001	1.157183e-001
803256.000	-9.845317e-001	1.165015e-001
809250.000	-9.842354e-001	1.172854e-001
815244.000	-9.841701e-001	1.182524e-001
821238.000	-9.841645e-001	1.191142e-001
827232.000	-9.841236e-001	1.198581e-001
833226.000	-9.837995e-001	1.206839e-001
839220.000	-9.837517e-001	1.215948e-001
845214.000	-9.835891e-001	1.223781e-001
851208.000	-9.834777e-001	1.232877e-001
857202.000	-9.833965e-001	1.242251e-001
863196.000	-9.832763e-001	1.249185e-001
869190.000	-9.832182e-001	1.256483e-001
875184.000	-9.830206e-001	1.265540e-001
881178.000	-9.830355e-001	1.274766e-001
887172.000	-9.826842e-001	1.281701e-001
893166.000	-9.826359e-001	1.289945e-001
899160.000	-9.829020e-001	1.298717e-001
905154.000	-9.825419e-001	1.309066e-001
911148.000	-9.823891e-001	1.316994e-001
917142.000	-9.823241e-001	1.323208e-001
923136.000	-9.820036e-001	1.332372e-001
929130.000	-9.819772e-001	1.341091e-001
935124.000	-9.819291e-001	1.349096e-001
941118.000	-9.818105e-001	1.357475e-001
947112.000	-9.817104e-001	1.365279e-001
953106.000	-9.817430e-001	1.374635e-001
959100.000	-9.815741e-001	1.382709e-001
965094.000	-9.813686e-001	1.390723e-001
971088.000	-9.812052e-001	1.398698e-001
977082.000	-9.811847e-001	1.407760e-001
983076.000	-9.808961e-001	1.415895e-001
989070.000	-9.808387e-001	1.424969e-001
995064.000	-9.805936e-001	1.432485e-001
1001058.000	-9.805516e-001	1.442369e-001
1007052.000	-9.803385e-001	1.449386e-001
1013046.000	-9.803069e-001	1.458092e-001
1019040.000	-9.801233e-001	1.464762e-001
1025034.000	-9.800800e-001	1.474172e-001
1031028.000	-9.796795e-001	1.481160e-001
1037022.000	-9.797854e-001	1.490674e-001
1043016.000	-9.795241e-001	1.498528e-001
1049010.000	-9.794793e-001	1.508077e-001
1055004.000	-9.793940e-001	1.515998e-001
1060998.000	-9.791465e-001	1.523480e-001
1066992.000	-9.791104e-001	1.533079e-001
1072986.000	-9.790519e-001	1.540939e-001
1078980.000	-9.787882e-001	1.550244e-001
1084974.000	-9.786827e-001	1.558239e-001
1090968.000	-9.785412e-001	1.564637e-001
1096962.000	-9.785199e-001	1.574481e-001
1102956.000	-9.783123e-001	1.580877e-001
1108950.000	-9.781753e-001	1.591471e-001
1114944.000	-9.779892e-001	1.598843e-001
1120938.000	-9.778257e-001	1.607349e-001
1126932.000	-9.776582e-001	1.616271e-001
1132926.000	-9.775918e-001	1.623554e-001
1138920.000	-9.774452e-001	1.631757e-001
1144914.000	-9.774538e-001	1.639430e-001
1150908.000	-9.771831e-001	1.649228e-001
1156902.000	-9.768417e-001	1.657593e-001
1162896.000	-9.768854e-001	1.665292e-001
1168890.000	-9.766450e-001	1.671917e-001
1174884.000	-9.765809e-001	1.681041e-001
1180878.000	-9.764194e-001	1.687914e-001
1186872.000	-9.763289e-001	1.697311e-001
1192866.000	-9.760411e-001	1.706042e-001
1198860.000	-9.757988e-001	1.714593e-001
1204854.000	-9.756339e-001	1.721767e-001
1210848.000	-9.756311e-001	1.730860e-001
1216842.000	-9.757072e-001	1.737814e-001
1222836.000	-9.752131e-001	1.749700e-001
1228830.000	-9.751542e-001	1.755403e-001
1234824.000	-9.751023e-001	1.763922e-001
1240818.000	-9.749089e-001	1.770873e-001
1246812.000	-9.747488e-001	1.779667e-001
1252806.000	-9.746577e-001	1.788343e-001
1258800.000	-9.742350e-001	1.794992e-001
1264794.000	-9.743332e-001	1.805112e-001
1270788.000	-9.742064e-001	1.812401e-001
1276782.000	-9.740093e-001	1.822328e-001
1282776.000	-9.736464e-001	1.829334e-001
1288770.000	-9.735843e-001	1.838312e-001
1294764.000	-9.734150e-001	1.846155e-001
1300758.000	-9.732728e-001	1.853334e-001
1306752.000	-9.731139e-001	1.862539e-001
1312746.000	-9.729748e-001	1.871053e-001
1318740.000	-9.728313e-001	1.878457e-001
1324734.000	-9.726614e-001	1.888730e-001
1330728.000	-9.724029e-001	1.894514e-001
1336722.000	-9.723872e-001	1.902553e-001
1342716.000	-9.719431e-001	1.912082e-001
1348710.000	-9.718129e-001	1.919859e-001
1354704.000	-9.717001e-001	1.927429e-001
1360698.000	-9.717016e-001	1.935092e-001
1366692.000	-9.713110e-001	1.943217e-001
1372686.000	-9.713215e-001	1.953192e-001
1378680.000	-9.711587e-001	1.960461e-001
1384674.000	-9.709153e-001	1.968446e-001
1390668.000	-9.708166e-001	1.977924e-001
1396662.000	-9.704840e-001	1.984061e-001
1402656.000	-9.702664e-001	1.992428e-001
1408650.000	-9.701832e-001	2.000375e-001
1414644.000	-9.701070e-001	2.009702e-001
1420638.000	-9.698386e-001	2.016978e-001
1426632.000	-9.696475e-001	2.026133e-001
1432626.000	-9.697130e-001	2.033740e-001
1438620.000	-9.693813e-001	2.042815e-001
1444614.000	-9.691453e-001	2.050462e-001
1450608.000	-9.688396e-001	2.057925e-001
1456602.000	-9.687365e-001	2.066564e-001
1462596.000	-9.684919e-001	2.074771e-001
1468590.000	-9.685791e-001	2.082805e-001
1474584.000	-9.682766e-001	2.091002e-001
1480578.000	-9.680279e-001	2.099900e-001
1486572.000	-9.677384e-001	2.107875e-001
1492566.000	-9.676952e-001	2.114380e-001
1498560.000	-9.675706e-001	2.123898e-001
1504554.000	-9.673946e-001	2.133129e-001
1510548.000	-9.670612e-001	2.140205e-001
1516542.000	-9.669831e-001	2.148071e-001
1522536.000	-9.668842e-001	2.156406e-001
1528530.000	-9.666030e-001	2.164518e-001
1534524.000	-9.662911e-001	2.172377e-001
1540518.000	-9.660827e-001	2.180225e-001
1546512.000	-9.660384e-001	2.188036e-001
1552506.000	-9.658996e-001	2.196598e-001
1558500.000	-9.655931e-001	2.206065e-001
1564494.000	-9.653990e-001	2.212295e-001
1570488.000	-9.650972e-001	2.220808e-001
1576482.000	-9.652369e-001	2.227644e-001
1582476.000	-9.649038e-001	2.237771e-001
1588470.000	-9.646426e-001	2.246602e-001
1594464.000	-9.645419e-001	2.254110e-001
1600458.000	-9.642448e-001	2.260533e-001
1606452.000	-9.640860e-001	2.269312e-001
1612446.000	-9.638165e-001	2.275928e-001
1618440.000	-9.637129e-001	2.284887e-001
1624434.000	-9.636533e-001	2.293205e-001
1630428.000	-9.633307e-001	2.301363e-001
1636422.000	-9.630995e-001	2.309941e-001
1642416.000	-9.628672e-001	2.318125e-001
1648410.000	-9.627030e-001	2.327249e-001
1654404.000	-9.625717e-001	2.335701e-001
1660398.000	-9.623651e-001	2.343878e-001
1666392.000	-9.621896e-001	2.350519e-001
1672386.000	-9.619866e-001	2.357493e-001
1678380.000	-9.616804e-001	2.367311e-001
1684374.000	-9.614558e-001	2.374356e-001
1690368.000	-9.613546e-001	2.383375e-001
1696362.000	-9.610587e-001	2.389638e-001
1702356.000	-9.608815e-001	2.398765e-001
1708350.000	-9.607181e-001	2.407024e-001
1714344.000	-9.603982e-001	2.412933e-001
1720338.000	-9.601913e-001	2.422591e-001
1726332.000	-9.599200e-001	2.429798e-001
1732326.000	-9.598900e-001	2.439188e-001
1738320.000	-9.596199e-001	2.446713e-001
1744314.000	-9.593813e-001	2.454143e-001
1750308.000	-9.591821e-001	2.463168e-001
1756302.000	-9.589600e-001	2.470094e-001
1762296.000	-9.587053e-001	2.477785e-001
1768290.000	-9.584823e-001	2.486490e-001
1774284.000	-9.583279e-001	2.494554e-001
1780278.000	-9.579801e-001	2.503819e-001
1786272.000	-9.577976e-001	2.510060e-001
1792266.000	-9.577053e-001	2.520040e-001
1798260.000	-9.573762e-001	2.526245e-001
1804254.000	-9.571834e-001	2.534045e-001
1810248.000	-9.569233e-001	2.542228e-001
1816242.000	-9.566548e-001	2.550478e-001
1822236.000	-9.565505e-001	2.558201e-001
1828230.000	-9.563717e-001	2.567534e-001
1834224.000	-9.561633e-001	2.574082e-001
1840218.000	-9.559484e-001	2.582988e-001
1846212.000	-9.556360e-001	2.590981e-001
1852206.000	-9.554958e-001	2.599284e-001
1858200.000	-9.553360e-001	2.606871e-001
1864194.000	-9.549917e-001	2.614325e-001
1870188.000	-9.547294e-001	2.622448e-001
1876182.000	-9.545093e-001	2.629572e-001
1882176.000	-9.542676e-001	2.637952e-001
1888170.000	-9.542316e-001	2.646812e-001
1894164.000	-9.538646e-001	2.654053e-001
1900158.000	-9.535594e-001	2.663341e-001
1906152.000	-9.534016e-001	2.670030e-001
1912146.000	-9.531592e-001	2.677576e-001
1918140.000	-9.529883e-001	2.685836e-001
1924134.000	-9.525867e-001	2.693627e-001
1930128.000	-9.524319e-001	2.702095e-001
1936122.000	-9.522979e-001	2.709294e-001
1942116.000	-9.521248e-001	2.717997e-001
1948110.000	-9.517286e-001	2.725261e-001
1954104.000	-9.515758e-001	2.734831e-001
1960098.000	-9.512805e-001	2.741440e-001
1966092.000	-9.510350e-001	2.750720e-001
1972086.000	-9.507413e-001	2.758099e-001
1978080.000	-9.506961e-001	2.766308e-001
1984074.000	-9.504696e-001	2.772140e-001
1990068.000	-9.502268e-001	2.780911e-001
1996062.000	-9.500212e-001	2.788667e-001
2002056.000	-9.496104e-001	2.796385e-001
2008050.000	-9.493581e-001	2.804832e-001
2014044.000	-9.489946e-001	2.812806e-001
2020038.000	-9.489335e-001	2.820894e-001
2026032.000	-9.487487e-001	2.830291e-001
2032026.000	-9.483584e-001	2.836285e-001
2038020.000	-9.482388e-001	2.844664e-001
2044014.000	-9.479607e-001	2.851607e-001
2050008.000	-9.476023e-001	2.859601e-001
2056002.000	-9.475126e-001	2.868257e-001
2061996.000	-9.471047e-001	2.874905e-001
2067990.000	-9.468672e-001	2.882758e-001
2073984.000	-9.466958e-001	2.890289e-001
2079978.000	-9.465262e-001	2.899528e-001
2085972.000	-9.461496e-001	2.905871e-001
2091966.000	-9.460391e-001	2.915150e-001
2097960.000	-9.457282e-001	2.923086e-001
2103954.000	-9.455027e-001	2.930828e-001
2109948.000	-9.453126e-001	2.937849e-001
2115942.000	-9.450925e-001	2.946335e-001
2121936.000	-9.446744e-001	2.953813e-001
2127930.000	-9.444234e-001	2.961078e-001
2133924.000	-9.442527e-001	2.970158e-001
2139918.000	-9.440202e-001	2.977429e-001
2145912.000	-9.437856e-001	2.985065e-001
2151906.000	-9.434305e-001	2.991434e-001
2157900.000	-9.430974e-001	3.002185e-001
2163894.000	-9.429310e-001	3.007740e-001
2169888.000	-9.426743e-001	3.014507e-001
2175882.000	-9.424113e-001	3.024239e-001
2181876.000	-9.422743e-001	3.032736e-001
2187870.000	-9.418881e-001	3.039990e-001
2193864.000	-9.417559e-001	3.047399e-001
2199858.000	-9.413822e-001	3.055278e-001
2205852.000	-9.411213e-001	3.063284e-001
2211846.000	-9.409247e-001	3.072494e-001
2217840.000	-9.405419e-001	3.078386e-001
2223834.000	-9.404545e-001	3.086065e-001
2229828.000	-9.401440e-001	3.095061e-001
2235822.000	-9.398722e-001	3.102877e-001
2241816.000	-9.396659e-001	3.109485e-001
2247810.000	-9.394640e-001	3.119356e-001
2253804.000	-9.391969e-001	3.125948e-001
2259798.000	-9.386960e-001	3.133805e-001
2265792.000	-9.385331e-001	3.141377e-001
2271786.000	-9.382551e-001	3.148765e-001
2277780.000	-9.379874e-001	3.156539e-001
2283774.000	-9.376775e-001	3.164544e-001
2289768.000	-9.374693e-001	3.171757e-001
2295762.000	-9.371567e-001	3.182073e-001
2301756.000	-9.368635e-001	3.186879e-001
2307750.000	-9.365899e-001	3.194544e-001
2313744.000	-9.362915e-001	3.202801e-001
2319738.000	-9.360790e-001	3.211224e-001
2325732.000	-9.359395e-001	3.218839e-001
2331726.000	-9.354964e-001	3.226116e-001
2337720.000	-9.352418e-001	3.234220e-001
2343714.000	-9.350044e-001	3.242676e-001
2349708.000	-9.348304e-001	3.249458e-001
2355702.000	-9.345203e-001	3.257026e-001
2361696.000	-9.343193e-001	3.266080e-001
2367690.000	-9.339863e-001	3.271308e-001
2373684.000	-9.337151e-001	3.278885e-001
2379678.000	-9.334717e-001	3.287740e-001
2385672.000	-9.331962e-001	3.295474e-001
2391666.000	-9.328609e-001	3.302574e-001
2397660.000	-9.326066e-001	3.311662e-001
2403654.000	-9.323537e-001	3.319296e-001
2409648.000	-9.321473e-001	3.327063e-001
2415642.000	-9.317324e-001	3.332244e-001
2421636.000	-9.314001e-001	3.342068e-001
2427630.000	-9.312425e-001	3.349257e-001
2433624.000	-9.309643e-001	3.355113e-001
2439618.000	-9.306226e-001	3.363649e-001
2445612.000	-9.303677e-001	3.372047e-001
2451606.000	-9.301303e-001	3.379665e-001
2457600.000	-9.299123e-001	3.386279e-001
2463594.000	-9.295490e-001	3.395141e-001
2469588.000	-9.292105e-001	3.402279e-001
2475582.000	-9.287894e-001	3.409134e-001
2481576.000	-9.285981e-001	3.416010e-001
2487570.000	-9.282797e-001	3.424528e-001
2493564.000	-9.280124e-001	3.432324e-001
2499558.000	-9.278538e-001	3.439984e-001
2505552.000	-9.274168e-001	3.448702e-001
2511546.000	-9.271896e-001	3.456799e-001
2517540.000	-9.269138e-001	3.462340e-001
2523534.000	-9.267088e-001	3.469814e-001
2529528.000	-9.262382e-001	3.477583e-001
2535522.000	-9.260267e-001	3.484937e-001
2541516.000	-9.257060e-001	3.492219e-001
2547510.000	-9.255527e-001	3.500384e-001
2553504.000	-9.251989e-001	3.508672e-001
2559498.000	-9.248987e-001	3.516787e-001
2565492.000	-9.244472e-001	3.522616e-001
2571486.000	-9.242097e-001	3.530764e-001
2577480.000	-9.240460e-001	3.539135e-001
2583474.000	-9.238659e-001	3.546190e-001
2589468.000	-9.234369e-001	3.553408e-001
2595462.000	-9.228856e-001	3.562697e-001
2601456.000	-9.228095e-001	3.570152e-001
2607450.000	-9.225968e-001	3.576891e-001
2613444.000	-9.221607e-001	3.583849e-001
2619438.000	-9.218526e-001	3.592795e-001
2625432.000	-9.216184e-001	3.599539e-001
2631426.000	-9.212735e-001	3.607401e-001
2637420.000	-9.210422e-001	3.614280e-001
2643414.000	-9.206926e-001	3.621677e-001
2649408.000	-9.203098e-001	3.628393e-001
2655402.000	-9.201158e-001	3.635536e-001
2661396.000	-9.198124e-001	3.644034e-001
2667390.000	-9.194644e-001	3.652093e-001
2673384.000	-9.193198e-001	3.660585e-001
2679378.000	-9.189354e-001	3.667045e-001
2685372.000	-9.186066e-001	3.674488e-001
2691366.000	-9.182205e-001	3.681691e-001
2697360.000	-9.179710e-001	3.689331e-001
2703354.000	-9.175960e-001	3.695442e-001
2709348.000	-9.172789e-001	3.703368e-001
2715342.000	-9.169513e-001	3.710041e-001
2721336.000	-9.167818e-001	3.719630e-001
2727330.000	-9.165279e-001	3.727214e-001
2733324.000	-9.161798e-001	3.733446e-001
2739318.000	-9.158946e-001	3.741472e-001
2745312.000	-9.155525e-001	3.749646e-001
2751306.000	-9.152100e-001	3.756492e-001
2757300.000	-9.148665e-001	3.765246e-001
2763294.000	-9.145275e-001	3.772121e-001
2769288.000	-9.144122e-001	3.780946e-001
2775282.000	-9.138692e-001	3.784806e-001
2781276.000	-9.136688e-001	3.792334e-001
2787270.000	-9.133626e-001	3.798983e-001
2793264.000	-9.131266e-001	3.808484e-001
2799258.000	-9.126519e-001	3.815335e-001
2805252.000	-9.124849e-001	3.823711e-001
2811246.000	-9.120735e-001	3.831478e-001
2817240.000	-9.118633e-001	3.838483e-001
2823234.000	-9.115093e-001	3.845775e-001
2829228.000	-9.109889e-001	3.853472e-001
2835222.000	-9.108286e-001	3.859542e-001
2841216.000	-9.104759e-001	3.867256e-001
2847210.000	-9.101065e-001	3.874309e-001
2853204.000	-9.098951e-001	3.882186e-001
2859198.000	-9.094842e-001	3.888680e-001
2865192.000	-9.092187e-001	3.895850e-001
2871186.000	-9.088623e-001	3.904059e-001
2877180.000	-9.085393e-001	3.910476e-001
2883174.000	-9.081896e-001	3.919384e-001
2889168.000	-9.078902e-001	3.926473e-001
2895162.000	-9.077422e-001	3.934594e-001
2901156.000	-9.073810e-001	3.943148e-001
2907150.000	-9.070408e-001	3.950181e-001
2913144.000	-9.067323e-001	3.955599e-001
2919138.000	-9.062088e-001	3.962643e-001
2925132.000	-9.059125e-001	3.970524e-001
2931126.000	-9.057492e-001	3.978206e-001
2937120.000	-9.053334e-001	3.985705e-001
2943114.000	-9.051436e-001	3.991883e-001
2949108.000	-9.046488e-001	3.999662e-001
2955102.000	-9.042791e-001	4.007595e-001
2961096.000	-9.039598e-001	4.013590e-001
2967090.000	-9.035897e-001	4.021503e-001
2973084.000	-9.034426e-001	4.031306e-001
2979078.000	-9.028680e-001	4.035663e-001
2985072.000	-9.027776e-001	4.044666e-001
2991066.000	-9.024606e-001	4.051740e-001
2997060.000	-9.019184e-001	4.058148e-001
3003054.000	-9.017197e-001	4.065969e-001
3009048.000	-9.012809e-001	4.071301e-001
3015042.000	-9.010085e-001	4.079092e-001
3021036.000	-9.006736e-001	4.088219e-001
3027030.000	-9.003747e-001	4.094342e-001
3033024.000	-8.999758e-001	4.101829e-001
3039018.000	-8.997134e-001	4.108842e-001
3045012.000	-8.993979e-001	4.116783e-001
3051006.000	-8.990552e-001	4.123276e-001
3057000.000	-8.986842e-001	4.130382e-001
3062994.000	-8.984173e-001	4.137453e-001
3068988.000	-8.980118e-001	4.144587e-001
3074982.000	-8.975647e-001	4.151614e-001
3080976.000	-8.972199e-001	4.159877e-001
3086970.000	-8.971226e-001	4.166846e-001
3092964.000	-8.967079e-001	4.174144e-001
3098958.000	-8.963215e-001	4.181751e-001
3104952.000	-8.959283e-001	4.187134e-001
3110946.000	-8.957241e-001	4.195818e-001
3116940.000	-8.952403e-001	4.203394e-001
3122934.000	-8.948258e-001	4.209471e-001
3128928.000	-8.945308e-001	4.217151e-001
3134922.000	-8.940577e-001	4.224015e-001
3140916.000	-8.938652e-001	4.232241e-001
3146910.000	-8.936228e-001	4.240150e-001
3152904.000	-8.932231e-001	4.245761e-001
3158898.000	-8.928679e-001	4.254395e-001
3164892.000	-8.924175e-001	4.260724e-001
3170886.000	-8.920942e-001	4.267628e-001
3176880.000	-8.918541e-001	4.275668e-001
3182874.000	-8.914522e-001	4.282254e-001
3188868.000	-8.910077e-001	4.289925e-001
3194862.000	-8.908105e-001	4.297257e-001
3200856.000	-8.904621e-001	4.302832e-001
3206850.000	-8.901807e-001	4.311133e-001
3212844.000	-8.895304e-001	4.317020e-001
3218838.000	-8.892054e-001	4.324039e-001
3224832.000	-8.890736e-001	4.333821e-001
3230826.000	-8.885899e-001	4.338640e-001
3236820.000	-8.883561e-001	4.346892e-001
3242814.000	-8.880375e-001	4.353711e-001
3248808.000	-8.875741e-001	4.361198e-001
3254802.000	-8.871528e-001	4.368546e-001
3260796.000	-8.869147e-001	4.373620e-001
3266790.000	-8.865803e-001	4.383077e-001
3272784.000	-8.861442e-001	4.388355e-001
3278778.000	-8.857688e-001	4.395399e-001
3284772.000	-8.854855e-001	4.403621e-001
3290766.000	-8.849967e-001	4.410563e-001
3296760.000	-8.846964e-001	4.418016e-001
3302754.000	-8.844385e-001	4.424011e-001
3308748.000	-8.839987e-001	4.431090e-001
3314742.000	-8.836174e-001	4.437742e-001
3320736.000	-8.832344e-001	4.444912e-001
3326730.000	-8.828630e-001	4.451961e-001
3332724.000	-8.825364e-001	4.458514e-001
3338718.000	-8.822270e-001	4.467204e-001
3344712.000	-8.817809e-001	4.475100e-001
3350706.000	-8.814776e-001	4.479413e-001
3356700.000	-8.811636e-001	4.486554e-001
3362694.000	-8.808062e-001	4.494338e-001
3368688.000	-8.803775e-001	4.501983e-001
3374682.000	-8.801083e-001	4.508795e-001
3380676.000	-8.797562e-001	4.517477e-001
3386670.000	-8.792853e-001	4.524537e-001
3392664.000	-8.788816e-001	4.530513e-001
3398658.000	-8.785643e-001	4.536827e-001
3404652.000	-8.781001e-001	4.543484e-001
3410646.000	-8.779127e-001	4.550286e-001
3416640.000	-8.775110e-001	4.557557e-001
3422634.000	-8.770282e-001	4.563359e-001
3428628.000	-8.766887e-001	4.572115e-001
3434622.000	-8.763245e-001	4.578045e-001
3440616.000	-8.760055e-001	4.586544e-001
3446610.000	-8.756563e-001	4.593237e-001
3452604.000	-8.754100e-001	4.598714e-001
3458598.000	-8.748957e-001	4.605515e-001
3464592.000	-8.744992e-001	4.612514e-001
3470586.000	-8.741847e-001	4.621778e-001
3476580.000	-8.735790e-001	4.626679e-001
3482574.000	-8.733484e-001	4.634126e-001
3488568.000	-8.730312e-001	4.640615e-001
3494562.000	-8.725325e-001	4.649269e-001
3500556.000	-8.722381e-001	4.654265e-001
3506550.000	-8.719348e-001	4.661836e-001
3512544.000	-8.714467e-001	4.669829e-001
3518538.000	-8.711836e-001	4.676171e-001
3524532.000	-8.707787e-001	4.683030e-001
3530526.000	-8.704037e-001	4.689300e-001
3536520.000	-8.701464e-001	4.697892e-001
3542514.000	-8.695118e-001	4.703175e-001
3548508.000	-8.691895e-001	4.710794e-001
3554502.000	-8.687136e-001	4.717720e-001
3560496.000	-8.685262e-001	4.723840e-001
3566490.000	-8.682166e-001	4.731921e-001
3572484.000	-8.676938e-001	4.737297e-001
3578478.000	-8.673284e-001	4.744649e-001
3584472.000	-8.669320e-001	4.751999e-001
3590466.000	-8.666000e-001	4.757837e-001
3596460.000	-8.662426e-001	4.763530e-001
3602454.000	-8.657860e-001	4.770407e-001
3608448.000	-8.652463e-001	4.778116e-001
3614442.000	-8.651494e-001	4.786034e-001
3620436.000	-8.645971e-001	4.793600e-001
3626430.000	-8.643080e-001	4.797949e-001
3632424.000	-8.639491e-001	4.806824e-001
3638418.000	-8.634673e-001	4.813097e-001
3644412.000	-8.631170e-001	4.820027e-001
3650406.000	-8.627534e-001	4.826923e-001
3656400.000	-8.622915e-001	4.832936e-001
3662394.000	-8.620042e-001	4.840402e-001
3668388.000	-8.616287e-001	4.848801e-001
3674382.000	-8.611484e-001	4.853832e-001
3680376.000	-8.609048e-001	4.861180e-001
3686370.000	-8.605372e-001	4.867435e-001
3692364.000	-8.601400e-001	4.875812e-001
3698358.000	-8.597652e-001	4.881725e-001
3704352.000	-8.592495e-001	4.887480e-001
3710346.000	-8.588479e-001	4.894314e-001
3716340.000	-8.584901e-001	4.901861e-001
3722334.000	-8.580908e-001	4.907003e-001
3728328.000	-8.576641e-001	4.914838e-001
3734322.000	-8.573767e-001	4.921284e-001
3740316.000	-8.570984e-001	4.929211e-001
3746310.000	-8.566187e-001	4.933717e-001
3752304.000	-8.561760e-001	4.941653e-001
3758298.000	-8.557776e-001	4.948185e-001
3764292.000	-8.551893e-001	4.955056e-001
3770286.000	-8.549911e-001	4.962016e-001
3776280.000	-8.546566e-001	4.968775e-001
3782274.000	-8.540943e-001	4.976270e-001
3788268.000	-8.538702e-001	4.982097e-001
3794262.000	-8.534643e-001	4.989642e-001
3800256.000	-8.529733e-001	4.994094e-001
3806250.000	-8.526544e-001	5.003432e-001
3812244.000	-8.521942e-001	5.009789e-001
3818238.000	-8.518822e-001	5.016046e-001
3824232.000	-8.513626e-001	5.022977e-001
3830226.000	-8.510491e-001	5.029495e-001
3836220.000	-8.506080e-001	5.036436e-001
3842214.000	-8.502329e-001	5.042238e-001
3848208.000	-8.497924e-001	5.048501e-001
3854202.000	-8.493756e-001	5.054200e-001
3860196.000	-8.489300e-001	5.063302e-001
3866190.000	-8.485303e-001	5.069416e-001
3872184.000	-8.481394e-001	5.075760e-001
3878178.000	-8.477891e-001	5.082712e-001
3884172.000	-8.475001e-001	5.090020e-001
3890166.000	-8.469026e-001	5.095109e-001
3896160.000	-8.465427e-001	5.101415e-001
3902154.000	-8.462006e-001	5.108025e-001
3908148.000	-8.457779e-001	5.114765e-001
3914142.000	-8.452920e-001	5.121573e-001
3920136.000	-8.450217e-001	5.129146e-001
3926130.000	-8.444642e-001	5.135200e-001
3932124.000	-8.441423e-001	5.142743e-001
3938118.000	-8.437650e-001	5.148789e-001
3944112.000	-8.432757e-001	5.154520e-001
3950106.000	-8.429139e-001	5.162225e-001
3956100.000	-8.425485e-001	5.168256e-001
3962094.000	-8.420918e-001	5.174711e-001
3968088.000	-8.417394e-001	5.180808e-001
3974082.000	-8.413633e-001	5.187809e-001
3980076.000	-8.407396e-001	5.194706e-001
3986070.000	-8.405529e-001	5.199630e-001
3992064.000	-8.401439e-001	5.207046e-001
3998058.000	-8.396130e-001	5.212546e-001
4004052.000	-8.392612e-001	5.220897e-001
4010046.000	-8.389338e-001	5.227377e-001
4016040.000	-8.384783e-001	5.235382e-001
4022034.000	-8.378704e-001	5.239523e-001
4028028.000	-8.375662e-001	5.245531e-001
4034022.000	-8.371195e-001	5.253884e-001
4040016.000	-8.367940e-001	5.260776e-001
4046010.000	-8.363234e-001	5.266906e-001
4052004.000	-8.358869e-001	5.274541e-001
4057998.000	-8.355586e-001	5.280582e-001
4063992.000	-8.350069e-001	5.286673e-001
4069986.000	-8.346292e-001	5.291782e-001
4075980.000	-8.342131e-001	5.297817e-001
4081974.000	-8.338911e-001	5.305315e-001
4087968.000	-8.334403e-001	5.312065e-001
4093962.000	-8.329627e-001	5.317992e-001
4099956.000	-8.325990e-001	5.325784e-001
4105950.000	-8.322814e-001	5.331423e-001
4111944.000	-8.318612e-001	5.338569e-001
4117938.000	-8.314272e-001	5.345919e-001
4123932.000	-8.310101e-001	5.350458e-001
4129926.000	-8.305356e-001	5.358078e-001
4135920.000	-8.300614e-001	5.364405e-001
4141914.000	-8.296976e-001	5.370623e-001
4147908.000	-8.293651e-001	5.375485e-001
4153902.000	-8.288112e-001	5.382586e-001
4159896.000	-8.284314e-001	5.390099e-001
4165890.000	-8.280370e-001	5.396719e-001
4171884.000	-8.276704e-001	5.402811e-001
4177878.000	-8.270252e-001	5.407192e-001
4183872.000	-8.267345e-001	5.414821e-001
4189866.000	-8.265313e-001	5.422630e-001
4195860.000	-8.259468e-001	5.428576e-001
4201854.000	-8.253569e-001	5.433158e-001
4207848.000	-8.251187e-001	5.441072e-001
4213842.000	-8.245571e-001	5.446290e-001
4219836.000	-8.241139e-001	5.453036e-001
4225830.000	-8.237688e-001	5.458879e-001
4231824.000	-8.233130e-001	5.467102e-001
4237818.000	-8.229692e-001	5.471555e-001
4243812.000	-8.224787e-001	5.476475e-001
4249806.000	-8.220550e-001	5.485130e-001
4255800.000	-8.216186e-001	5.491979e-001
4261794.000	-8.211120e-001	5.499011e-001
4267788.000	-8.208492e-001	5.505648e-001
4273782.000	-8.202427e-001	5.510398e-001
4279776.000	-8.200025e-001	5.518392e-001
4285770.000	-8.193913e-001	5.523306e-001
4291764.000	-8.190397e-001	5.529934e-001
4297758.000	-8.186600e-001	5.536686e-001
4303752.000	-8.181772e-001	5.543850e-001
4309746.000	-8.177750e-001	5.548231e-001
4315740.000	-8.171329e-001	5.554463e-001
4321734.000	-8.168761e-001	5.562367e-001
4327728.000	-8.165154e-001	5.569542e-001
4333722.000	-8.159838e-001	5.573791e-001
4339716.000	-8.156678e-001	5.580498e-001
4345710.000	-8.151793e-001	5.586960e-001
4351704.000	-8.146959e-001	5.592425e-001
4357698.000	-8.143441e-001	5.598469e-001
4363692.000	-8.138191e-001	5.604139e-001
4369686.000	-8.132886e-001	5.611987e-001
4375680.000	-8.129405e-001	5.617791e-001
4381674.000	-8.126072e-001	5.623635e-001
4387668.000	-8.120863e-001	5.630681e-001
4393662.000	-8.116574e-001	5.635671e-001
4399656.000	-8.113017e-001	5.642460e-001
4405650.000	-8.108979e-001	5.648403e-001
4411644.000	-8.104680e-001	5.653947e-001
4417638.000	-8.099846e-001	5.661918e-001
4423632.000	-8.095063e-001	5.669493e-001
4429626.000	-8.090995e-001	5.672991e-001
4435620.000	-8.085381e-001	5.681365e-001
4441614.000	-8.081652e-001	5.685874e-001
4447608.000	-8.077669e-001	5.691768e-001
4453602.000	-8.071320e-001	5.697194e-001
4459596.000	-8.068015e-001	5.705012e-001
4465590.000	-8.063317e-001	5.710093e-001
4471584.000	-8.060271e-001	5.716193e-001
4477578.000	-8.055665e-001	5.722773e-001
4483572.000	-8.050598e-001	5.729855e-001
4489566.000	-8.047357e-001	5.734607e-001
4495560.000	-8.042084e-001	5.740229e-001
4501554.000	-8.036870e-001	5.748502e-001
4507548.000	-8.034646e-001	5.754458e-001
4513542.000	-8.027980e-001	5.759369e-001
4519536.000	-8.024763e-001	5.766763e-001
4525530.000	-8.019375e-001	5.772276e-001
4531524.000	-8.014677e-001	5.778895e-001
4537518.000	-8.011002e-001	5.784471e-001
4543512.000	-8.007662e-001	5.790300e-001
4549506.000	-8.001611e-001	5.795221e-001
4555500.000	-7.997275e-001	5.802358e-001
4561494.000	-7.991940e-001	5.808873e-001
4567488.000	-7.988864e-001	5.814108e-001
4573482.000	-7.985083e-001	5.821906e-001
4579476.000	-7.978492e-001	5.826246e-001
4585470.000	-7.975838e-001	5.834137e-001
4591464.000	-7.969823e-001	5.837913e-001
4597458.000	-7.967091e-001	5.846080e-001
4603452.000	-7.961652e-001	5.850653e-001
4609446.000	-7.956889e-001	5.857521e-001
4615440.000	-7.951422e-001	5.863349e-001
4621434.000	-7.947948e-001	5.870440e-001
4627428.000	-7.943484e-001	5.875467e-001
4633422.000	-7.938299e-001	5.882799e-001
4639416.000	-7.935556e-001	5.886313e-001
4645410.000	-7.930177e-001	5.893955e-001
4651404.000	-7.926755e-001	5.901630e-001
4657398.000	-7.922285e-001	5.907916e-001
4663392.000	-7.916798e-001	5.912629e-001
4669386.000	-7.913326e-001	5.919197e-001
4675380.000	-7.906538e-001	5.923748e-001
4681374.000	-7.901548e-001	5.929489e-001
4687368.000	-7.898888e-001	5.936868e-001
4693362.000	-7.895151e-001	5.941745e-001
4699356.000	-7.890417e-001	5.948769e-001
4705350.000	-7.885143e-001	5.954229e-001
4711344.000	-7.879915e-001	5.959517e-001
4717338.000	-7.874790e-001	5.965955e-001
4723332.000	-7.870793e-001	5.971632e-001
4729326.000	-7.865828e-001	5.978437e-001
4735320.000	-7.861647e-001	5.983327e-001
4741314.000	-7.857072e-001	5.989734e-001
4747308.000	-7.852144e-001	5.994291e-001
4753302.000	-7.848056e-001	6.001870e-001
4759296.000	-7.844074e-001	6.007942e-001
4765290.000	-7.838307e-001	6.011483e-001
4771284.000	-7.834492e-001	6.019881e-001
4777278.000	-7.830021e-001	6.025505e-001
4783272.000	-7.826276e-001	6.029708e-001
4789266.000	-7.820667e-001	6.037575e-001
4795260.000	-7.816324e-001	6.042779e-001
4801254.000	-7.811841e-001	6.048637e-001
4807248.000	-7.806555e-001	6.054914e-001
4813242.000	-7.803113e-001	6.061044e-001
4819236.000	-7.798406e-001	6.065184e-001
4825230.000	-7.791986e-001	6.071065e-001
4831224.000	-7.788390e-001	6.077545e-001
4837218.000	-7.784786e-001	6.083085e-001
4843212.000	-7.780216e-001	6.089996e-001
4849206.000	-7.774018e-001	6.095227e-001
4855200.000	-7.768389e-001	6.100736e-001
4861194.000	-7.766466e-001	6.106162e-001
4867188.000	-7.761701e-001	6.112433e-001
4873182.000	-7.757825e-001	6.119665e-001
4879176.000	-7.752497e-001	6.124427e-001
4885170.000	-7.746270e-001	6.129713e-001
4891164.000	-7.741878e-001	6.135762e-001
4897158.000	-7.738173e-001	6.141903e-001
4903152.000	-7.733307e-001	6.148068e-001
4909146.000	-7.728948e-001	6.154441e-001
4915140.000	-7.723473e-001	6.159272e-001
4921134.000	-7.718927e-001	6.166323e-001
4927128.000	-7.715207e-001	6.170917e-001
4933122.000	-7.708824e-001	6.176946e-001
4939116.000	-7.705662e-001	6.183655e-001
4945110.000	-7.700346e-001	6.189908e-001
4951104.000	-7.695910e-001	6.194311e-001
4957098.000	-7.691166e-001	6.199920e-001
4963092.000	-7.687216e-001	6.205662e-001
4969086.000	-7.683334e-001	6.211382e-001
4975080.000	-7.677582e-001	6.219891e-001
4981074.000	-7.672059e-001	6.220953e-001
4987068.000	-7.667133e-001	6.229089e-001
4993062.000	-7.664882e-001	6.232746e-001
4999056.000	-7.658909e-001	6.239942e-001
5005050.000	-7.654119e-001	6.246118e-001
5011044.000	-7.648436e-001	6.251100e-001
5017038.000	-7.644034e-001	6.258106e-001
5023032.000	-7.640748e-001	6.265568e-001
5029026.000	-7.634089e-001	6.270075e-001
5035020.000	-7.628749e-001	6.273884e-001
5041014.000	-7.626286e-001	6.281969e-001
5047008.000	-7.620729e-001	6.287411e-001
5053002.000	-7.615568e-001	6.293587e-001
5058996.000	-7.610408e-001	6.298963e-001
5064990.000	-7.607013e-001	6.304672e-001
5070984.000	-7.600808e-001	6.309015e-001
5076978.000	-7.597605e-001	6.314134e-001
5082972.000	-7.592053e-001	6.321208e-001
5088966.000	-7.587425e-001	6.326446e-001
5094960.000	-7.582904e-001	6.330648e-001
5100954.000	-7.576846e-001	6.338005e-001
5106948.000	-7.573688e-001	6.343242e-001
5112942.000	-7.568087e-001	6.348439e-001
5118936.000	-7.564586e-001	6.354465e-001
5124930.000	-7.559775e-001	6.360553e-001
5130924.000	-7.553960e-001	6.363824e-001
5136918.000	-7.548697e-001	6.370687e-001
5142912.000	-7.544190e-001	6.374201e-001
5148906.000	-7.539924e-001	6.381508e-001
5154900.000	-7.535030e-001	6.386259e-001
5160894.000	-7.529967e-001	6.392990e-001
5166888.000	-7.525048e-001	6.398075e-001
5172882.000	-7.520049e-001	6.402655e-001
5178876.000	-7.516157e-001	6.409327e-001
5184870.000	-7.511197e-001	6.414646e-001
5190864.000	-7.506515e-001	6.422280e-001
5196858.000	-7.500008e-001	6.426504e-001
5202852.000	-7.496442e-001	6.431587e-001
5208846.000	-7.491726e-001	6.437158e-001
5214840.000	-7.488622e-001	6.443314e-001
5220834.000	-7.482721e-001	6.449583e-001
5226828.000	-7.478021e-001	6.455156e-001
5232822.000	-7.472934e-001	6.460678e-001
5238816.000	-7.468643e-001	6.464844e-001
5244810.000	-7.463966e-001	6.471999e-001
5250804.000	-7.457660e-001	6.477217e-001
5256798.000	-7.454800e-001	6.482580e-001
5262792.000	-7.449691e-001	6.487302e-001
5268786.000	-7.444222e-001	6.491723e-001
5274780.000	-7.439691e-001	6.498962e-001
5280774.000	-7.434856e-001	6.505173e-001
5286768.000	-7.430517e-001	6.511128e-001
5292762.000	-7.424116e-001	6.515395e-001
5298756.000	-7.419058e-001	6.518216e-001
5304750.000	-7.415511e-001	6.526316e-001
5310744.000	-7.409400e-001	6.530796e-001
5316738.000	-7.404942e-001	6.537065e-001
5322732.000	-7.400209e-001	6.543046e-001
5328726.000	-7.394998e-001	6.546258e-001
5334720.000	-7.391207e-001	6.553670e-001
5340714.000	-7.384728e-001	6.558073e-001
5346708.000	-7.381230e-001	6.564909e-001
5352702.000	-7.374894e-001	6.569305e-001
5358696.000	-7.370894e-001	6.574655e-001
5364690.000	-7.365800e-001	6.579451e-001
5370684.000	-7.362084e-001	6.586487e-001
5376678.000	-7.357342e-001	6.591680e-001
5382672.000	-7.352762e-001	6.597857e-001
5388666.000	-7.347022e-001	6.600537e-001
5394660.000	-7.341628e-001	6.607605e-001
5400654.000	-7.336857e-001	6.612783e-001
5406648.000	-7.332388e-001	6.618303e-001
5412642.000	-7.327339e-001	6.624884e-001
5418636.000	-7.323238e-001	6.628069e-001
5424630.000	-7.318004e-001	6.633448e-001
5430624.000	-7.313209e-001	6.638114e-001
5436618.000	-7.307872e-001	6.644266e-001
5442612.000	-7.303332e-001	6.649412e-001
5448606.000	-7.297481e-001	6.657064e-001
5454600.000	-7.293124e-001	6.662067e-001
5460594.000	-7.288657e-001	6.667386e-001
5466588.000	-7.284337e-001	6.672666e-001
5472582.000	-7.277759e-001	6.676207e-001
5478576.000	-7.272968e-001	6.682812e-001
5484570.000	-7.267575e-001	6.686817e-001
5490564.000	-7.263223e-001	6.693691e-001
5496558.000	-7.258849e-001	6.698171e-001
5502552.000	-7.254553e-001	6.703020e-001
5508546.000	-7.247976e-001	6.707496e-001
5514540.000	-7.244046e-001	6.714421e-001
5520534.000	-7.239817e-001	6.720134e-001
5526528.000	-7.234235e-001	6.724803e-001
5532522.000	-7.228886e-001	6.729624e-001
5538516.000	-7.224106e-001	6.736089e-001
5544510.000	-7.219858e-001	6.740131e-001
5550504.000	-7.214138e-001	6.746222e-001
5556498.000	-7.208632e-001	6.752125e-001
5562492.000	-7.205323e-001	6.756331e-001
5568486.000	-7.198615e-001	6.760712e-001
5574480.000	-7.194176e-001	6.767581e-001
5580474.000	-7.189942e-001	6.771608e-001
5586468.000	-7.183900e-001	6.777023e-001
5592462.000	-7.180820e-001	6.783639e-001
5598456.000	-7.173694e-001	6.787238e-001
5604450.000	-7.169105e-001	6.792874e-001
5610444.000	-7.164961e-001	6.799303e-001
5616438.000	-7.160404e-001	6.802453e-001
5622432.000	-7.154771e-001	6.809059e-001
5628426.000	-7.150037e-001	6.813197e-001
5634420.000	-7.144483e-001	6.818921e-001
5640414.000	-7.138756e-001	6.824105e-001
5646408.000	-7.134553e-001	6.829862e-001
5652402.000	-7.128765e-001	6.834884e-001
5658396.000	-7.126362e-001	6.840428e-001
5664390.000	-7.120151e-001	6.844194e-001
5670384.000	-7.115180e-001	6.851018e-001
5676378.000	-7.109268e-001	6.855337e-001
5682372.000	-7.105831e-001	6.862657e-001
5688366.000	-7.100443e-001	6.865411e-001
5694360.000	-7.094657e-001	6.872933e-001
5700354.000	-7.089798e-001	6.875897e-001
5706348.000	-7.086082e-001	6.881110e-001
5712342.000	-7.080503e-001	6.886525e-001
5718336.000	-7.074369e-001	6.891944e-001
5724330.000	-7.069077e-001	6.896602e-001
5730324.000	-7.065283e-001	6.901505e-001
5736318.000	-7.060340e-001	6.909200e-001
5742312.000	-7.055828e-001	6.912669e-001
5748306.000	-7.049521e-001	6.917036e-001
5754300.000	-7.045352e-001	6.920381e-001
5760294.000	-7.041526e-001	6.927092e-001
5766288.000	-7.036724e-001	6.932462e-001
5772282.000	-7.030021e-001	6.937180e-001
5778276.000	-7.025807e-001	6.942608e-001
5784270.000	-7.019729e-001	6.947268e-001
5790264.000	-7.015622e-001	6.951570e-001
5796258.000	-7.010851e-001	6.957102e-001
5802252.000	-7.005198e-001	6.963822e-001
5808246.000	-6.999620e-001	6.967328e-001
5814240.000	-6.995062e-001	6.973275e-001
5820234.000	-6.989275e-001	6.976497e-001
5826228.000	-6.985070e-001	6.983222e-001
5832222.000	-6.980107e-001	6.987506e-001
5838216.000	-6.974225e-001	6.992849e-001
5844210.000	-6.968545e-001	6.998546e-001
5850204.000	-6.964286e-001	7.002173e-001
5856198.000	-6.961006e-001	7.007851e-001
5862192.000	-6.955140e-001	7.014300e-001
5868186.000	-6.949701e-001	7.018163e-001
5874180.000	-6.943562e-001	7.023237e-001
5880174.000	-6.938626e-001	7.028879e-001
5886168.000	-6.932921e-001	7.034187e-001
5892162.000	-6.927982e-001	7.038135e-001
5898156.000	-6.924288e-001	7.043748e-001
5904150.000	-6.918855e-001	7.048620e-001
5910144.000	-6.913254e-001	7.053161e-001
5916138.000	-6.907935e-001	7.058563e-001
5922132.000	-6.903214e-001	7.063679e-001
5928126.000	-6.899275e-001	7.068340e-001
5934120.000	-6.892565e-001	7.072973e-001
5940114.000	-6.888460e-001	7.077475e-001
5946108.000	-6.883520e-001	7.084562e-001
5952102.000	-6.878188e-001	7.088687e-001
5958096.000	-6.872718e-001	7.093595e-001
5964090.000	-6.868831e-001	7.097848e-001
5970084.000	-6.862029e-001	7.101475e-001
5976078.000	-6.857272e-001	7.108249e-001
5982072.000	-6.853259e-001	7.112084e-001
5988066.000	-6.847300e-001	7.118829e-001
5994060.000	-6.842003e-001	7.122433e-001
6000054.000	-6.836778e-001	7.125456e-001
6006048.000	-6.833067e-001	7.131490e-001
6012042.000	-6.826835e-001	7.136507e-001
6018036.000	-6.821548e-001	7.140934e-001
6024030.000	-6.816779e-001	7.145978e-001
6030024.000	-6.811633e-001	7.149526e-001
6036018.000	-6.806344e-001	7.155925e-001
6042012.000	-6.801739e-001	7.161915e-001
6048006.000	-6.795818e-001	7.166605e-001
6054000.000	-6.791036e-001	7.170636e-001
6059994.000	-6.785895e-001	7.175438e-001
6065988.000	-6.780412e-001	7.180797e-001
6071982.000	-6.775127e-001	7.183927e-001
6077976.000	-6.770398e-001	7.188957e-001
6083970.000	-6.765543e-001	7.193675e-001
6089964.000	-6.759679e-001	7.198996e-001
6095958.000	-6.755494e-001	7.202432e-001
6101952.000	-6.750665e-001	7.208490e-001
6107946.000	-6.744871e-001	7.214330e-001
6113940.000	-6.740428e-001	7.219616e-001
6119934.000	-6.734925e-001	7.224090e-001
6125928.000	-6.729011e-001	7.228112e-001
6131922.000	-6.724517e-001	7.233621e-001
6137916.000	-6.720047e-001	7.238207e-001
6143910.000	-6.713994e-001	7.242309e-001
6149904.000	-6.709002e-001	7.248076e-001
6155898.000	-6.703547e-001	7.251623e-001
6161892.000	-6.698257e-001	7.254675e-001
6167886.000	-6.694483e-001	7.261871e-001
6173880.000	-6.690142e-001	7.265801e-001
6179874.000	-6.682941e-001	7.270782e-001
6185868.000	-6.678538e-001	7.275740e-001
6191862.000	-6.672129e-001	7.281428e-001
6197856.000	-6.667287e-001	7.285780e-001
6203850.000	-6.662598e-001	7.289523e-001
6209844.000	-6.658467e-001	7.295021e-001
6215838.000	-6.652656e-001	7.300602e-001
6221832.000	-6.646933e-001	7.304953e-001
6227826.000	-6.641458e-001	7.308457e-001
6233820.000	-6.638637e-001	7.314388e-001
6239814.000	-6.631149e-001	7.318613e-001
6245808.000	-6.626258e-001	7.323961e-001
6251802.000	-6.621391e-001	7.329217e-001
6257796.000	-6.615580e-001	7.333708e-001
6263790.000	-6.611200e-001	7.337373e-001
6269784.000	-6.605138e-001	7.341418e-001
6275778.000	-6.600561e-001	7.347884e-001
6281772.000	-6.595136e-001	7.351578e-001
6287766.000	-6.591131e-001	7.355901e-001
6293760.000	-6.586594e-001	7.360153e-001
6299754.000	-6.580460e-001	7.365507e-001
6305748.000	-6.574776e-001	7.367776e-001
6311742.000	-6.569687e-001	7.373826e-001
6317736.000	-6.563592e-001	7.378017e-001
6323730.000	-6.559434e-001	7.381758e-001
6329724.000	-6.553941e-001	7.387207e-001
6335718.000	-6.549358e-001	7.392228e-001
6341712.000	-6.542294e-001	7.396667e-001
6347706.000	-6.537792e-001	7.402132e-001
6353700.000	-6.531412e-001	7.405798e-001
6359694.000	-6.528208e-001	7.410807e-001
6365688.000	-6.524218e-001	7.415427e-001
6371682.000	-6.516580e-001	7.417721e-001
6377676.000	-6.510655e-001	7.423311e-001
6383670.000	-6.506205e-001	7.428058e-001
6389664.000	-6.501899e-001	7.434838e-001
6395658.000	-6.496545e-001	7.437533e-001
6401652.000	-6.490649e-001	7.442907e-001
6407646.000	-6.486363e-001	7.447089e-001
6413640.000	-6.480540e-001	7.452060e-001
6419634.000	-6.476101e-001	7.456999e-001
6425628.000	-6.469984e-001	7.460567e-001
6431622.000	-6.465334e-001	7.464863e-001
6437616.000	-6.459990e-001	7.469536e-001
6443610.000	-6.454960e-001	7.473854e-001
6449604.000	-6.448282e-001	7.476805e-001
6455598.000	-6.444300e-001	7.483450e-001
6461592.000	-6.440168e-001	7.488100e-001
6467586.000	-6.433833e-001	7.492827e-001
6473580.000	-6.427906e-001	7.496898e-001
6479574.000	-6.423646e-001	7.501527e-001
6485568.000	-6.417691e-001	7.506152e-001
6491562.000	-6.412843e-001	7.508687e-001
6497556.000	-6.407744e-001	7.513384e-001
6503550.000	-6.403122e-001	7.517901e-001
6509544.000	-6.397117e-001	7.523044e-001
6515538.000	-6.392090e-001	7.526230e-001
6521532.000	-6.386946e-001	7.531842e-001
6527526.000	-6.381441e-001	7.537305e-001
6533520.000	-6.375769e-001	7.541508e-001
6539514.000	-6.370213e-001	7.546320e-001
6545508.000	-6.365527e-001	7.550226e-001
6551502.000	-6.360997e-001	7.553693e-001
6557496.000	-6.354901e-001	7.559495e-001
6563490.000	-6.349471e-001	7.562453e-001
6569484.000	-6.344709e-001	7.566521e-001
6575478.000	-6.339567e-001	7.571720e-001
6581472.000	-6.335230e-001	7.575520e-001
6587466.000	-6.329402e-001	7.579769e-001
6593460.000	-6.323102e-001	7.585246e-001
6599454.000	-6.318061e-001	7.588865e-001
6605448.000	-6.313839e-001	7.594684e-001
6611442.000	-6.308518e-001	7.599154e-001
6617436.000	-6.302979e-001	7.602759e-001
6623430.000	-6.297740e-001	7.607790e-001
6629424.000	-6.292375e-001	7.610753e-001
6635418.000	-6.287018e-001	7.615458e-001
6641412.000	-6.280143e-001	7.621119e-001
6647406.000	-6.276053e-001	7.622545e-001
6653400.000	-6.270401e-001	7.628701e-001
6659394.000	-6.265449e-001	7.633138e-001
6665388.000	-6.260397e-001	7.637772e-001
6671382.000	-6.255038e-001	7.641320e-001
6677376.000	-6.250684e-001	7.646053e-001
6683370.000	-6.244892e-001	7.650682e-001
6689364.000	-6.239295e-001	7.654480e-001
6695358.000	-6.233227e-001	7.659554e-001
6701352.000	-6.228078e-001	7.663136e-001
6707346.000	-6.224269e-001	7.666916e-001
6713340.000	-6.219373e-001	7.671704e-001
6719334.000	-6.213635e-001	7.676266e-001
6725328.000	-6.207795e-001	7.680221e-001
6731322.000	-6.203105e-001	7.684418e-001
6737316.000	-6.196414e-001	7.689386e-001
6743310.000	-6.191753e-001	7.693297e-001
6749304.000	-6.187168e-001	7.698088e-001
6755298.000	-6.182062e-001	7.702514e-001
6761292.000	-6.176330e-001	7.705744e-001
6767286.000	-6.170571e-001	7.709174e-001
6773280.000	-6.163911e-001	7.713668e-001
6779274.000	-6.160636e-001	7.718747e-001
6785268.000	-6.155375e-001	7.723750e-001
6791262.000	-6.148911e-001	7.728298e-001
6797256.000	-6.144099e-001	7.730895e-001
6803250.000	-6.138116e-001	7.735532e-001
6809244.000	-6.134030e-001	7.739372e-001
6815238.000	-6.127547e-001	7.743018e-001
6821232.000	-6.123838e-001	7.748339e-001
6827226.000	-6.117720e-001	7.753764e-001
6833220.000	-6.112956e-001	7.756065e-001
6839214.000	-6.105761e-001	7.759412e-001
6845208.000	-6.101165e-001	7.764963e-001
6851202.000	-6.097555e-001	7.768948e-001
6857196.000	-6.092237e-001	7.772883e-001
6863190.000	-6.086754e-001	7.777344e-001
6869184.000	-6.080541e-001	7.781269e-001
6875178.000	-6.076251e-001	7.785333e-001
6881172.000	-6.070528e-001	7.790346e-001
6887166.000	-6.063938e-001	7.793506e-001
6893160.000	-6.059422e-001	7.796633e-001
6899154.000	-6.053399e-001	7.802073e-001
6905148.000	-6.048079e-001	7.806417e-001
6911142.000	-6.042845e-001	7.810786e-001
6917136.000	-6.037744e-001	7.814597e-001
6923130.000	-6.033037e-001	7.818962e-001
6929124.000	-6.026446e-001	7.822502e-001
6935118.000	-6.021382e-001	7.827010e-001
6941112.000	-6.016794e-001	7.830466e-001
6947106.000	-6.011179e-001	7.835307e-001
6953100.000	-6.004924e-001	7.838606e-001
6959094.000	-5.999873e-001	7.841914e-001
6965088.000	-5.996735e-001	7.847591e-001
6971082.000	-5.990623e-001	7.852691e-001
6977076.000	-5.984448e-001	7.855768e-001
6983070.000	-5.979530e-001	7.858770e-001
6989064.000	-5.974869e-001	7.863817e-001
6995058.000	-5.969523e-001	7.868145e-001
7001052.000	-5.961506e-001	7.871130e-001
7007046.000	-5.958052e-001	7.873529e-001
7013040.000	-5.952458e-001	7.878660e-001
7019034.000	-5.947026e-001	7.885716e-001
7025028.000	-5.941349e-001	7.886443e-001
7031022.000	-5.936097e-001	7.890490e-001
7037016.000	-5.932480e-001	7.895736e-001
7043010.000	-5.926204e-001	7.898810e-001
7049004.000	-5.920011e-001	7.904398e-001
7054998.000	-5.914901e-001	7.907125e-001
7060992.000	-5.907874e-001	7.911603e-001
7066986.000	-5.903800e-001	7.916462e-001
7072980.000	-5.898498e-001	7.918659e-001
7078974.000	-5.894341e-001	7.923801e-001
7084968.000	-5.887351e-001	7.927515e-001
7090962.000	-5.883647e-001	7.931708e-001
7096956.000	-5.877458e-001	7.936441e-001
7102950.000	-5.872754e-001	7.939776e-001
7108944.000	-5.866326e-001	7.942592e-001
7114938.000	-5.861821e-001	7.947699e-001
7120932.000	-5.857226e-001	7.951183e-001
7126926.000	-5.849765e-001	7.956849e-001
7132920.000	-5.844906e-001	7.960033e-001
7138914.000	-5.840622e-001	7.962746e-001
7144908.000	-5.834090e-001	7.967090e-001
7150902.000	-5.829083e-001	7.971443e-001
7156896.000	-5.824476e-001	7.976141e-001
7162890.000	-5.818006e-001	7.979545e-001
7168884.000	-5.812411e-001	7.982953e-001
7174878.000	-5.808419e-001	7.986270e-001
7180872.000	-5.801905e-001	7.990406e-001
7186866.000	-5.797958e-001	7.994797e-001
7192860.000	-5.791484e-001	7.999524e-001
7198854.000	-5.785834e-001	8.002671e-001
7204848.000	-5.781341e-001	8.007832e-001
7210842.000	-5.774022e-001	8.010298e-001
7216836.000	-5.770261e-001	8.014237e-001
7222830.000	-5.764695e-001	8.017750e-001
7228824.000	-5.758164e-001	8.021287e-001
7234818.000	-5.753139e-001	8.024648e-001
7240812.000	-5.748449e-001	8.028203e-001
7246806.000	-5.744471e-001	8.033858e-001
7252800.000	-5.737679e-001	8.037487e-001
7258794.000	-5.732870e-001	8.042123e-001
7264788.000	-5.726961e-001	8.044083e-001
7270782.000	-5.721813e-001	8.047619e-001
7276776.000	-5.716307e-001	8.051895e-001
7282770.000	-5.710996e-001	8.056435e-001
7288764.000	-5.704572e-001	8.060878e-001
7294758.000	-5.700195e-001	8.063954e-001
7300752.000	-5.696188e-001	8.069578e-001
7306746.000	-5.689994e-001	8.071701e-001
7312740.000	-5.684379e-001	8.075622e-001
7318734.000	-5.679653e-001	8.078695e-001
7324728.000	-5.672824e-001	8.082871e-001
7330722.000	-5.666929e-001	8.086562e-001
7336716.000	-5.662782e-001	8.089462e-001
7342710.000	-5.657295e-001	8.093006e-001
7348704.000	-5.651407e-001	8.098720e-001
7354698.000	-5.646668e-001	8.101962e-001
7360692.000	-5.641634e-001	8.105459e-001
7366686.000	-5.635748e-001	8.109132e-001
7372680.000	-5.631390e-001	8.114039e-001
7378674.000	-5.623949e-001	8.117518e-001
7384668.000	-5.620349e-001	8.120593e-001
7390662.000	-5.615083e-001	8.123832e-001
7396656.000	-5.610173e-001	8.127892e-001
7402650.000	-5.603158e-001	8.130989e-001
7408644.000	-5.598501e-001	8.134395e-001
7414638.000	-5.592599e-001	8.137346e-001
7420632.000	-5.588623e-001	8.141980e-001
7426626.000	-5.581113e-001	8.147161e-001
7432620.000	-5.577031e-001	8.150864e-001
7438614.000	-5.570068e-001	8.153902e-001
7444608.000	-5.566146e-001	8.158618e-001
7450602.000	-5.560167e-001	8.161375e-001
7456596.000	-5.554627e-001	8.165405e-001
7462590.000	-5.548189e-001	8.169726e-001
7468584.000	-5.543840e-001	8.173559e-001
7474578.000	-5.537027e-001	8.175260e-001
7480572.000	-5.532877e-001	8.179805e-001
7486566.000	-5.526052e-001	8.185144e-001
7492560.000	-5.521637e-001	8.186765e-001
7498554.000	-5.516050e-001	8.191001e-001
7504548.000	-5.512214e-001	8.194233e-001
7510542.000	-5.506019e-001	8.198206e-001
7516536.000	-5.501298e-001	8.201457e-001
7522530.000	-5.495491e-001	8.206041e-001
7528524.000	-5.491550e-001	8.208979e-001
7534518.000	-5.482540e-001	8.212920e-001
7540512.000	-5.478629e-001	8.215868e-001
7546506.000	-5.472785e-001	8.220263e-001
7552500.000	-5.468854e-001	8.222888e-001
7558494.000	-5.462705e-001	8.226551e-001
7564488.000	-5.456862e-001	8.231058e-001
7570482.000	-5.451706e-001	8.234363e-001
7576476.000	-5.446853e-001	8.237723e-001
7582470.000	-5.442154e-001	8.241745e-001
7588464.000	-5.435080e-001	8.245251e-001
7594458.000	-5.429959e-001	8.249233e-001
7600452.000	-5.424116e-001	8.251893e-001
7606446.000	-5.419751e-001	8.254663e-001
7612440.000	-5.414099e-001	8.259610e-001
7618434.000	-5.408203e-001	8.263977e-001
7624428.000	-5.403424e-001	8.266698e-001
7630422.000	-5.398264e-001	8.268193e-001
7636416.000	-5.391853e-001	8.274884e-001
7642410.000	-5.386914e-001	8.275403e-001
7648404.000	-5.381511e-001	8.280608e-001
7654398.000	-5.376535e-001	8.284617e-001
7660392.000	-5.371848e-001	8.288225e-001
7666386.000	-5.363726e-001	8.291758e-001
7672380.000	-5.359116e-001	8.294875e-001
7678374.000	-5.354895e-001	8.299539e-001
7684368.000	-5.349120e-001	8.301449e-001
7690362.000	-5.345127e-001	8.303347e-001
7696356.000	-5.336973e-001	8.307947e-001
7702350.000	-5.334002e-001	8.312799e-001
7708344.000	-5.327081e-001	8.314976e-001
7714338.000	-5.321943e-001	8.319413e-001
7720332.000	-5.317029e-001	8.322403e-001
7726326.000	-5.312981e-001	8.325653e-001
7732320.000	-5.305823e-001	8.329913e-001
7738314.000	-5.301131e-001	8.333137e-001
7744308.000	-5.294245e-001	8.336166e-001
7750302.000	-5.289436e-001	8.340600e-001
7756296.000	-5.284555e-001	8.341677e-001
7762290.000	-5.279289e-001	8.347289e-001
7768284.000	-5.274451e-001	8.348858e-001
7774278.000	-5.268305e-001	8.353344e-001
7780272.000	-5.263456e-001	8.356541e-001
7786266.000	-5.257201e-001	8.360809e-001
7792260.000	-5.252811e-001	8.362526e-001
7798254.000	-5.248521e-001	8.366790e-001
7804248.000	-5.242275e-001	8.369710e-001
7810242.000	-5.234710e-001	8.373991e-001
7816236.000	-5.230897e-001	8.376364e-001
7822230.000	-5.223841e-001	8.380303e-001
7828224.000	-5.218815e-001	8.383472e-001
7834218.000	-5.213345e-001	8.386447e-001
7840212.000	-5.208901e-001	8.388497e-001
7846206.000	-5.205177e-001	8.394212e-001
7852200.000	-5.198030e-001	8.398680e-001
7858194.000	-5.192894e-001	8.400139e-001
7864188.000	-5.187687e-001	8.402172e-001
7870182.000	-5.181733e-001	8.408085e-001
7876176.000	-5.175947e-001	8.411967e-001
7882170.000	-5.171453e-001	8.413959e-001
7888164.000	-5.165270e-001	8.418278e-001
7894158.000	-5.160006e-001	8.422174e-001
7900152.000	-5.153875e-001	8.426970e-001
7906146.000	-5.150722e-001	8.427515e-001
7912140.000	-5.142600e-001	8.431383e-001
7918134.000	-5.138446e-001	8.434078e-001
7924128.000	-5.132647e-001	8.437023e-001
7930122.000	-5.127091e-001	8.441988e-001
7936116.000	-5.122959e-001	8.444968e-001
7942110.000	-5.117556e-001	8.447670e-001
7948104.000	-5.110982e-001	8.451116e-001
7954098.000	-5.106974e-001	8.453920e-001
7960092.000	-5.098892e-001	8.456809e-001
7966086.000	-5.095783e-001	8.461370e-001
7972080.000	-5.088665e-001	8.462729e-001
7978074.000	-5.084042e-001	8.466594e-001
7984068.000	-5.078258e-001	8.470436e-001
7990062.000	-5.073449e-001	8.473273e-001
7996056.000	-5.067248e-001	8.475362e-001
8002050.000	-5.062304e-001	8.478433e-001
8008044.000	-5.056669e-001	8.479987e-001
8014038.000	-5.051814e-001	8.485314e-001
8020032.000	-5.047105e-001	8.489676e-001
8026026.000	-5.040099e-001	8.492186e-001
8032020.000	-5.036334e-001	8.495180e-001
8038014.000	-5.029252e-001	8.498892e-001
8044008.000	-5.024388e-001	8.502452e-001
8050002.000	-5.018620e-001	8.504930e-001
8055996.000	-5.014108e-001	8.508980e-001
8061990.000	-5.008915e-001	8.512582e-001
8067984.000	-5.003131e-001	8.513615e-001
8073978.000	-4.999196e-001	8.516520e-001
8079972.000	-4.993373e-001	8.522143e-001
8085966.000	-4.987280e-001	8.524827e-001
8091960.000	-4.980541e-001	8.527383e-001
8097954.000	-4.976463e-001	8.531255e-001
8103948.000	-4.970737e-001	8.534430e-001
8109942.000	-4.964777e-001	8.538303e-001
8115936.000	-4.958616e-001	8.541249e-001
8121930.000	-4.953868e-001	8.542686e-001
8127924.000	-4.948684e-001	8.546023e-001
8133918.000	-4.943068e-001	8.549697e-001
8139912.000	-4.938549e-001	8.555026e-001
8145906.000	-4.932494e-001	8.554987e-001
8151900.000	-4.926991e-001	8.560529e-001
8157894.000	-4.920950e-001	8.561759e-001
8163888.000	-4.916415e-001	8.565580e-001
8169882.000	-4.911615e-001	8.569190e-001
8175876.000	-4.905855e-001	8.572379e-001
8181870.000	-4.900729e-001	8.574968e-001
8187864.000	-4.895671e-001	8.579926e-001
8193858.000	-4.889220e-001	8.580994e-001
8199852.000	-4.883523e-001	8.584819e-001
8205846.000	-4.880050e-001	8.588174e-001
8211840.000	-4.872977e-001	8.590498e-001
8217834.000	-4.867667e-001	8.593831e-001
8223828.000	-4.862756e-001	8.598234e-001
8229822.000	-4.856140e-001	8.600279e-001
8235816.000	-4.851961e-001	8.602764e-001
8241810.000	-4.845748e-001	8.604310e-001
8247804.000	-4.841587e-001	8.609606e-001
8253798.000	-4.834813e-001	8.612485e-001
8259792.000	-4.829686e-001	8.614982e-001
8265786.000	-4.824318e-001	8.618258e-001
8271780.000	-4.819022e-001	8.621486e-001
8277774.000	-4.812651e-001	8.625575e-001
8283768.000	-4.806502e-001	8.628738e-001
8289762.000	-4.800906e-001	8.630355e-001
8295756.000	-4.797213e-001	8.633150e-001
8301750.000	-4.791930e-001	8.636154e-001
8307744.000	-4.785919e-001	8.639844e-001
8313738.000	-4.781039e-001	8.642038e-001
8319732.000	-4.775362e-001	8.645427e-001
8325726.000	-4.770376e-001	8.649065e-001
8331720.000	-4.765356e-001	8.651334e-001
8337714.000	-4.760034e-001	8.653790e-001
8343708.000	-4.754349e-001	8.659127e-001
8349702.000	-4.748493e-001	8.659703e-001
8355696.000	-4.742632e-001	8.662562e-001
8361690.000	-4.737678e-001	8.665284e-001
8367684.000	-4.730953e-001	8.668829e-001
8373678.000	-4.727361e-001	8.672558e-001
8379672.000	-4.720500e-001	8.675411e-001
8385666.000	-4.715907e-001	8.677791e-001
8391660.000	-4.709452e-001	8.680497e-001
8397654.000	-4.706164e-001	8.683631e-001
8403648.000	-4.699875e-001	8.686145e-001
8409642.000	-4.693485e-001	8.691164e-001
8415636.000	-4.687509e-001	8.693203e-001
8421630.000	-4.683110e-001	8.695694e-001
8427624.000	-4.678418e-001	8.699200e-001
8433618.000	-4.673422e-001	8.700733e-001
8439612.000	-4.667015e-001	8.705041e-001
8445606.000	-4.663299e-001	8.705987e-001
8451600.000	-4.655605e-001	8.710216e-001
8457594.000	-4.651862e-001	8.712978e-001
8463588.000	-4.644760e-001	8.717633e-001
8469582.000	-4.639899e-001	8.720234e-001
8475576.000	-4.634880e-001	8.721781e-001
8481570.000	-4.627081e-001	8.725937e-001
8487564.000	-4.620218e-001	8.729644e-001
8493558.000	-4.615754e-001	8.732372e-001
8499552.000	-4.610006e-001	8.735395e-001
8505546.000	-4.604535e-001	8.738064e-001
8511540.000	-4.599031e-001	8.740919e-001
8517534.000	-4.593989e-001	8.744180e-001
8523528.000	-4.588254e-001	8.746820e-001
8529522.000	-4.582696e-001	8.749554e-001
8535516.000	-4.577306e-001	8.752786e-001
8541510.000	-4.572198e-001	8.756035e-001
8547504.000	-4.566509e-001	8.758293e-001
8553498.000	-4.561557e-001	8.761079e-001
8559492.000	-4.556183e-001	8.764214e-001
8565486.000	-4.550338e-001	8.767039e-001
8571480.000	-4.545060e-001	8.769693e-001
8577474.000	-4.539356e-001	8.772189e-001
8583468.000	-4.534614e-001	8.775660e-001
8589462.000	-4.528412e-001	8.778447e-001
8595456.000	-4.523623e-001	8.780734e-001
8601450.000	-4.517471e-001	8.783655e-001
8607444.000	-4.513084e-001	8.785966e-001
8613438.000	-4.506695e-001	8.788745e-001
8619432.000	-4.502403e-001	8.791674e-001
8625426.000	-4.496327e-001	8.794928e-001
8631420.000	-4.490698e-001	8.798396e-001
8637414.000	-4.484907e-001	8.800732e-001
8643408.000	-4.479673e-001	8.804184e-001
8649402.000	-4.474321e-001	8.806432e-001
8655396.000	-4.468983e-001	8.808732e-001
8661390.000	-4.463931e-001	8.811949e-001
8667384.000	-4.458268e-001	8.814569e-001
8673378.000	-4.452980e-001	8.817109e-001
8679372.000	-4.448041e-001	8.819710e-001
8685366.000	-4.442435e-001	8.822836e-001
8691360.000	-4.436852e-001	8.825373e-001
8697354.000	-4.430686e-001	8.827826e-001
8703348.000	-4.425817e-001	8.830122e-001
8709342.000	-4.420208e-001	8.834138e-001
8715336.000	-4.415218e-001	8.836200e-001
8721330.000	-4.410087e-001	8.838634e-001
8727324.000	-4.404402e-001	8.841583e-001
8733318.000	-4.399365e-001	8.844022e-001
8739312.000	-4.392756e-001	8.847255e-001
8745306.000	-4.387408e-001	8.850294e-001
8751300.000	-4.382568e-001	8.852330e-001
8757294.000	-4.377095e-001	8.855246e-001
8763288.000	-4.371659e-001	8.857483e-001
8769282.000	-4.367045e-001	8.859654e-001
8775276.000	-4.360796e-001	8.862345e-001
8781270.000	-4.355543e-001	8.865735e-001
8787264.000	-4.350198e-001	8.868248e-001
8793258.000	-4.345387e-001	8.871042e-001
8799252.000	-4.339755e-001	8.873228e-001
8805246.000	-4.334452e-001	8.875847e-001
8811240.000	-4.329136e-001	8.877964e-001
8817234.000	-4.324157e-001	8.881226e-001
8823228.000	-4.317567e-001	8.883675e-001
8829222.000	-4.312240e-001	8.886712e-001
8835216.000	-4.307604e-001	8.889150e-001
8841210.000	-4.301965e-001	8.892269e-001
8847204.000	-4.296102e-001	8.894830e-001
8853198.000	-4.290961e-001	8.897663e-001
8859192.000	-4.285453e-001	8.900451e-001
8865186.000	-4.280093e-001	8.902866e-001
8871180.000	-4.274496e-001	8.904521e-001
8877174.000	-4.269376e-001	8.908191e-001
8883168.000	-4.263562e-001	8.911188e-001
8889162.000	-4.258825e-001	8.913590e-001
8895156.000	-4.252896e-001	8.915619e-001
8901150.000	-4.247433e-001	8.918207e-001
8907144.000	-4.242102e-001	8.920501e-001
8913138.000	-4.236653e-001	8.923512e-001
8919132.000	-4.231661e-001	8.925984e-001
8925126.000	-4.225887e-001	8.928829e-001
8931120.000	-4.220840e-001	8.930929e-001
8937114.000	-4.215521e-001	8.933409e-001
8943108.000	-4.210046e-001	8.936384e-001
8949102.000	-4.204702e-001	8.938641e-001
8955096.000	-4.199368e-001	8.940943e-001
8961090.000	-4.194083e-001	8.943447e-001
8967084.000	-4.188232e-001	8.945979e-001
8973078.000	-4.183273e-001	8.948416e-001
8979072.000	-4.177719e-001	8.951004e-001
8985066.000	-4.172738e-001	8.953650e-001
8991060.000	-4.166771e-001	8.956461e-001
8997054.000	-4.161230e-001	8.958700e-001
9003048.000	-4.155944e-001	8.961338e-001
9009042.000	-4.151211e-001	8.963255e-001
9015036.000	-4.145534e-001	8.966585e-001
9021030.000	-4.139955e-001	8.968787e-001
9027024.000	-4.134732e-001	8.970331e-001
9033018.000	-4.129623e-001	8.973349e-001
9039012.000	-4.124270e-001	8.976104e-001
9045006.000	-4.118702e-001	8.978659e-001
9051000.000	-4.113605e-001	8.981160e-001
9056994.000	-4.107847e-001	8.983733e-001
9062988.000	-4.101673e-001	8.986672e-001
9068982.000	-4.096747e-001	8.988101e-001
9074976.000	-4.091774e-001	8.991041e-001
9080970.000	-4.086541e-001	8.993675e-001
9086964.000	-4.080362e-001	8.995825e-001
9092958.000	-4.075282e-001	8.998183e-001
9098952.000	-4.070316e-001	9.000987e-001
9104946.000	-4.065322e-001	9.003436e-001
9110940.000	-4.058607e-001	9.007053e-001
9116934.000	-4.053653e-001	9.007958e-001
9122928.000	-4.048744e-001	9.010441e-001
9128922.000	-4.043838e-001	9.013088e-001
9134916.000	-4.037637e-001	9.015622e-001
9140910.000	-4.032810e-001	9.017393e-001
9146904.000	-4.028521e-001	9.019493e-001
9152898.000	-4.022665e-001	9.022097e-001
9158892.000	-4.016938e-001	9.025067e-001
9164886.000	-4.011691e-001	9.027091e-001
9170880.000	-4.006233e-001	9.029462e-001
9176874.000	-4.000599e-001	9.031940e-001
9182868.000	-3.994667e-001	9.035294e-001
9188862.000	-3.989994e-001	9.037300e-001
9194856.000	-3.984997e-001	9.039660e-001
9200850.000	-3.979634e-001	9.041954e-001
9206844.000	-3.973959e-001	9.044420e-001
9212838.000	-3.968403e-001	9.047087e-001
9218832.000	-3.962536e-001	9.049215e-001
9224826.000	-3.957153e-001	9.051742e-001
9230820.000	-3.951902e-001	9.054146e-001
9236814.000	-3.946754e-001	9.055572e-001
9242808.000	-3.941599e-001	9.057955e-001
9248802.000	-3.935629e-001	9.061738e-001
9254796.000	-3.931164e-001	9.063100e-001
9260790.000	-3.925360e-001	9.065677e-001
9266784.000	-3.920218e-001	9.068300e-001
9272778.000	-3.915097e-001	9.070110e-001
9278772.000	-3.910092e-001	9.072478e-001
9284766.000	-3.903936e-001	9.074858e-001
9290760.000	-3.898937e-001	9.077385e-001
9296754.000	-3.893757e-001	9.078889e-001
9302748.000	-3.888171e-001	9.081615e-001
9308742.000	-3.883279e-001	9.084160e-001
9314736.000	-3.877454e-001	9.086367e-001
9320730.000	-3.872205e-001	9.088707e-001
9326724.000	-3.866819e-001	9.091004e-001
9332718.000	-3.861208e-001	9.093605e-001
9338712.000	-3.856075e-001	9.095349e-001
9344706.000	-3.850887e-001	9.097799e-001
9350700.000	-3.845224e-001	9.099546e-001
9356694.000	-3.839984e-001	9.101899e-001
9362688.000	-3.834744e-001	9.104951e-001
9368682.000	-3.829346e-001	9.106686e-001
9374676.000	-3.823624e-001	9.108718e-001
9380670.000	-3.818352e-001	9.111857e-001
9386664.000	-3.813314e-001	9.113850e-001
9392658.000	-3.807904e-001	9.116214e-001
9398652.000	-3.802237e-001	9.117519e-001
9404646.000	-3.796650e-001	9.120799e-001
9410640.000	-3.792104e-001	9.122834e-001
9416634.000	-3.786486e-001	9.124426e-001
9422628.000	-3.781110e-001	9.127570e-001
9428622.000	-3.775362e-001	9.129782e-001
9434616.000	-3.770191e-001	9.131320e-001
9440610.000	-3.765788e-001	9.133924e-001
9446604.000	-3.759899e-001	9.135781e-001
9452598.000	-3.754528e-001	9.137657e-001
9458592.000	-3.749090e-001	9.140255e-001
9464586.000	-3.743985e-001	9.142496e-001
9470580.000	-3.738660e-001	9.144975e-001
9476574.000	-3.733563e-001	9.146551e-001
9482568.000	-3.728025e-001	9.149209e-001
9488562.000	-3.722474e-001	9.150885e-001
9494556.000	-3.717197e-001	9.153675e-001
9500550.000	-3.711631e-001	9.155811e-001
9506544.000	-3.706208e-001	9.157944e-001
9512538.000	-3.701882e-001	9.160132e-001
9518532.000	-3.696660e-001	9.161474e-001
9524526.000	-3.690478e-001	9.164388e-001
9530520.000	-3.686079e-001	9.166072e-001
9536514.000	-3.680793e-001	9.168444e-001
9542508.000	-3.675035e-001	9.170054e-001
9548502.000	-3.669811e-001	9.172355e-001
9554496.000	-3.663954e-001	9.174868e-001
9560490.000	-3.659481e-001	9.177535e-001
9566484.000	-3.653621e-001	9.179974e-001
9572478.000	-3.648474e-001	9.181492e-001
9578472.000	-3.642388e-001	9.184019e-001
9584466.000	-3.637592e-001	9.185755e-001
9590460.000	-3.633164e-001	9.187116e-001
9596454.000	-3.627264e-001	9.189245e-001
9602448.000	-3.622676e-001	9.192120e-001
9608442.000	-3.616156e-001	9.193314e-001
9614436.000	-3.611049e-001	9.196203e-001
9620430.000	-3.606014e-001	9.198444e-001
9626424.000	-3.600923e-001	9.200791e-001
9632418.000	-3.595561e-001	9.201708e-001
9638412.000	-3.589697e-001	9.205283e-001
9644406.000	-3.584548e-001	9.206495e-001
9650400.000	-3.578590e-001	9.208873e-001
9656394.000	-3.574057e-001	9.210705e-001
9662388.000	-3.568732e-001	9.213295e-001
9668382.000	-3.563097e-001	9.214886e-001
9674376.000	-3.558327e-001	9.217326e-001
9680370.000	-3.552743e-001	9.219110e-001
9686364.000	-3.547619e-001	9.221217e-001
9692358.000	-3.543033e-001	9.223253e-001
9698352.000	-3.537147e-001	9.225774e-001
9704346.000	-3.531522e-001	9.227469e-001
9710340.000	-3.526507e-001	9.229273e-001
9716334.000	-3.521595e-001	9.230792e-001
9722328.000	-3.515572e-001	9.233959e-001
9728322.000	-3.510403e-001	9.235772e-001
9734316.000	-3.505212e-001	9.237491e-001
9740310.000	-3.499583e-001	9.239481e-001
9746304.000	-3.493556e-001	9.241161e-001
9752298.000	-3.489368e-001	9.242552e-001
9758292.000	-3.483265e-001	9.244917e-001
9764286.000	-3.478470e-001	9.246988e-001
9770280.000	-3.474174e-001	9.248482e-001
9776274.000	-3.468039e-001	9.251618e-001
9782268.000	-3.462304e-001	9.253252e-001
9788262.000	-3.458059e-001	9.255230e-001
9794256.000	-3.452522e-001	9.257605e-001
9800250.000	-3.446825e-001	9.259230e-001
9806244.000	-3.441406e-001	9.261266e-001
9812238.000	-3.436390e-001	9.263638e-001
9818232.000	-3.430727e-001	9.265892e-001
9824226.000	-3.425256e-001	9.267637e-001
9830220.000	-3.420627e-001	9.269107e-001
9836214.000	-3.415157e-001	9.271079e-001
9842208.000	-3.410167e-001	9.273384e-001
9848202.000	-3.404154e-001	9.275260e-001
9854196.000	-3.399144e-001	9.277259e-001
9860190.000	-3.394002e-001	9.279286e-001
9866184.000	-3.388705e-001	9.281030e-001
9872178.000	-3.383808e-001	9.282987e-001
9878172.000	-3.377579e-001	9.285292e-001
9884166.000	-3.372301e-001	9.286923e-001
9890160.000	-3.366617e-001	9.289231e-001
9896154.000	-3.362278e-001	9.290736e-001
9902148.000	-3.356972e-001	9.292801e-001
9908142.000	-3.351399e-001	9.294714e-001
9914136.000	-3.346635e-001	9.296470e-001
9920130.000	-3.341785e-001	9.298397e-001
9926124.000	-3.336195e-001	9.300676e-001
9932118.000	-3.330484e-001	9.303024e-001
9938112.000	-3.325251e-001	9.304301e-001
9944106.000	-3.319677e-001	9.306254e-001
9950100.000	-3.314647e-001	9.308124e-001
9956094.000	-3.309582e-001	9.309928e-001
9962088.000	-3.304483e-001	9.311705e-001
9968082.000	-3.298772e-001	9.313711e-001
9974076.000	-3.294134e-001	9.315663e-001
9980070.000	-3.288706e-001	9.317885e-001
9986064.000	-3.283162e-001	9.319517e-001
9992058.000	-3.277641e-001	9.321387e-001
9998052.000	-3.273211e-001	9.323299e-001
10004046.000	-3.267995e-001	9.324454e-001
10010040.000	-3.262719e-001	9.326118e-001
10016034.000	-3.256918e-001	9.329566e-001
10022028.000	-3.251628e-001	9.330138e-001
10028022.000	-3.247038e-001	9.332914e-001
10034016.000	-3.240725e-001	9.334324e-001
10040010.000	-3.235928e-001	9.335458e-001
10046004.000	-3.230848e-001	9.338081e-001
10051998.000	-3.226098e-001	9.339487e-001
10057992.000	-3.220400e-001	9.341783e-001
10063986.000	-3.215408e-001	9.343080e-001
10069980.000	-3.210276e-001	9.345173e-001
10075974.000	-3.204337e-001	9.347153e-001
10081968.000	-3.199149e-001	9.348864e-001
10087962.000	-3.194057e-001	9.350863e-001
10093956.000	-3.188109e-001	9.352357e-001
10099950.000	-3.183746e-001	9.353926e-001
10105944.000	-3.178652e-001	9.355871e-001
10111938.000	-3.173582e-001	9.357381e-001
10117932.000	-3.169010e-001	9.359852e-001
10123926.000	-3.163265e-001	9.361222e-001
10129920.000	-3.158062e-001	9.363575e-001
10135914.000	-3.152452e-001	9.364889e-001
10141908.000	-3.146934e-001	9.367082e-001
10147902.000	-3.141448e-001	9.369112e-001
10153896.000	-3.136471e-001	9.370103e-001
10159890.000	-3.131197e-001	9.372500e-001
10165884.000	-3.127262e-001	9.374046e-001
10171878.000	-3.121353e-001	9.376096e-001
10177872.000	-3.115136e-001	9.377766e-001
10183866.000	-3.110390e-001	9.379147e-001
10189860.000	-3.104731e-001	9.381304e-001
10195854.000	-3.100475e-001	9.382930e-001
10201848.000	-3.094986e-001	9.384591e-001
10207842.000	-3.089874e-001	9.386000e-001
10213836.000	-3.085073e-001	9.387633e-001
10219830.000	-3.079555e-001	9.389649e-001
10225824.000	-3.074715e-001	9.392282e-001
10231818.000	-3.068404e-001	9.392809e-001
10237812.000	-3.064022e-001	9.395003e-001
10243806.000	-3.058253e-001	9.396397e-001
10249800.000	-3.053220e-001	9.398602e-001
10255794.000	-3.050163e-001	9.399019e-001
10261788.000	-3.043334e-001	9.401455e-001
10267782.000	-3.038902e-001	9.403688e-001
10273776.000	-3.032827e-001	9.404976e-001
10279770.000	-3.027170e-001	9.406411e-001
10285764.000	-3.022505e-001	9.408338e-001
10291758.000	-3.017304e-001	9.410521e-001
10297752.000	-3.011323e-001	9.412045e-001
10303746.000	-3.006622e-001	9.413209e-001
10309740.000	-3.001405e-001	9.415104e-001
10315734.000	-2.996806e-001	9.416686e-001
10321728.000	-2.991189e-001	9.418442e-001
10327722.000	-2.985966e-001	9.419866e-001
10333716.000	-2.980238e-001	9.422211e-001
10339710.000	-2.975692e-001	9.423492e-001
10345704.000	-2.970522e-001	9.424748e-001
10351698.000	-2.965262e-001	9.426703e-001
10357692.000	-2.960535e-001	9.427655e-001
10363686.000	-2.954759e-001	9.430227e-001
10369680.000	-2.949425e-001	9.431653e-001
10375674.000	-2.944008e-001	9.433041e-001
10381668.000	-2.939276e-001	9.434309e-001
10387662.000	-2.934475e-001	9.436305e-001
10393656.000	-2.929542e-001	9.437776e-001
10399650.000	-2.923820e-001	9.439360e-001
10405644.000	-2.918878e-001	9.440396e-001
10411638.000	-2.913398e-001	9.443000e-001
10417632.000	-2.908028e-001	9.444627e-001
10423626.000	-2.903386e-001	9.446171e-001
10429620.000	-2.898200e-001	9.447859e-001
10435614.000	-2.892838e-001	9.449294e-001
10441608.000	-2.887533e-001	9.451248e-001
10447602.000	-2.882457e-001	9.452812e-001
10453596.000	-2.876404e-001	9.454341e-001
10459590.000	-2.871695e-001	9.456388e-001
10465584.000	-2.866493e-001	9.457575e-001
10471578.000	-2.861413e-001	9.459693e-001
10477572.000	-2.856048e-001	9.460689e-001
10483566.000	-2.851249e-001	9.462155e-001
10489560.000	-2.846454e-001	9.463593e-001
10495554.000	-2.840338e-001	9.465443e-001
10501548.000	-2.835725e-001	9.467258e-001
10507542.000	-2.831236e-001	9.469066e-001
10513536.000	-2.825168e-001	9.469744e-001
10519530.000	-2.820614e-001	9.471753e-001
10525524.000	-2.815391e-001	9.473002e-001
10531518.000	-2.810246e-001	9.475019e-001
10537512.000	-2.804585e-001	9.476403e-001
10543506.000	-2.800347e-001	9.476663e-001
10549500.000	-2.794897e-001	9.479351e-001
10555494.000	-2.790127e-001	9.480418e-001
10561488.000	-2.784006e-001	9.482715e-001
10567482.000	-2.779371e-001	9.483781e-001
10573476.000	-2.774206e-001	9.485443e-001
10579470.000	-2.770010e-001	9.486435e-001
10585464.000	-2.763552e-001	9.488319e-001
10591458.000	-2.758406e-001	9.489609e-001
10597452.000	-2.753995e-001	9.491796e-001
10603446.000	-2.748735e-001	9.492442e-001
10609440.000	-2.743315e-001	9.493855e-001
10615434.000	-2.739717e-001	9.495519e-001
10621428.000	-2.733071e-001	9.496806e-001
10627422.000	-2.727158e-001	9.499194e-001
10633416.000	-2.723397e-001	9.500130e-001
10639410.000	-2.717107e-001	9.501374e-001
10645404.000	-2.713075e-001	9.503873e-001
10651398.000	-2.707925e-001	9.504690e-001
10657392.000	-2.702292e-001	9.506426e-001
10663386.000	-2.697735e-001	9.508062e-001
10669380.000	-2.691609e-001	9.509187e-001
10675374.000	-2.686927e-001	9.511115e-001
10681368.000	-2.681664e-001	9.512109e-001
10687362.000	-2.677408e-001	9.513458e-001
10693356.000	-2.671748e-001	9.515699e-001
10699350.000	-2.665765e-001	9.517619e-001
10705344.000	-2.661535e-001	9.518390e-001
10711338.000	-2.656346e-001	9.519452e-001
10717332.000	-2.651261e-001	9.520756e-001
10723326.000	-2.646375e-001	9.522300e-001
10729320.000	-2.641035e-001	9.524515e-001
10735314.000	-2.635652e-001	9.525261e-001
10741308.000	-2.630644e-001	9.526860e-001
10747302.000	-2.625580e-001	9.528149e-001
10753296.000	-2.619855e-001	9.529626e-001
10759290.000	-2.615676e-001	9.531465e-001
10765284.000	-2.610839e-001	9.532359e-001
10771278.000	-2.605421e-001	9.533789e-001
10777272.000	-2.600886e-001	9.535496e-001
10783266.000	-2.595601e-001	9.536919e-001
10789260.000	-2.589736e-001	9.538756e-001
10795254.000	-2.584724e-001	9.540345e-001
10801248.000	-2.579465e-001	9.540993e-001
10807242.000	-2.574139e-001	9.542224e-001
10813236.000	-2.568688e-001	9.544368e-001
10819230.000	-2.564787e-001	9.545393e-001
10825224.000	-2.559543e-001	9.547576e-001
10831218.000	-2.554253e-001	9.548364e-001
10837212.000	-2.549177e-001	9.549706e-001
10843206.000	-2.544875e-001	9.551091e-001
10849200.000	-2.539880e-001	9.552718e-001
10855194.000	-2.533684e-001	9.553712e-001
10861188.000	-2.528499e-001	9.555038e-001
10867182.000	-2.523780e-001	9.556571e-001
10873176.000	-2.519097e-001	9.558138e-001
10879170.000	-2.513789e-001	9.559609e-001
10885164.000	-2.508454e-001	9.560367e-001
10891158.000	-2.503786e-001	9.561491e-001
10897152.000	-2.498191e-001	9.563776e-001
10903146.000	-2.493226e-001	9.564596e-001
10909140.000	-2.488001e-001	9.566014e-001
10915134.000	-2.482819e-001	9.567269e-001
10921128.000	-2.477284e-001	9.568635e-001
10927122.000	-2.472669e-001	9.569492e-001
10933116.000	-2.467503e-001	9.571838e-001
10939110.000	-2.463482e-001	9.572234e-001
10945104.000	-2.457425e-001	9.574031e-001
10951098.000	-2.452665e-001	9.575004e-001
10957092.000	-2.447822e-001	9.576507e-001
10963086.000	-2.443266e-001	9.578249e-001
10969080.000	-2.437497e-001	9.578845e-001
10975074.000	-2.433074e-001	9.580438e-001
10981068.000	-2.426865e-001	9.581675e-001
10987062.000	-2.422677e-001	9.583168e-001
10993056.000	-2.417072e-001	9.584529e-001
10999050.000	-2.412199e-001	9.585131e-001
11005044.000	-2.408029e-001	9.586477e-001
11011038.000	-2.402385e-001	9.587465e-001
11017032.000	-2.397277e-001	9.589703e-001
11023026.000	-2.391707e-001	9.590862e-001
11029020.000	-2.386898e-001	9.592231e-001
11035014.000	-2.381764e-001	9.593774e-001
11041008.000	-2.376614e-001	9.595073e-001
11047002.000	-2.371154e-001	9.596455e-001
11052996.000	-2.366875e-001	9.596981e-001
11058990.000	-2.361403e-001	9.598965e-001
11064984.000	-2.356983e-001	9.599651e-001
11070978.000	-2.352120e-001	9.601200e-001
11076972.000	-2.346732e-001	9.602367e-001
11082966.000	-2.341833e-001	9.603042e-001
11088960.000	-2.336723e-001	9.604288e-001
11094954.000	-2.331512e-001	9.605883e-001
11100948.000	-2.326348e-001	9.607014e-001
11106942.000	-2.321790e-001	9.608394e-001
11112936.000	-2.316986e-001	9.609308e-001
11118930.000	-2.311550e-001	9.611018e-001
11124924.000	-2.306559e-001	9.611402e-001
11130918.000	-2.301307e-001	9.613784e-001
11136912.000	-2.296970e-001	9.614203e-001
11142906.000	-2.291296e-001	9.615793e-001
11148900.000	-2.286680e-001	9.617109e-001
11154894.000	-2.281668e-001	9.618349e-001
11160888.000	-2.275992e-001	9.620390e-001
11166882.000	-2.270893e-001	9.620723e-001
11172876.000	-2.266083e-001	9.622077e-001
11178870.000	-2.261068e-001	9.623672e-001
11184864.000	-2.255996e-001	9.624821e-001
11190858.000	-2.250918e-001	9.625288e-001
11196852.000	-2.246327e-001	9.626004e-001
11202846.000	-2.241190e-001	9.628273e-001
11208840.000	-2.236006e-001	9.629637e-001
11214834.000	-2.231337e-001	9.631091e-001
11220828.000	-2.226390e-001	9.631518e-001
11226822.000	-2.220914e-001	9.633319e-001
11232816.000	-2.215636e-001	9.634201e-001
11238810.000	-2.211139e-001	9.635664e-001
11244804.000	-2.206016e-001	9.636632e-001
11250798.000	-2.200940e-001	9.637210e-001
11256792.000	-2.196046e-001	9.638380e-001
11262786.000	-2.191092e-001	9.639788e-001
11268780.000	-2.186837e-001	9.641306e-001
11274774.000	-2.181574e-001	9.642269e-001
11280768.000	-2.175804e-001	9.642976e-001
11286762.000	-2.171211e-001	9.644921e-001
11292756.000	-2.166478e-001	9.646000e-001
11298750.000	-2.160946e-001	9.646422e-001
11304744.000	-2.157126e-001	9.647246e-001
11310738.000	-2.151555e-001	9.648754e-001
11316732.000	-2.146342e-001	9.650437e-001
11322726.000	-2.141640e-001	9.651259e-001
11328720.000	-2.136350e-001	9.652337e-001
11334714.000	-2.130970e-001	9.653886e-001
11340708.000	-2.126111e-001	9.655233e-001
11346702.000	-2.120737e-001	9.656680e-001
11352696.000	-2.116196e-001	9.656797e-001
11358690.000	-2.111498e-001	9.657770e-001
11364684.000	-2.106474e-001	9.658794e-001
11370678.000	-2.101898e-001	9.660255e-001
11376672.000	-2.096209e-001	9.661760e-001
11382666.000	-2.091396e-001	9.662009e-001
11388660.000	-2.087034e-001	9.662770e-001
11394654.000	-2.081857e-001	9.664973e-001
11400648.000	-2.076989e-001	9.665636e-001
11406642.000	-2.071919e-001	9.666054e-001
11412636.000	-2.066605e-001	9.667376e-001
11418630.000	-2.061764e-001	9.668854e-001
11424624.000	-2.056786e-001	9.670456e-001
11430618.000	-2.051740e-001	9.671176e-001
11436612.000	-2.047351e-001	9.671634e-001
11442606.000	-2.042123e-001	9.672891e-001
11448600.000	-2.037196e-001	9.674459e-001
11454594.000	-2.032236e-001	9.675323e-001
11460588.000	-2.026954e-001	9.675962e-001
11466582.000	-2.022743e-001	9.677206e-001
11472576.000	-2.017405e-001	9.678228e-001
11478570.000	-2.012476e-001	9.679674e-001
11484564.000	-2.006648e-001	9.680083e-001
11490558.000	-2.002573e-001	9.681445e-001
11496552.000	-1.997381e-001	9.682355e-001
11502546.000	-1.992109e-001	9.683566e-001
11508540.000	-1.987294e-001	9.685231e-001
11514534.000	-1.982187e-001	9.686001e-001
11520528.000	-1.977376e-001	9.687208e-001
11526522.000	-1.973562e-001	9.687644e-001
11532516.000	-1.968496e-001	9.688795e-001
11538510.000	-1.963229e-001	9.689748e-001
11544504.000	-1.958049e-001	9.691321e-001
11550498.000	-1.952493e-001	9.691821e-001
11556492.000	-1.948626e-001	9.692686e-001
11562486.000	-1.943196e-001	9.693619e-001
11568480.000	-1.938907e-001	9.695645e-001
11574474.000	-1.933732e-001	9.695590e-001
11580468.000	-1.928288e-001	9.696605e-001
11586462.000	-1.923322e-001	9.698527e-001
11592456.000	-1.918818e-001	9.699539e-001
11598450.000	-1.913093e-001	9.700163e-001
11604444.000	-1.908868e-001	9.701244e-001
11610438.000	-1.904090e-001	9.701393e-001
11616432.000	-1.899593e-001	9.702687e-001
11622426.000	-1.894530e-001	9.703484e-001
11628420.000	-1.889469e-001	9.704392e-001
11634414.000	-1.884807e-001	9.705752e-001
11640408.000	-1.880394e-001	9.706977e-001
11646402.000	-1.874833e-001	9.708351e-001
11652396.000	-1.870190e-001	9.708474e-001
11658390.000	-1.865085e-001	9.709594e-001
11664384.000	-1.860434e-001	9.710227e-001
11670378.000	-1.855361e-001	9.711390e-001
11676372.000	-1.849766e-001	9.713347e-001
11682366.000	-1.844903e-001	9.713853e-001
11688360.000	-1.839794e-001	9.714369e-001
11694354.000	-1.835101e-001	9.716042e-001
11700348.000	-1.830653e-001	9.716113e-001
11706342.000	-1.824629e-001	9.718332e-001
11712336.000	-1.820429e-001	9.718226e-001
11718330.000	-1.816135e-001	9.719196e-001
11724324.000	-1.810670e-001	9.720784e-001
11730318.000	-1.806064e-001	9.721830e-001
11736312.000	-1.800854e-001	9.723157e-001
11742306.000	-1.795779e-001	9.723185e-001
11748300.000	-1.792027e-001	9.723915e-001
11754294.000	-1.786945e-001	9.725026e-001
11760288.000	-1.781834e-001	9.725737e-001
11766282.000	-1.777473e-001	9.726583e-001
11772276.000	-1.772613e-001	9.727386e-001
11778270.000	-1.767272e-001	9.728698e-001
11784264.000	-1.762355e-001	9.728847e-001
11790258.000	-1.756791e-001	9.730675e-001
11796252.000	-1.752760e-001	9.730901e-001
11802246.000	-1.747875e-001	9.731635e-001
11808240.000	-1.743234e-001	9.733517e-001
11814234.000	-1.738851e-001	9.734089e-001
11820228.000	-1.733933e-001	9.734973e-001
11826222.000	-1.728290e-001	9.735295e-001
11832216.000	-1.723622e-001	9.736012e-001
11838210.000	-1.718872e-001	9.737674e-001
11844204.000	-1.713670e-001	9.738174e-001
11850198.000	-1.708472e-001	9.739124e-001
11856192.000	-1.703991e-001	9.740403e-001
11862186.000	-1.699417e-001	9.740888e-001
11868180.000	-1.694648e-001	9.742503e-001
11874174.000	-1.689393e-001	9.743079e-001
11880168.000	-1.684971e-001	9.743396e-001
11886162.000	-1.680215e-001	9.744286e-001
11892156.000	-1.675291e-001	9.745357e-001
11898150.000	-1.670082e-001	9.745876e-001
11904144.000	-1.664979e-001	9.747208e-001
11910138.000	-1.660582e-001	9.748086e-001
11916132.000	-1.656194e-001	9.748754e-001
11922126.000	-1.651652e-001	9.749301e-001
11928120.000	-1.646429e-001	9.750588e-001
11934114.000	-1.641142e-001	9.751774e-001
11940108.000	-1.636551e-001	9.752269e-001
11946102.000	-1.631702e-001	9.752596e-001
11952096.000	-1.627225e-001	9.752812e-001
11958090.000	-1.622060e-001	9.754402e-001
11964084.000	-1.617543e-001	9.754717e-001
11970078.000	-1.612156e-001	9.756241e-001
11976072.000	-1.607556e-001	9.757557e-001
11982066.000	-1.602332e-001	9.758322e-001
11988060.000	-1.597800e-001	9.758608e-001
11994054.000	-1.593148e-001	9.759667e-001
12000048.000	-1.588771e-001	9.760162e-001
12006042.000	-1.583516e-001	9.760599e-001
12012036.000	-1.579275e-001	9.762337e-001
12018030.000	-1.572859e-001	9.763701e-001
12024024.000	-1.568816e-001	9.763968e-001
12030018.000	-1.563680e-001	9.765046e-001
12036012.000	-1.559040e-001	9.765720e-001
12042006.000	-1.554909e-001	9.765983e-001
12048000.000	-1.550618e-001	9.766459e-001
12053994.000	-1.544854e-001	9.767563e-001
12059988.000	-1.540175e-001	9.768623e-001
12065982.000	-1.535557e-001	9.768865e-001
12071976.000	-1.530494e-001	9.770289e-001
12077970.000	-1.525789e-001	9.770719e-001
12083964.000	-1.521318e-001	9.771045e-001
12089958.000	-1.516603e-001	9.772355e-001
12095952.000	-1.512190e-001	9.773203e-001
12101946.000	-1.506666e-001	9.773503e-001
12107940.000	-1.502195e-001	9.774113e-001
12113934.000	-1.497709e-001	9.775442e-001
12119928.000	-1.493315e-001	9.775777e-001
12125922.000	-1.488060e-001	9.777159e-001
12131916.000	-1.483236e-001	9.777800e-001
12137910.000	-1.478029e-001	9.778250e-001
12143904.000	-1.472789e-001	9.778475e-001
12149898.000	-1.468413e-001	9.780055e-001
12155892.000	-1.463607e-001	9.780755e-001
12161886.000	-1.459137e-001	9.781107e-001
12167880.000	-1.453236e-001	9.782359e-001
12173874.000	-1.449300e-001	9.783353e-001
12179868.000	-1.443949e-001	9.783241e-001
12185862.000	-1.439691e-001	9.784600e-001
12191856.000	-1.435707e-001	9.785027e-001
12197850.000	-1.430430e-001	9.786080e-001
12203844.000	-1.425548e-001	9.786279e-001
12209838.000	-1.420410e-001	9.786900e-001
12215832.000	-1.416180e-001	9.787803e-001
12221826.000	-1.411881e-001	9.788801e-001
12227820.000	-1.407340e-001	9.788932e-001
12233814.000	-1.402602e-001	9.789953e-001
12239808.000	-1.397497e-001	9.790441e-001
12245802.000	-1.392472e-001	9.791419e-001
12251796.000	-1.388153e-001	9.792178e-001
12257790.000	-1.382967e-001	9.792298e-001
12263784.000	-1.378679e-001	9.793104e-001
12269778.000	-1.373923e-001	9.794447e-001
12275772.000	-1.369488e-001	9.795537e-001
12281766.000	-1.363461e-001	9.795285e-001
12287760.000	-1.359259e-001	9.795255e-001
12293754.000	-1.354496e-001	9.797368e-001
12299748.000	-1.350017e-001	9.797750e-001
12305742.000	-1.345505e-001	9.798791e-001
12311736.000	-1.340597e-001	9.799387e-001
12317730.000	-1.335689e-001	9.799349e-001
12323724.000	-1.330867e-001	9.800428e-001
12329718.000	-1.325527e-001	9.800759e-001
12335712.000	-1.322073e-001	9.801367e-001
12341706.000	-1.316888e-001	9.802652e-001
12347700.000	-1.311641e-001	9.802255e-001
12353694.000	-1.307831e-001	9.802837e-001
12359688.000	-1.302725e-001	9.804014e-001
12365682.000	-1.298139e-001	9.804657e-001
12371676.000	-1.293723e-001	9.805090e-001
12377670.000	-1.289241e-001	9.806403e-001
12383664.000	-1.284310e-001	9.806490e-001
12389658.000	-1.279884e-001	9.806700e-001
12395652.000	-1.274730e-001	9.807388e-001
12401646.000	-1.269893e-001	9.808704e-001
12407640.000	-1.264836e-001	9.808987e-001
12413634.000	-1.260742e-001	9.809953e-001
12419628.000	-1.255624e-001	9.810642e-001
12425622.000	-1.251343e-001	9.810709e-001
12431616.000	-1.248034e-001	9.811210e-001
12437610.000	-1.241680e-001	9.813281e-001
12443604.000	-1.237491e-001	9.812704e-001
12449598.000	-1.232960e-001	9.813040e-001
12455592.000	-1.228575e-001	9.814169e-001
12461586.000	-1.223255e-001	9.814801e-001
12467580.000	-1.217911e-001	9.815711e-001
12473574.000	-1.213914e-001	9.816119e-001
12479568.000	-1.208635e-001	9.817109e-001
12485562.000	-1.203755e-001	9.817489e-001
12491556.000	-1.199629e-001	9.818321e-001
12497550.000	-1.194745e-001	9.817456e-001
12503544.000	-1.190105e-001	9.819209e-001
12509538.000	-1.186043e-001	9.820317e-001
12515532.000	-1.180669e-001	9.820656e-001
12521526.000	-1.176257e-001	9.821122e-001
12527520.000	-1.172003e-001	9.821317e-001
12533514.000	-1.167643e-001	9.821854e-001
12539508.000	-1.162613e-001	9.822625e-001
12545502.000	-1.158102e-001	9.823649e-001
12551496.000	-1.153133e-001	9.823016e-001
12557490.000	-1.148142e-001	9.824307e-001
12563484.000	-1.143712e-001	9.824707e-001
12569478.000	-1.140258e-001	9.825310e-001
12575472.000	-1.133960e-001	9.825429e-001
12581466.000	-1.129958e-001	9.826194e-001
12587460.000	-1.125976e-001	9.827280e-001
12593454.000	-1.120734e-001	9.827472e-001
12599448.000	-1.116127e-001	9.828279e-001
12605442.000	-1.111652e-001	9.828107e-001
12611436.000	-1.106884e-001	9.828656e-001
12617430.000	-1.101993e-001	9.829948e-001
12623424.000	-1.098009e-001	9.829986e-001
12629418.000	-1.092710e-001	9.830735e-001
12635412.000	-1.088031e-001	9.831158e-001
12641406.000	-1.083569e-001	9.831567e-001
12647400.000	-1.079177e-001	9.831729e-001
12653394.000	-1.074330e-001	9.833316e-001
12659388.000	-1.069469e-001	9.833147e-001
12665382.000	-1.065372e-001	9.833549e-001
12671376.000	-1.060465e-001	9.834828e-001
12677370.000	-1.055625e-001	9.835606e-001
12683364.000	-1.051355e-001	9.835270e-001
12689358.000	-1.047031e-001	9.835232e-001
12695352.000	-1.042672e-001	9.836403e-001
12701346.000	-1.037774e-001	9.837216e-001
12707340.000	-1.033260e-001	9.837426e-001
12713334.000	-1.028561e-001	9.837817e-001
12719328.000	-1.023779e-001	9.838345e-001
12725322.000	-1.018814e-001	9.839173e-001
12731316.000	-1.015201e-001	9.838956e-001
12737310.000	-1.009388e-001	9.840068e-001
12743304.000	-1.005636e-001	9.840378e-001
12749298.000	-1.000074e-001	9.841002e-001
12755292.000	-9.965066e-002	9.841274e-001
12761286.000	-9.908586e-002	9.842563e-001
12767280.000	-9.864563e-002	9.842719e-001
12773274.000	-9.823678e-002	9.843114e-001
12779268.000	-9.775700e-002	9.843812e-001
12785262.000	-9.723966e-002	9.844587e-001
12791256.000	-9.682934e-002	9.844750e-001
12797250.000	-9.629255e-002	9.845510e-001
12803244.000	-9.602752e-002	9.845680e-001
12809238.000	-9.543757e-002	9.845860e-001
12815232.000	-9.487502e-002	9.846715e-001
12821226.000	-9.442164e-002	9.846903e-001
12827220.000	-9.404099e-002	9.847435e-001
12833214.000	-9.355280e-002	9.848127e-001
12839208.000	-9.307735e-002	9.848420e-001
12845202.000	-9.256241e-002	9.848832e-001
12851196.000	-9.202635e-002	9.849660e-001
12857190.000	-9.167888e-002	9.850806e-001
12863184.000	-9.119737e-002	9.849740e-001
12869178.000	-9.078719e-002	9.851192e-001
12875172.000	-9.029379e-002	9.850730e-001
12881166.000	-8.983133e-002	9.851957e-001
12887160.000	-8.942002e-002	9.851697e-001
12893154.000	-8.885018e-002	9.853797e-001
12899148.000	-8.854187e-002	9.852891e-001
12905142.000	-8.798215e-002	9.853952e-001
12911136.000	-8.756064e-002	9.854322e-001
12917130.000	-8.718687e-002	9.854282e-001
12923124.000	-8.668032e-002	9.854690e-001
12929118.000	-8.614490e-002	9.855156e-001
12935112.000	-8.575102e-002	9.855965e-001
12941106.000	-8.533209e-002	9.856061e-001
12947100.000	-8.486543e-002	9.856029e-001
12953094.000	-8.437295e-002	9.856267e-001
12959088.000	-8.397979e-002	9.857413e-001
12965082.000	-8.349919e-002	9.857851e-001
12971076.000	-8.300813e-002	9.858080e-001
12977070.000	-8.255937e-002	9.858660e-001
12983064.000	-8.211436e-002	9.859163e-001
12989058.000	-8.168723e-002	9.859937e-001
12995052.000	-8.121807e-002	9.859890e-001
13001046.000	-8.073680e-002	9.860151e-001
13007040.000	-8.027973e-002	9.861406e-001
13013034.000	-7.989911e-002	9.861381e-001
13019028.000	-7.947641e-002	9.861182e-001
13025022.000	-7.894996e-002	9.861888e-001
13031016.000	-7.851973e-002	9.861946e-001
13037010.000	-7.797881e-002	9.863063e-001
13043004.000	-7.761595e-002	9.862939e-001
13048998.000	-7.703975e-002	9.863458e-001
13054992.000	-7.677132e-002	9.863593e-001
13060986.000	-7.625831e-002	9.863497e-001
13066980.000	-7.579304e-002	9.864757e-001
13072974.000	-7.534836e-002	9.864736e-001
13078968.000	-7.483060e-002	9.865166e-001
13084962.000	-7.444734e-002	9.865081e-001
13090956.000	-7.402352e-002	9.865024e-001
13096950.000	-7.352644e-002	9.865803e-001
13102944.000	-7.315154e-002	9.866662e-001
13108938.000	-7.266827e-002	9.866778e-001
13114932.000	-7.219471e-002	9.867322e-001
13120926.000	-7.174161e-002	9.867582e-001
13126920.000	-7.137287e-002	9.867660e-001
13132914.000	-7.087735e-002	9.868462e-001
13138908.000	-7.038745e-002	9.868308e-001
13144902.000	-6.999907e-002	9.868960e-001
13150896.000	-6.957959e-002	9.869870e-001
13156890.000	-6.903155e-002	9.869885e-001
13162884.000	-6.862651e-002	9.870295e-001
13168878.000	-6.813168e-002	9.870553e-001
13174872.000	-6.771625e-002	9.870977e-001
13180866.000	-6.727594e-002	9.871052e-001
13186860.000	-6.681742e-002	9.871338e-001
13192854.000	-6.641209e-002	9.871799e-001
13198848.000	-6.584952e-002	9.871561e-001
13204842.000	-6.539382e-002	9.873411e-001
13210836.000	-6.501252e-002	9.872870e-001
13216830.000	-6.462142e-002	9.872575e-001
13222824.000	-6.411935e-002	9.874022e-001
13228818.000	-6.367265e-002	9.873657e-001
13234812.000	-6.328764e-002	9.873947e-001
13240806.000	-6.282505e-002	9.874446e-001
13246800.000	-6.233136e-002	9.875543e-001
13252794.000	-6.186006e-002	9.875404e-001
13258788.000	-6.148008e-002	9.875727e-001
13264782.000	-6.106443e-002	9.875456e-001
13270776.000	-6.062612e-002	9.876231e-001
13276770.000	-6.011327e-002	9.875892e-001
13282764.000	-5.966317e-002	9.876612e-001
13288758.000	-5.919904e-002	9.876805e-001
13294752.000	-5.878976e-002	9.876784e-001
13300746.000	-5.832817e-002	9.877280e-001
13306740.000	-5.784507e-002	9.878417e-001
13312734.000	-5.744684e-002	9.878110e-001
13318728.000	-5.698715e-002	9.877196e-001
13324722.000	-5.653713e-002	9.877983e-001
13330716.000	-5.615223e-002	9.878311e-001
13336710.000	-5.568957e-002	9.879211e-001
13342704.000	-5.520143e-002	9.878736e-001
13348698.000	-5.472288e-002	9.879758e-001
13354692.000	-5.425433e-002	9.880288e-001
13360686.000	-5.387296e-002	9.880791e-001
13366680.000	-5.352654e-002	9.880377e-001
13372674.000	-5.300223e-002	9.880577e-001
13378668.000	-5.256415e-002	9.881164e-001
13384662.000	-5.224276e-002	9.881164e-001
13390656.000	-5.169209e-002	9.881037e-001
13396650.000	-5.121780e-002	9.880873e-001
13402644.000	-5.074813e-002	9.881537e-001
13408638.000	-5.035411e-002	9.881960e-001
13414632.000	-4.987187e-002	9.882668e-001
13420626.000	-4.939658e-002	9.883472e-001
13426620.000	-4.895429e-002	9.883221e-001
13432614.000	-4.858779e-002	9.883428e-001
13438608.000	-4.816955e-002	9.883763e-001
13444602.000	-4.767848e-002	9.883560e-001
13450596.000	-4.721360e-002	9.884072e-001
13456590.000	-4.681532e-002	9.884366e-001
13462584.000	-4.635033e-002	9.884530e-001
13468578.000	-4.597605e-002	9.884627e-001
13474572.000	-4.550454e-002	9.884839e-001
13480566.000	-4.506785e-002	9.884744e-001
13486560.000	-4.463894e-002	9.885213e-001
13492554.000	-4.413380e-002	9.885681e-001
13498548.000	-4.371338e-002	9.886215e-001
13504542.000	-4.337098e-002	9.885640e-001
13510536.000	-4.292047e-002	9.885728e-001
13516530.000	-4.244942e-002	9.885830e-001
13522524.000	-4.203649e-002	9.886646e-001
13528518.000	-4.157761e-002	9.886634e-001
13534512.000	-4.110687e-002	9.887300e-001
13540506.000	-4.066185e-002	9.886544e-001
13546500.000	-4.027592e-002	9.886928e-001
13552494.000	-3.989430e-002	9.888103e-001
13558488.000	-3.940663e-002	9.888143e-001
13564482.000	-3.891560e-002	9.888164e-001
13570476.000	-3.853505e-002	9.888851e-001
13576470.000	-3.808039e-002	9.888728e-001
13582464.000	-3.763102e-002	9.888887e-001
13588458.000	-3.713077e-002	9.888686e-001
13594452.000	-3.673850e-002	9.889033e-001
13600446.000	-3.632835e-002	9.889625e-001
13606440.000	-3.585028e-002	9.890176e-001
13612434.000	-3.547118e-002	9.889267e-001
13618428.000	-3.496688e-002	9.890446e-001
13624422.000	-3.454770e-002	9.890352e-001
13630416.000	-3.412340e-002	9.890214e-001
13636410.000	-3.367601e-002	9.890072e-001
13642404.000	-3.319574e-002	9.891303e-001
13648398.000	-3.277245e-002	9.890528e-001
13654392.000	-3.232545e-002	9.891244e-001
13660386.000	-3.193326e-002	9.891360e-001
13666380.000	-3.152667e-002	9.890839e-001
13672374.000	-3.104834e-002	9.890891e-001
13678368.000	-3.063148e-002	9.891887e-001
13684362.000	-3.021865e-002	9.892046e-001
13690356.000	-2.978044e-002	9.891873e-001
13696350.000	-2.938115e-002	9.892076e-001
13702344.000	-2.888129e-002	9.891687e-001
13708338.000	-2.848582e-002	9.892253e-001
13714332.000	-2.804087e-002	9.892694e-001
13720326.000	-2.758528e-002	9.893048e-001
13726320.000	-2.718215e-002	9.892962e-001
13732314.000	-2.673724e-002	9.893836e-001
13738308.000	-2.625695e-002	9.893140e-001
13744302.000	-2.585517e-002	9.893462e-001
13750296.000	-2.545519e-002	9.893192e-001
13756290.000	-2.500006e-002	9.893981e-001
13762284.000	-2.463073e-002	9.894064e-001
13768278.000	-2.419571e-002	9.893953e-001
13774272.000	-2.371881e-002	9.894323e-001
13780266.000	-2.319638e-002	9.894734e-001
13786260.000	-2.285805e-002	9.894613e-001
13792254.000	-2.243950e-002	9.894092e-001
13798248.000	-2.199167e-002	9.895419e-001
13804242.000	-2.161140e-002	9.894358e-001
13810236.000	-2.111111e-002	9.893921e-001
13816230.000	-2.074520e-002	9.894916e-001
13822224.000	-2.024570e-002	9.895252e-001
13828218.000	-1.974148e-002	9.895370e-001
13834212.000	-1.934896e-002	9.896648e-001
13840206.000	-1.888766e-002	9.895723e-001
13846200.000	-1.854136e-002	9.895514e-001
13852194.000	-1.806446e-002	9.896686e-001
13858188.000	-1.766535e-002	9.895380e-001
13864182.000	-1.719332e-002	9.896196e-001
13870176.000	-1.683662e-002	9.896072e-001
13876170.000	-1.637436e-002	9.896438e-001
13882164.000	-1.597528e-002	9.896980e-001
13888158.000	-1.555923e-002	9.896008e-001
13894152.000	-1.505613e-002	9.896851e-001
13900146.000	-1.473897e-002	9.896484e-001
13906140.000	-1.425996e-002	9.897422e-001
13912134.000	-1.384668e-002	9.896443e-001
13918128.000	-1.343617e-002	9.896883e-001
13924122.000	-1.302743e-002	9.897375e-001
13930116.000	-1.258198e-002	9.897716e-001
13936110.000	-1.213418e-002	9.897068e-001
13942104.000	-1.171706e-002	9.897279e-001
13948098.000	-1.122483e-002	9.897027e-001
13954092.000	-1.082468e-002	9.896867e-001
13960086.000	-1.039524e-002	9.897236e-001
13966080.000	-9.965625e-003	9.897541e-001
13972074.000	-9.540436e-003	9.898067e-001
13978068.000	-9.037622e-003	9.898224e-001
13984062.000	-8.636974e-003	9.898706e-001
13990056.000	-8.315739e-003	9.896867e-001
13996050.000	-7.873179e-003	9.897777e-001
14002044.000	-7.405431e-003	9.898087e-001
14008038.000	-6.993621e-003	9.898450e-001
14014032.000	-6.569930e-003	9.898347e-001
14020026.000	-6.140270e-003	9.898190e-001
14026020.000	-5.724981e-003	9.898285e-001
14032014.000	-5.387514e-003	9.898105e-001
14038008.000	-4.923489e-003	9.898571e-001
14044002.000	-4.453446e-003	9.898379e-001
14049996.000	-4.112739e-003	9.897972e-001
14055990.000	-3.663124e-003	9.898520e-001
14061984.000	-3.251941e-003	9.898025e-001
14067978.000	-2.810393e-003	9.898435e-001
14073972.000	-2.408116e-003	9.898265e-001
14079966.000	-1.924190e-003	9.898532e-001
14085960.000	-1.551568e-003	9.898154e-001
14091954.000	-1.066603e-003	9.898136e-001
14097948.000	-6.364041e-004	9.898958e-001
14103942.000	-2.338748e-004	9.898542e-001
14109936.000	1.570008e-004	9.899412e-001
14115930.000	5.852045e-004	9.898594e-001
14121924.000	1.038144e-003	9.898844e-001
14127918.000	1.429344e-003	9.898849e-001
14133912.000	1.873814e-003	9.899124e-001
14139906.000	2.306110e-003	9.898620e-001
14145900.000	2.716582e-003	9.898540e-001
14151894.000	3.112354e-003	9.898494e-001
14157888.000	3.571577e-003	9.899009e-001
14163882.000	3.988539e-003	9.898888e-001
14169876.000	4.382109e-003	9.899060e-001
14175870.000	4.806355e-003	9.898976e-001
14181864.000	5.259077e-003	9.899192e-001
14187858.000	5.630253e-003	9.898862e-001
14193852.000	6.011032e-003	9.898635e-001
14199846.000	6.429030e-003	9.898224e-001
14205840.000	6.892402e-003	9.899037e-001
14211834.000	7.297950e-003	9.898828e-001
14217828.000	7.588326e-003	9.898234e-001
14223822.000	8.081626e-003	9.899192e-001
14229816.000	8.463412e-003	9.898886e-001
14235810.000	8.984766e-003	9.898691e-001
14241804.000	9.375467e-003	9.899058e-001
14247798.000	9.806108e-003	9.898622e-001
14253792.000	1.024065e-002	9.899196e-001
14259786.000	1.065935e-002	9.898562e-001
14265780.000	1.103846e-002	9.898717e-001
14271774.000	1.152722e-002	9.899322e-001
14277768.000	1.192617e-002	9.898372e-001
14283762.000	1.227899e-002	9.898340e-001
14289756.000	1.274533e-002	9.898792e-001
14295750.000	1.313443e-002	9.899022e-001
14301744.000	1.331066e-002	9.899188e-001
14307738.000	1.386568e-002	9.898868e-001
14313732.000	1.436093e-002	9.898464e-001
14319726.000	1.475889e-002	9.898141e-001
14325720.000	1.520595e-002	9.898615e-001
14331714.000	1.557143e-002	9.898692e-001
14337708.000	1.598176e-002	9.898585e-001
14343702.000	1.642343e-002	9.898212e-001
14349696.000	1.681716e-002	9.897752e-001
14355690.000	1.722623e-002	9.898946e-001
14361684.000	1.761809e-002	9.898034e-001
14367678.000	1.803000e-002	9.898313e-001
14373672.000	1.841632e-002	9.897764e-001
14379666.000	1.885901e-002	9.897628e-001
14385660.000	1.926592e-002	9.898155e-001
14391654.000	1.978176e-002	9.897982e-001
14397648.000	2.013743e-002	9.898251e-001
14403642.000	2.045386e-002	9.898342e-001
14409636.000	2.092366e-002	9.898105e-001
14415630.000	2.136800e-002	9.897673e-001
14421624.000	2.171842e-002	9.897269e-001
14427618.000	2.223906e-002	9.897541e-001
14433612.000	2.260918e-002	9.897446e-001
14439606.000	2.300082e-002	9.896871e-001
14445600.000	2.348797e-002	9.897489e-001
14451594.000	2.391333e-002	9.897128e-001
14457588.000	2.430637e-002	9.896925e-001
14463582.000	2.469282e-002	9.897642e-001
14469576.000	2.508554e-002	9.897529e-001
14475570.000	2.551387e-002	9.896767e-001
14481564.000	2.594419e-002	9.897044e-001
14487558.000	2.627696e-002	9.897796e-001
14493552.000	2.669584e-002	9.896572e-001
14499546.000	2.708221e-002	9.896225e-001
14505540.000	2.746141e-002	9.896520e-001
14511534.000	2.791849e-002	9.896693e-001
14517528.000	2.829937e-002	9.896467e-001
14523522.000	2.868035e-002	9.896574e-001
14529516.000	2.915586e-002	9.896074e-001
14535510.000	2.950398e-002	9.895941e-001
14541504.000	3.002761e-002	9.895480e-001
14547498.000	3.037849e-002	9.895413e-001
14553492.000	3.084151e-002	9.895733e-001
14559486.000	3.123509e-002	9.896012e-001
14565480.000	3.164966e-002	9.895651e-001
14571474.000	3.200416e-002	9.895760e-001
14577468.000	3.244417e-002	9.894910e-001
14583462.000	3.288923e-002	9.895091e-001
14589456.000	3.326977e-002	9.894823e-001
14595450.000	3.367860e-002	9.895059e-001
14601444.000	3.407038e-002	9.894503e-001
14607438.000	3.453140e-002	9.895118e-001
14613432.000	3.495533e-002	9.894525e-001
14619426.000	3.529366e-002	9.894553e-001
14625420.000	3.574037e-002	9.894409e-001
14631414.000	3.619216e-002	9.894925e-001
14637408.000	3.655520e-002	9.894546e-001
14643402.000	3.686093e-002	9.894339e-001
14649396.000	3.731089e-002	9.894475e-001
14655390.000	3.773724e-002	9.894234e-001
14661384.000	3.818680e-002	9.894156e-001
14667378.000	3.847324e-002	9.893904e-001
14673372.000	3.898471e-002	9.893563e-001
14679366.000	3.945080e-002	9.893542e-001
14685360.000	3.973161e-002	9.893234e-001
14691354.000	4.018122e-002	9.893240e-001
14697348.000	4.062089e-002	9.893181e-001
14703342.000	4.096031e-002	9.893357e-001
14709336.000	4.148139e-002	9.893105e-001
14715330.000	4.176355e-002	9.892590e-001
14721324.000	4.224015e-002	9.893082e-001
14727318.000	4.257951e-002	9.892842e-001
14733312.000	4.298975e-002	9.892393e-001
14739306.000	4.337896e-002	9.891340e-001
14745300.000	4.384249e-002	9.891872e-001
14751294.000	4.423521e-002	9.892061e-001
14757288.000	4.462526e-002	9.891760e-001
14763282.000	4.499775e-002	9.892173e-001
14769276.000	4.537168e-002	9.891347e-001
14775270.000	4.579398e-002	9.891325e-001
14781264.000	4.619741e-002	9.890570e-001
14787258.000	4.660687e-002	9.891110e-001
14793252.000	4.700024e-002	9.890243e-001
14799246.000	4.736177e-002	9.890397e-001
14805240.000	4.767513e-002	9.890165e-001
14811234.000	4.828873e-002	9.890298e-001
14817228.000	4.863984e-002	9.890427e-001
14823222.000	4.912798e-002	9.889414e-001
14829216.000	4.956064e-002	9.889474e-001
14835210.000	4.987377e-002	9.889453e-001
14841204.000	5.026503e-002	9.889244e-001
14847198.000	5.067336e-002	9.888479e-001
14853192.000	5.109499e-002	9.888540e-001
14859186.000	5.147428e-002	9.888376e-001
14865180.000	5.189061e-002	9.888645e-001
14871174.000	5.226521e-002	9.888331e-001
14877168.000	5.267670e-002	9.887850e-001
14883162.000	5.305806e-002	9.888263e-001
14889156.000	5.345499e-002	9.888222e-001
14895150.000	5.391646e-002	9.887291e-001
14901144.000	5.430437e-002	9.886455e-001
14907138.000	5.462320e-002	9.887102e-001
14913132.000	5.501191e-002	9.886940e-001
14919126.000	5.545814e-002	9.887177e-001
14925120.000	5.586542e-002	9.886786e-001
14931114.000	5.626250e-002	9.885995e-001
14937108.000	5.677366e-002	9.886143e-001
14943102.000	5.707141e-002	9.885936e-001
14949096.000	5.747896e-002	9.885878e-001
14955090.000	5.791793e-002	9.885653e-001
14961084.000	5.833179e-002	9.885678e-001
14967078.000	5.874637e-002	9.885725e-001
14973072.000	5.907611e-002	9.884722e-001
14979066.000	5.948682e-002	9.884546e-001
14985060.000	5.994452e-002	9.884518e-001
14991054.000	6.029095e-002	9.884783e-001
14997048.000	6.070855e-002	9.884442e-001
15003042.000	6.109875e-002	9.884566e-001
15009036.000	6.154690e-002	9.884294e-001
15015030.000	6.189597e-002	9.884096e-001
15021024.000	6.229787e-002	9.883816e-001
15027018.000	6.263941e-002	9.883163e-001
15033012.000	6.307204e-002	9.882882e-001
15039006.000	6.341186e-002	9.882714e-001
15045000.000	6.375859e-002	9.882864e-001
15050994.000	6.417582e-002	9.882667e-001
15056988.000	6.451443e-002	9.881498e-001
15062982.000	6.502498e-002	9.881662e-001
15068976.000	6.536367e-002	9.881519e-001
15074970.000	6.578794e-002	9.881247e-001
15080964.000	6.621694e-002	9.880931e-001
15086958.000	6.661685e-002	9.880893e-001
15092952.000	6.700262e-002	9.881325e-001
15098946.000	6.735578e-002	9.880692e-001
15104940.000	6.777474e-002	9.880313e-001
15110934.000	6.811896e-002	9.879726e-001
15116928.000	6.861182e-002	9.879881e-001
15122922.000	6.894811e-002	9.879504e-001
15128916.000	6.938599e-002	9.879169e-001
15134910.000	6.965298e-002	9.878703e-001
15140904.000	7.010506e-002	9.879016e-001
15146898.000	7.049140e-002	9.878202e-001
15152892.000	7.090348e-002	9.878393e-001
15158886.000	7.127018e-002	9.877780e-001
15164880.000	7.164938e-002	9.877056e-001
15170874.000	7.207118e-002	9.877269e-001
15176868.000	7.246270e-002	9.877459e-001
15182862.000	7.286098e-002	9.877987e-001
15188856.000	7.320438e-002	9.876381e-001
15194850.000	7.357506e-002	9.876365e-001
15200844.000	7.396807e-002	9.876668e-001
15206838.000	7.437851e-002	9.876507e-001
15212832.000	7.470023e-002	9.875603e-001
15218826.000	7.517197e-002	9.874949e-001
15224820.000	7.554072e-002	9.875025e-001
15230814.000	7.590734e-002	9.874081e-001
15236808.000	7.631708e-002	9.874502e-001
15242802.000	7.668878e-002	9.874406e-001
15248796.000	7.708921e-002	9.874122e-001
15254790.000	7.750702e-002	9.873846e-001
15260784.000	7.785193e-002	9.874251e-001
15266778.000	7.829610e-002	9.873527e-001
15272772.000	7.869342e-002	9.872661e-001
15278766.000	7.906331e-002	9.872553e-001
15284760.000	7.947588e-002	9.873118e-001
15290754.000	7.981174e-002	9.872498e-001
15296748.000	8.022499e-002	9.871424e-001
15302742.000	8.061296e-002	9.872005e-001
15308736.000	8.108375e-002	9.871113e-001
15314730.000	8.136372e-002	9.871373e-001
15320724.000	8.176791e-002	9.870612e-001
15326718.000	8.211256e-002	9.870664e-001
15332712.000	8.256284e-002	9.870058e-001
15338706.000	8.295535e-002	9.870245e-001
15344700.000	8.326150e-002	9.868839e-001
15350694.000	8.360936e-002	9.868481e-001
15356688.000	8.416120e-002	9.868907e-001
15362682.000	8.450445e-002	9.868623e-001
15368676.000	8.486651e-002	9.868510e-001
15374670.000	8.520353e-002	9.867886e-001
15380664.000	8.532190e-002	9.868345e-001
15386658.000	8.594031e-002	9.867474e-001
15392652.000	8.630106e-002	9.866485e-001
15398646.000	8.669140e-002	9.866732e-001
15404640.000	8.708750e-002	9.866477e-001
15410634.000	8.747160e-002	9.866589e-001
15416628.000	8.784483e-002	9.866223e-001
15422622.000	8.823431e-002	9.866060e-001
15428616.000	8.861591e-002	9.865437e-001
15434610.000	8.899452e-002	9.864746e-001
15440604.000	8.945436e-002	9.864635e-001
15446598.000	8.974138e-002	9.864616e-001
15452592.000	9.019385e-002	9.863813e-001
15458586.000	9.040687e-002	9.863269e-001
15464580.000	9.092316e-002	9.863160e-001
15470574.000	9.135394e-002	9.863472e-001
15476568.000	9.176548e-002	9.862966e-001
15482562.000	9.209458e-002	9.862236e-001
15488556.000	9.247357e-002	9.862229e-001
15494550.000	9.285045e-002	9.861937e-001
15500544.000	9.324635e-002	9.861771e-001
15506538.000	9.357280e-002	9.861229e-001
15512532.000	9.402439e-002	9.860535e-001
15518526.000	9.440966e-002	9.860612e-001
15524520.000	9.479440e-002	9.859977e-001
15530514.000	9.510458e-002	9.860274e-001
15536508.000	9.553850e-002	9.859591e-001
15542502.000	9.588495e-002	9.858577e-001
15548496.000	9.629820e-002	9.858073e-001
15554490.000	9.662928e-002	9.858302e-001
15560484.000	9.701081e-002	9.858145e-001
15566478.000	9.745614e-002	9.857483e-001
15572472.000	9.774546e-002	9.857371e-001
15578466.000	9.816427e-002	9.856791e-001
15584460.000	9.859981e-002	9.856690e-001
15590454.000	9.893119e-002	9.855980e-001
15596448.000	9.930357e-002	9.855399e-001
15602442.000	9.968052e-002	9.854628e-001
15608436.000	1.000452e-001	9.855487e-001
15614430.000	1.004238e-001	9.854749e-001
15620424.000	1.007727e-001	9.854356e-001
15626418.000	1.011319e-001	9.853504e-001
15632412.000	1.015530e-001	9.854240e-001
15638406.000	1.019285e-001	9.852992e-001
15644400.000	1.022680e-001	9.852516e-001
15650394.000	1.026357e-001	9.852449e-001
15656388.000	1.030595e-001	9.851759e-001
15662382.000	1.034778e-001	9.852215e-001
15668376.000	1.038834e-001	9.850827e-001
15674370.000	1.042524e-001	9.850886e-001
15680364.000	1.045796e-001	9.850335e-001
15686358.000	1.049928e-001	9.849929e-001
15692352.000	1.053543e-001	9.849415e-001
15698346.000	1.057146e-001	9.849576e-001
15704340.000	1.061147e-001	9.849133e-001
15710334.000	1.065022e-001	9.849033e-001
15716328.000	1.069471e-001	9.848110e-001
15722322.000	1.072598e-001	9.848199e-001
15728316.000	1.076452e-001	9.847789e-001
15734310.000	1.080735e-001	9.847300e-001
15740304.000	1.083694e-001	9.846443e-001
15746298.000	1.087407e-001	9.846111e-001
15752292.000	1.092002e-001	9.845886e-001
15758286.000	1.094913e-001	9.845508e-001
15764280.000	1.098558e-001	9.845366e-001
15770274.000	1.101295e-001	9.844097e-001
15776268.000	1.106764e-001	9.844273e-001
15782262.000	1.109419e-001	9.844309e-001
15788256.000	1.113698e-001	9.844964e-001
15794250.000	1.116674e-001	9.843985e-001
15800244.000	1.121270e-001	9.842919e-001
15806238.000	1.124423e-001	9.842831e-001
15812232.000	1.129503e-001	9.842226e-001
15818226.000	1.132111e-001	9.842336e-001
15824220.000	1.136023e-001	9.841826e-001
15830214.000	1.139735e-001	9.841487e-001
15836208.000	1.143320e-001	9.840227e-001
15842202.000	1.147695e-001	9.841070e-001
15848196.000	1.150306e-001	9.840546e-001
15854190.000	1.154444e-001	9.839788e-001
15860184.000	1.158381e-001	9.839331e-001
15866178.000	1.161863e-001	9.838697e-001
15872172.000	1.166510e-001	9.838718e-001
15878166.000	1.169374e-001	9.838115e-001
15884160.000	1.173388e-001	9.837312e-001
15890154.000	1.177320e-001	9.837473e-001
15896148.000	1.181168e-001	9.837123e-001
15902142.000	1.184071e-001	9.836316e-001
15908136.000	1.188269e-001	9.836310e-001
15914130.000	1.190959e-001	9.835560e-001
15920124.000	1.195645e-001	9.835303e-001
15926118.000	1.198802e-001	9.834326e-001
15932112.000	1.202536e-001	9.834967e-001
15938106.000	1.206021e-001	9.833652e-001
15944100.000	1.210581e-001	9.833538e-001
15950094.000	1.213670e-001	9.832786e-001
15956088.000	1.217529e-001	9.832338e-001
15962082.000	1.220547e-001	9.832049e-001
15968076.000	1.224801e-001	9.831654e-001
15974070.000	1.228230e-001	9.831456e-001
15980064.000	1.232007e-001	9.830690e-001
15986058.000	1.235838e-001	9.830283e-001
15992052.000	1.239695e-001	9.830205e-001
15998046.000	1.243060e-001	9.829263e-001
16004040.000	1.246748e-001	9.828866e-001
16010034.000	1.250527e-001	9.828659e-001
16016028.000	1.254310e-001	9.828043e-001
16022022.000	1.257562e-001	9.827040e-001
16028016.000	1.261186e-001	9.827537e-001
16034010.000	1.265254e-001	9.826425e-001
16040004.000	1.269215e-001	9.826084e-001
16045998.000	1.272486e-001	9.826106e-001
16051992.000	1.276245e-001	9.825934e-001
16057986.000	1.279504e-001	9.824797e-001
16063980.000	1.283897e-001	9.824682e-001
16069974.000	1.286675e-001	9.824777e-001
16075968.000	1.290892e-001	9.823514e-001
16081962.000	1.294326e-001	9.823066e-001
16087956.000	1.298082e-001	9.822709e-001
16093950.000	1.302199e-001	9.822360e-001
16099944.000	1.305517e-001	9.821761e-001
16105938.000	1.309210e-001	9.821295e-001
16111932.000	1.313501e-001	9.821096e-001
16117926.000	1.316404e-001	9.820733e-001
16123920.000	1.319997e-001	9.820076e-001
16129914.000	1.323685e-001	9.819728e-001
16135908.000	1.327141e-001	9.819157e-001
16141902.000	1.331233e-001	9.818214e-001
16147896.000	1.333778e-001	9.818750e-001
16153890.000	1.338638e-001	9.817658e-001
16159884.000	1.341250e-001	9.818011e-001
16165878.000	1.345269e-001	9.816981e-001
16171872.000	1.348900e-001	9.816452e-001
16177866.000	1.353133e-001	9.815510e-001
16183860.000	1.356416e-001	9.815357e-001
16189854.000	1.360255e-001	9.815891e-001
16195848.000	1.363542e-001	9.813988e-001
16201842.000	1.366997e-001	9.813315e-001
16207836.000	1.371458e-001	9.813686e-001
16213830.000	1.374832e-001	9.812637e-001
16219824.000	1.377379e-001	9.812951e-001
16225818.000	1.382071e-001	9.811678e-001
16231812.000	1.385417e-001	9.811970e-001
16237806.000	1.389435e-001	9.811674e-001
16243800.000	1.393070e-001	9.810591e-001
16249794.000	1.396367e-001	9.810728e-001
16255788.000	1.399937e-001	9.809214e-001
16261782.000	1.402371e-001	9.809147e-001
16267776.000	1.406459e-001	9.808682e-001
16273770.000	1.410415e-001	9.808670e-001
16279764.000	1.413885e-001	9.807634e-001
16285758.000	1.418159e-001	9.806669e-001
16291752.000	1.421700e-001	9.806753e-001
16297746.000	1.424485e-001	9.805828e-001
16303740.000	1.428686e-001	9.806115e-001
16309734.000	1.432337e-001	9.805168e-001
16315728.000	1.435290e-001	9.805217e-001
16321722.000	1.439112e-001	9.804286e-001
16327716.000	1.442930e-001	9.803815e-001
16333710.000	1.446335e-001	9.803057e-001
16339704.000	1.449739e-001	9.802938e-001
16345698.000	1.454084e-001	9.802376e-001
16351692.000	1.457630e-001	9.801839e-001
16357686.000	1.460045e-001	9.801022e-001
16363680.000	1.464203e-001	9.800522e-001
16369674.000	1.467631e-001	9.799448e-001
16375668.000	1.471224e-001	9.799634e-001
16381662.000	1.475015e-001	9.799429e-001
16387656.000	1.477855e-001	9.798297e-001
16393650.000	1.481433e-001	9.798030e-001
16399644.000	1.485533e-001	9.797652e-001
16405638.000	1.489202e-001	9.797464e-001
16411632.000	1.493049e-001	9.796631e-001
16417626.000	1.496698e-001	9.795249e-001
16423620.000	1.500090e-001	9.795766e-001
16429614.000	1.504275e-001	9.795387e-001
16435608.000	1.507147e-001	9.794388e-001
16441602.000	1.510795e-001	9.793765e-001
16447596.000	1.514061e-001	9.794076e-001
16453590.000	1.516744e-001	9.792365e-001
16459584.000	1.521002e-001	9.792316e-001
16465578.000	1.524130e-001	9.791531e-001
16471572.000	1.527937e-001	9.791640e-001
16477566.000	1.531822e-001	9.790940e-001
16483560.000	1.534752e-001	9.790443e-001
16489554.000	1.538092e-001	9.789728e-001
16495548.000	1.542442e-001	9.789211e-001
16501542.000	1.546014e-001	9.788544e-001
16507536.000	1.550171e-001	9.788031e-001
16513530.000	1.553066e-001	9.787066e-001
16519524.000	1.556487e-001	9.786842e-001
16525518.000	1.559834e-001	9.786741e-001
16531512.000	1.563539e-001	9.785523e-001
16537506.000	1.566999e-001	9.785716e-001
16543500.000	1.571049e-001	9.784593e-001
16549494.000	1.573890e-001	9.784338e-001
16555488.000	1.577391e-001	9.784284e-001
16561482.000	1.580646e-001	9.782553e-001
16567476.000	1.584695e-001	9.782781e-001
16573470.000	1.588512e-001	9.782005e-001
16579464.000	1.590924e-001	9.781879e-001
16585458.000	1.594851e-001	9.781434e-001
16591452.000	1.599150e-001	9.779949e-001
16597446.000	1.602780e-001	9.780117e-001
16603440.000	1.606247e-001	9.779841e-001
16609434.000	1.609617e-001	9.778508e-001
16615428.000	1.613115e-001	9.778098e-001
16621422.000	1.615812e-001	9.777802e-001
16627416.000	1.620141e-001	9.777861e-001
16633410.000	1.624004e-001	9.777267e-001
16639404.000	1.626305e-001	9.776514e-001
16645398.000	1.630678e-001	9.775858e-001
16651392.000	1.634995e-001	9.775522e-001
16657386.000	1.637810e-001	9.775000e-001
16663380.000	1.640721e-001	9.774283e-001
16669374.000	1.644915e-001	9.773457e-001
16675368.000	1.647477e-001	9.772972e-001
16681362.000	1.651270e-001	9.772242e-001
16687356.000	1.655006e-001	9.771498e-001
16693350.000	1.657876e-001	9.771464e-001
16699344.000	1.662448e-001	9.770871e-001
16705338.000	1.665752e-001	9.769913e-001
16711332.000	1.668655e-001	9.769540e-001
16717326.000	1.672560e-001	9.769474e-001
16723320.000	1.675802e-001	9.768142e-001
16729314.000	1.679488e-001	9.768465e-001
16735308.000	1.682558e-001	9.767672e-001
16741302.000	1.686239e-001	9.766803e-001
16747296.000	1.690403e-001	9.766345e-001
16753290.000	1.693092e-001	9.765450e-001
16759284.000	1.696018e-001	9.765850e-001
16765278.000	1.700324e-001	9.764304e-001
16771272.000	1.703801e-001	9.764014e-001
16777266.000	1.706958e-001	9.763172e-001
16783260.000	1.710857e-001	9.762755e-001
16789254.000	1.714410e-001	9.762819e-001
16795248.000	1.717278e-001	9.762079e-001
16801242.000	1.720994e-001	9.760673e-001
16807236.000	1.724802e-001	9.760894e-001
16813230.000	1.727183e-001	9.760660e-001
16819224.000	1.730758e-001	9.759645e-001
16825218.000	1.734728e-001	9.758934e-001
16831212.000	1.737826e-001	9.757801e-001
16837206.000	1.741216e-001	9.757940e-001
16843200.000	1.745051e-001	9.756910e-001
16849194.000	1.748648e-001	9.755924e-001
16855188.000	1.751389e-001	9.755889e-001
16861182.000	1.755530e-001	9.754965e-001
16867176.000	1.758815e-001	9.755039e-001
16873170.000	1.761929e-001	9.753623e-001
16879164.000	1.765158e-001	9.753249e-001
16885158.000	1.769289e-001	9.753064e-001
16891152.000	1.772286e-001	9.752049e-001
16897146.000	1.776703e-001	9.752143e-001
16903140.000	1.777647e-001	9.752429e-001
16909134.000	1.782344e-001	9.751073e-001
16915128.000	1.786411e-001	9.749855e-001
16921122.000	1.789268e-001	9.749595e-001
16927116.000	1.792703e-001	9.748498e-001
16933110.000	1.795925e-001	9.748152e-001
16939104.000	1.800265e-001	9.747656e-001
16945098.000	1.803629e-001	9.746682e-001
16951092.000	1.807256e-001	9.746310e-001
16957086.000	1.810266e-001	9.745930e-001
16963080.000	1.814145e-001	9.744741e-001
16969074.000	1.816112e-001	9.744722e-001
16975068.000	1.820884e-001	9.743386e-001
16981062.000	1.824628e-001	9.742858e-001
16987056.000	1.827299e-001	9.742255e-001
16993050.000	1.830734e-001	9.741926e-001
16999044.000	1.833779e-001	9.741339e-001
17005038.000	1.837377e-001	9.740981e-001
17011032.000	1.840709e-001	9.740461e-001
17017026.000	1.842993e-001	9.738890e-001
17023020.000	1.847298e-001	9.738369e-001
17029014.000	1.850283e-001	9.738178e-001
17035008.000	1.854457e-001	9.737753e-001
17041002.000	1.857983e-001	9.736991e-001
17046996.000	1.860971e-001	9.736446e-001
17052990.000	1.864114e-001	9.735946e-001
17058984.000	1.867861e-001	9.734880e-001
17064978.000	1.872094e-001	9.734324e-001
17070972.000	1.874634e-001	9.734397e-001
17076966.000	1.878510e-001	9.732880e-001
17082960.000	1.881406e-001	9.732257e-001
17088954.000	1.884925e-001	9.731927e-001
17094948.000	1.889317e-001	9.730714e-001
17100942.000	1.891914e-001	9.730253e-001
17106936.000	1.894855e-001	9.729835e-001
17112930.000	1.898625e-001	9.729482e-001
17118924.000	1.901452e-001	9.728976e-001
17124918.000	1.904829e-001	9.727453e-001
17130912.000	1.909087e-001	9.727868e-001
17136906.000	1.911561e-001	9.726885e-001
17142900.000	1.915054e-001	9.726422e-001
17148894.000	1.918818e-001	9.725985e-001
17154888.000	1.922432e-001	9.724835e-001
17160882.000	1.925749e-001	9.724338e-001
17166876.000	1.928541e-001	9.723603e-001
17172870.000	1.931923e-001	9.723162e-001
17178864.000	1.934871e-001	9.722569e-001
17184858.000	1.938366e-001	9.721262e-001
17190852.000	1.941371e-001	9.721459e-001
17196846.000	1.945170e-001	9.720318e-001
17202840.000	1.948586e-001	9.720110e-001
17208834.000	1.952041e-001	9.719240e-001
17214828.000	1.955381e-001	9.718507e-001
17220822.000	1.958521e-001	9.718433e-001
17226816.000	1.962768e-001	9.717389e-001
17232810.000	1.965892e-001	9.717537e-001
17238804.000	1.969318e-001	9.716267e-001
17244798.000	1.972828e-001	9.715338e-001
17250792.000	1.975819e-001	9.714530e-001
17256786.000	1.978836e-001	9.714089e-001
17262780.000	1.982577e-001	9.713025e-001
17268774.000	1.985973e-001	9.712500e-001
17274768.000	1.989113e-001	9.711861e-001
17280762.000	1.992078e-001	9.711627e-001
17286756.000	1.994846e-001	9.710736e-001
17292750.000	1.998859e-001	9.709803e-001
17298744.000	2.001413e-001	9.709704e-001
17304738.000	2.005392e-001	9.708772e-001
17310732.000	2.008645e-001	9.708502e-001
17316726.000	2.012210e-001	9.707416e-001
17322720.000	2.016046e-001	9.706521e-001
17328714.000	2.018471e-001	9.705879e-001
17334708.000	2.022019e-001	9.704735e-001
17340702.000	2.025142e-001	9.704288e-001
17346696.000	2.028504e-001	9.704141e-001
17352690.000	2.031505e-001	9.702743e-001
17358684.000	2.035011e-001	9.703013e-001
17364678.000	2.038689e-001	9.701574e-001
17370672.000	2.041914e-001	9.701498e-001
17376666.000	2.044995e-001	9.700632e-001
17382660.000	2.048624e-001	9.700068e-001
17388654.000	2.051912e-001	9.699493e-001
17394648.000	2.055881e-001	9.698281e-001
17400642.000	2.058162e-001	9.697619e-001
17406636.000	2.062409e-001	9.697274e-001
17412630.000	2.064977e-001	9.696221e-001
17418624.000	2.068084e-001	9.696233e-001
17424618.000	2.071523e-001	9.695104e-001
17430612.000	2.074940e-001	9.694755e-001
17436606.000	2.077400e-001	9.694458e-001
17442600.000	2.081198e-001	9.693233e-001
17448594.000	2.084379e-001	9.692864e-001
17454588.000	2.088446e-001	9.691845e-001
17460582.000	2.090826e-001	9.691351e-001
17466576.000	2.094594e-001	9.690729e-001
17472570.000	2.098592e-001	9.690105e-001
17478564.000	2.100186e-001	9.689267e-001
17484558.000	2.104818e-001	9.688236e-001
17490552.000	2.108312e-001	9.687615e-001
17496546.000	2.110678e-001	9.687255e-001
17502540.000	2.114107e-001	9.686180e-001
17508534.000	2.117042e-001	9.685503e-001
17514528.000	2.120920e-001	9.685607e-001
17520522.000	2.124371e-001	9.684238e-001
17526516.000	2.127958e-001	9.683934e-001
17532510.000	2.131042e-001	9.683064e-001
17538504.000	2.134246e-001	9.682038e-001
17544498.000	2.136868e-001	9.682032e-001
17550492.000	2.140546e-001	9.680806e-001
17556486.000	2.144037e-001	9.680214e-001
17562480.000	2.147074e-001	9.679475e-001
17568474.000	2.149885e-001	9.679416e-001
17574468.000	2.153654e-001	9.678042e-001
17580462.000	2.157227e-001	9.677703e-001
17586456.000	2.159980e-001	9.677073e-001
17592450.000	2.163013e-001	9.676444e-001
17598444.000	2.166153e-001	9.675189e-001
17604438.000	2.168953e-001	9.674973e-001
17610432.000	2.172886e-001	9.673136e-001
17616426.000	2.176215e-001	9.673014e-001
17622420.000	2.179208e-001	9.672494e-001
17628414.000	2.182689e-001	9.671740e-001
17634408.000	2.185926e-001	9.670565e-001
17640402.000	2.189491e-001	9.670826e-001
17646396.000	2.192350e-001	9.670159e-001
17652390.000	2.195702e-001	9.669537e-001
17658384.000	2.198684e-001	9.667930e-001
17664378.000	2.201734e-001	9.667697e-001
17670372.000	2.205180e-001	9.666898e-001
17676366.000	2.208518e-001	9.666721e-001
17682360.000	2.212055e-001	9.665353e-001
17688354.000	2.215547e-001	9.664999e-001
17694348.000	2.218079e-001	9.664042e-001
17700342.000	2.221947e-001	9.663544e-001
17706336.000	2.224325e-001	9.662417e-001
17712330.000	2.228409e-001	9.661491e-001
17718324.000	2.231061e-001	9.661307e-001
17724318.000	2.234033e-001	9.660855e-001
17730312.000	2.237458e-001	9.659980e-001
17736306.000	2.240107e-001	9.658988e-001
17742300.000	2.243551e-001	9.658685e-001
17748294.000	2.246702e-001	9.658282e-001
17754288.000	2.250374e-001	9.656923e-001
17760282.000	2.252915e-001	9.656313e-001
17766276.000	2.256324e-001	9.654833e-001
17772270.000	2.260305e-001	9.654906e-001
17778264.000	2.263264e-001	9.653713e-001
17784258.000	2.266768e-001	9.653268e-001
17790252.000	2.269948e-001	9.652134e-001
17796246.000	2.272785e-001	9.651760e-001
17802240.000	2.276081e-001	9.651166e-001
17808234.000	2.279225e-001	9.650224e-001
17814228.000	2.281648e-001	9.649477e-001
17820222.000	2.285248e-001	9.648713e-001
17826216.000	2.288674e-001	9.648709e-001
17832210.000	2.292025e-001	9.647264e-001
17838204.000	2.294970e-001	9.646441e-001
17844198.000	2.298675e-001	9.645608e-001
17850192.000	2.301029e-001	9.645396e-001
17856186.000	2.305317e-001	9.644334e-001
17862180.000	2.307607e-001	9.643727e-001
17868174.000	2.311694e-001	9.643381e-001
17874168.000	2.313667e-001	9.642903e-001
17880162.000	2.316992e-001	9.641250e-001
17886156.000	2.319911e-001	9.641532e-001
17892150.000	2.323618e-001	9.639792e-001
17898144.000	2.327111e-001	9.638876e-001
17904138.000	2.329875e-001	9.638837e-001
17910132.000	2.333572e-001	9.638001e-001
17916126.000	2.335705e-001	9.637574e-001
17922120.000	2.339258e-001	9.636583e-001
17928114.000	2.342347e-001	9.634833e-001
17934108.000	2.345120e-001	9.634927e-001
17940102.000	2.348802e-001	9.634342e-001
17946096.000	2.352060e-001	9.633197e-001
17952090.000	2.354953e-001	9.632199e-001
17958084.000	2.358364e-001	9.631889e-001
17964078.000	2.360791e-001	9.630903e-001
17970072.000	2.363948e-001	9.630916e-001
17976066.000	2.367171e-001	9.629094e-001
17982060.000	2.371090e-001	9.628897e-001
17988054.000	2.374428e-001	9.628741e-001
17994048.000	2.377853e-001	9.627233e-001
18000042.000	2.379311e-001	9.626801e-001
18006036.000	2.382827e-001	9.625931e-001
18012030.000	2.385978e-001	9.624911e-001
18018024.000	2.389506e-001	9.625021e-001
18024018.000	2.392591e-001	9.623594e-001
18030012.000	2.395482e-001	9.623097e-001
18036006.000	2.398605e-001	9.621778e-001
18042000.000	2.402031e-001	9.621101e-001
18047994.000	2.405844e-001	9.619942e-001
18053988.000	2.409416e-001	9.620009e-001
18059982.000	2.411924e-001	9.619307e-001
18065976.000	2.414195e-001	9.618536e-001
18071970.000	2.417628e-001	9.617365e-001
18077964.000	2.420542e-001	9.617400e-001
18083958.000	2.423399e-001	9.615691e-001
18089952.000	2.427033e-001	9.615292e-001
18095946.000	2.430668e-001	9.614709e-001
18101940.000	2.433388e-001	9.613879e-001
18107934.000	2.436092e-001	9.613023e-001
18113928.000	2.439416e-001	9.612739e-001
18119922.000	2.442714e-001	9.610701e-001
18125916.000	2.446213e-001	9.610497e-001
18131910.000	2.448258e-001	9.609846e-001
18137904.000	2.452507e-001	9.609228e-001
18143898.000	2.455842e-001	9.608884e-001
18149892.000	2.458506e-001	9.608339e-001
18155886.000	2.461968e-001	9.607091e-001
18161880.000	2.464970e-001	9.606571e-001
18167874.000	2.467696e-001	9.604872e-001
18173868.000	2.470690e-001	9.605013e-001
18179862.000	2.473719e-001	9.603938e-001
18185856.000	2.476662e-001	9.603033e-001
18191850.000	2.480290e-001	9.602732e-001
18197844.000	2.483250e-001	9.601401e-001
18203838.000	2.486834e-001	9.600367e-001
18209832.000	2.489427e-001	9.600625e-001
18215826.000	2.492527e-001	9.599243e-001
18221820.000	2.495929e-001	9.598626e-001
18227814.000	2.498145e-001	9.597833e-001
18233808.000	2.502120e-001	9.596360e-001
18239802.000	2.505452e-001	9.595653e-001
18245796.000	2.507934e-001	9.595052e-001
18251790.000	2.510860e-001	9.594455e-001
18257784.000	2.514541e-001	9.594137e-001
18263778.000	2.517475e-001	9.592356e-001
18269772.000	2.519986e-001	9.591964e-001
18275766.000	2.523399e-001	9.590852e-001
18281760.000	2.525629e-001	9.590434e-001
18287754.000	2.529540e-001	9.589964e-001
18293748.000	2.532573e-001	9.589459e-001
18299742.000	2.534808e-001	9.588125e-001
18305736.000	2.538103e-001	9.587746e-001
18311730.000	2.540658e-001	9.587206e-001
18317724.000	2.543769e-001	9.585201e-001
18323718.000	2.547478e-001	9.585267e-001
18329712.000	2.551037e-001	9.584689e-001
18335706.000	2.553799e-001	9.583261e-001
18341700.000	2.556485e-001	9.582767e-001
18347694.000	2.559570e-001	9.581372e-001
18353688.000	2.563218e-001	9.580886e-001
18359682.000	2.566263e-001	9.580474e-001
18365676.000	2.569172e-001	9.578931e-001
18371670.000	2.572985e-001	9.578511e-001
18377664.000	2.575771e-001	9.578567e-001
18383658.000	2.577991e-001	9.577261e-001
18389652.000	2.582019e-001	9.575869e-001
18395646.000	2.584456e-001	9.575714e-001
18401640.000	2.587626e-001	9.574486e-001
18407634.000	2.590988e-001	9.574162e-001
18413628.000	2.594091e-001	9.573796e-001
18419622.000	2.596572e-001	9.573024e-001
18425616.000	2.599620e-001	9.571650e-001
18431610.000	2.602258e-001	9.570505e-001
18437604.000	2.605240e-001	9.569944e-001
18443598.000	2.608762e-001	9.569569e-001
18449592.000	2.611973e-001	9.568578e-001
18455586.000	2.614354e-001	9.567785e-001
18461580.000	2.617550e-001	9.565994e-001
18467574.000	2.620393e-001	9.565757e-001
18473568.000	2.623669e-001	9.565671e-001
18479562.000	2.627087e-001	9.564399e-001
18485556.000	2.629607e-001	9.563573e-001
18491550.000	2.633321e-001	9.562428e-001
18497544.000	2.635974e-001	9.562077e-001
18503538.000	2.638954e-001	9.561332e-001
18509532.000	2.642079e-001	9.560630e-001
18515526.000	2.644113e-001	9.559506e-001
18521520.000	2.647823e-001	9.559187e-001
18527514.000	2.650928e-001	9.558266e-001
18533508.000	2.654105e-001	9.557005e-001
18539502.000	2.657847e-001	9.556404e-001
18545496.000	2.659944e-001	9.555172e-001
18551490.000	2.663221e-001	9.554355e-001
18557484.000	2.666723e-001	9.553862e-001
18563478.000	2.670284e-001	9.553183e-001
18569472.000	2.673222e-001	9.552641e-001
18575466.000	2.675500e-001	9.551459e-001
18581460.000	2.678386e-001	9.550426e-001
18587454.000	2.680862e-001	9.549875e-001
18593448.000	2.683551e-001	9.548542e-001
18599442.000	2.686873e-001	9.548247e-001
18605436.000	2.691173e-001	9.547263e-001
18611430.000	2.693615e-001	9.546405e-001
18617424.000	2.696701e-001	9.545281e-001
18623418.000	2.699508e-001	9.544824e-001
18629412.000	2.702238e-001	9.543579e-001
18635406.000	2.705387e-001	9.542924e-001
18641400.000	2.708276e-001	9.542365e-001
18647394.000	2.711068e-001	9.541034e-001
18653388.000	2.714048e-001	9.540584e-001
18659382.000	2.716720e-001	9.539942e-001
18665376.000	2.719915e-001	9.539560e-001
18671370.000	2.723339e-001	9.538539e-001
18677364.000	2.725751e-001	9.537565e-001
18683358.000	2.729310e-001	9.536048e-001
18689352.000	2.732591e-001	9.535869e-001
18695346.000	2.735200e-001	9.535209e-001
18701340.000	2.737478e-001	9.533505e-001
18707334.000	2.740269e-001	9.532778e-001
18713328.000	2.744393e-001	9.532791e-001
18719322.000	2.747036e-001	9.531988e-001
18725316.000	2.750113e-001	9.531130e-001
18731310.000	2.753271e-001	9.530532e-001
18737304.000	2.756446e-001	9.529558e-001
18743298.000	2.759609e-001	9.528712e-001
18749292.000	2.761442e-001	9.527717e-001
18755286.000	2.764503e-001	9.526673e-001
18761280.000	2.767561e-001	9.526132e-001
18767274.000	2.770580e-001	9.525891e-001
18773268.000	2.774309e-001	9.524210e-001
18779262.000	2.776524e-001	9.523184e-001
18785256.000	2.779219e-001	9.522173e-001
18791250.000	2.782740e-001	9.521971e-001
18797244.000	2.785390e-001	9.520926e-001
18803238.000	2.789041e-001	9.519960e-001
18809232.000	2.791355e-001	9.518934e-001
18815226.000	2.794558e-001	9.518133e-001
18821220.000	2.797474e-001	9.517848e-001
18827214.000	2.800365e-001	9.516157e-001
18833208.000	2.803511e-001	9.515742e-001
18839202.000	2.806647e-001	9.514611e-001
18845196.000	2.809197e-001	9.513827e-001
18851190.000	2.813124e-001	9.513525e-001
18857184.000	2.814990e-001	9.512470e-001
18863178.000	2.817917e-001	9.511775e-001
18869172.000	2.821205e-001	9.510922e-001
18875166.000	2.823438e-001	9.510725e-001
18881160.000	2.826712e-001	9.508789e-001
18887154.000	2.829919e-001	9.508298e-001
18893148.000	2.832331e-001	9.507284e-001
18899142.000	2.835282e-001	9.506281e-001
18905136.000	2.838191e-001	9.505880e-001
18911130.000	2.841606e-001	9.504658e-001
18917124.000	2.843318e-001	9.503625e-001
18923118.000	2.846920e-001	9.503041e-001
18929112.000	2.850371e-001	9.501600e-001
18935106.000	2.852767e-001	9.501438e-001
18941100.000	2.855534e-001	9.501100e-001
18947094.000	2.858502e-001	9.499521e-001
18953088.000	2.860951e-001	9.498487e-001
18959082.000	2.864701e-001	9.497896e-001
18965076.000	2.867099e-001	9.496870e-001
18971070.000	2.870260e-001	9.496189e-001
18977064.000	2.873010e-001	9.495209e-001
18983058.000	2.875970e-001	9.494577e-001
18989052.000	2.879074e-001	9.493268e-001
18995046.000	2.881795e-001	9.492927e-001
19001040.000	2.884495e-001	9.492113e-001
19007034.000	2.887582e-001	9.491198e-001
19013028.000	2.890268e-001	9.490167e-001
19019022.000	2.893497e-001	9.489209e-001
19025016.000	2.896564e-001	9.488256e-001
19031010.000	2.898838e-001	9.487605e-001
19037004.000	2.902192e-001	9.485717e-001
19042998.000	2.904469e-001	9.485960e-001
19048992.000	2.907583e-001	9.485506e-001
19054986.000	2.910991e-001	9.483884e-001
19060980.000	2.913833e-001	9.483355e-001
19066974.000	2.916196e-001	9.482317e-001
19072968.000	2.920167e-001	9.481971e-001
19078962.000	2.922235e-001	9.481430e-001
19084956.000	2.925087e-001	9.480203e-001
19090950.000	2.927951e-001	9.478604e-001
19096944.000	2.931080e-001	9.478272e-001
19102938.000	2.933916e-001	9.476948e-001
19108932.000	2.936882e-001	9.476030e-001
19114926.000	2.939427e-001	9.475747e-001
19120920.000	2.942355e-001	9.474870e-001
19126914.000	2.946324e-001	9.473826e-001
19132908.000	2.948119e-001	9.473031e-001
19138902.000	2.951251e-001	9.471850e-001
19144896.000	2.953138e-001	9.471363e-001
19150890.000	2.956746e-001	9.470167e-001
19156884.000	2.959632e-001	9.469670e-001
19162878.000	2.963147e-001	9.469246e-001
19168872.000	2.965831e-001	9.467315e-001
19174866.000	2.968013e-001	9.466381e-001
19180860.000	2.970662e-001	9.466036e-001
19186854.000	2.974044e-001	9.465171e-001
19192848.000	2.976896e-001	9.464352e-001
19198842.000	2.979770e-001	9.463553e-001
19204836.000	2.982040e-001	9.462190e-001
19210830.000	2.986279e-001	9.461348e-001
19216824.000	2.987998e-001	9.460836e-001
19222818.000	2.990601e-001	9.459454e-001
19228812.000	2.994082e-001	9.458866e-001
19234806.000	2.997114e-001	9.457960e-001
19240800.000	2.999442e-001	9.457253e-001
19246794.000	3.003337e-001	9.456451e-001
19252788.000	3.005356e-001	9.455291e-001
19258782.000	3.007856e-001	9.454452e-001
19264776.000	3.010896e-001	9.453276e-001
19270770.000	3.014161e-001	9.452344e-001
19276764.000	3.018071e-001	9.452440e-001
19282758.000	3.018711e-001	9.451168e-001
19288752.000	3.023117e-001	9.450126e-001
19294746.000	3.025103e-001	9.449373e-001
19300740.000	3.027829e-001	9.449095e-001
19306734.000	3.030306e-001	9.447226e-001
19312728.000	3.034113e-001	9.446594e-001
19318722.000	3.036325e-001	9.446037e-001
19324716.000	3.039258e-001	9.444979e-001
19330710.000	3.043533e-001	9.444431e-001
19336704.000	3.045381e-001	9.442969e-001
19342698.000	3.047660e-001	9.441740e-001
19348692.000	3.050419e-001	9.441892e-001
19354686.000	3.053052e-001	9.440327e-001
19360680.000	3.056077e-001	9.439185e-001
19366674.000	3.058694e-001	9.439007e-001
19372668.000	3.061482e-001	9.437444e-001
19378662.000	3.064991e-001	9.436598e-001
19384656.000	3.067520e-001	9.436168e-001
19390650.000	3.069488e-001	9.434634e-001
19396644.000	3.073247e-001	9.433762e-001
19402638.000	3.075852e-001	9.433325e-001
19408632.000	3.078543e-001	9.432601e-001
19414626.000	3.081834e-001	9.430968e-001
19420620.000	3.084019e-001	9.430937e-001
19426614.000	3.086715e-001	9.429890e-001
19432608.000	3.090705e-001	9.428946e-001
19438602.000	3.092847e-001	9.427702e-001
19444596.000	3.095364e-001	9.426448e-001
19450590.000	3.098668e-001	9.425621e-001
19456584.000	3.101205e-001	9.425041e-001
19462578.000	3.103989e-001	9.423608e-001
19468572.000	3.106928e-001	9.423999e-001
19474566.000	3.109868e-001	9.423051e-001
19480560.000	3.112138e-001	9.421315e-001
19486554.000	3.115429e-001	9.420799e-001
19492548.000	3.118102e-001	9.419814e-001
19498542.000	3.121062e-001	9.419049e-001
19504536.000	3.123700e-001	9.418754e-001
19510530.000	3.126764e-001	9.416679e-001
19516524.000	3.128840e-001	9.416168e-001
19522518.000	3.131769e-001	9.415377e-001
19528512.000	3.134623e-001	9.414512e-001
19534506.000	3.138182e-001	9.413368e-001
19540500.000	3.140240e-001	9.412402e-001
19546494.000	3.142778e-001	9.411995e-001
19552488.000	3.145630e-001	9.411056e-001
19558482.000	3.148747e-001	9.409614e-001
19564476.000	3.151343e-001	9.408832e-001
19570470.000	3.154728e-001	9.407757e-001
19576464.000	3.156911e-001	9.406510e-001
19582458.000	3.159742e-001	9.407223e-001
19588452.000	3.162629e-001	9.406054e-001
19594446.000	3.165091e-001	9.404342e-001
19600440.000	3.167661e-001	9.404424e-001
19606434.000	3.170522e-001	9.402766e-001
19612428.000	3.173510e-001	9.402728e-001
19618422.000	3.175828e-001	9.401371e-001
19624416.000	3.178727e-001	9.399550e-001
19630410.000	3.181346e-001	9.398895e-001
19636404.000	3.184454e-001	9.397977e-001
19642398.000	3.187379e-001	9.397335e-001
19648392.000	3.190203e-001	9.396003e-001
19654386.000	3.192954e-001	9.395927e-001
19660380.000	3.195566e-001	9.394261e-001
19666374.000	3.197799e-001	9.393636e-001
19672368.000	3.201107e-001	9.392517e-001
19678362.000	3.203141e-001	9.391520e-001
19684356.000	3.206121e-001	9.390644e-001
19690350.000	3.209397e-001	9.390033e-001
19696344.000	3.211246e-001	9.389194e-001
19702338.000	3.214332e-001	9.388377e-001
19708332.000	3.216875e-001	9.387277e-001
19714326.000	3.219470e-001	9.386052e-001
19720320.000	3.222138e-001	9.385581e-001
19726314.000	3.225464e-001	9.384888e-001
19732308.000	3.228359e-001	9.383805e-001
19738302.000	3.230690e-001	9.382462e-001
19744296.000	3.233535e-001	9.381974e-001
19750290.000	3.236114e-001	9.380798e-001
19756284.000	3.238299e-001	9.379921e-001
19762278.000	3.241359e-001	9.379014e-001
19768272.000	3.244276e-001	9.377855e-001
19774266.000	3.247178e-001	9.377313e-001
19780260.000	3.249219e-001	9.376236e-001
19786254.000	3.252414e-001	9.374890e-001
19792248.000	3.254931e-001	9.374490e-001
19798242.000	3.257357e-001	9.373535e-001
19804236.000	3.260038e-001	9.372060e-001
19810230.000	3.263040e-001	9.371036e-001
19816224.000	3.266423e-001	9.370717e-001
19822218.000	3.268589e-001	9.369571e-001
19828212.000	3.271912e-001	9.368442e-001
19834206.000	3.274539e-001	9.368038e-001
19840200.000	3.277148e-001	9.366739e-001
19846194.000	3.279821e-001	9.365723e-001
19852188.000	3.281868e-001	9.364746e-001
19858182.000	3.285074e-001	9.364147e-001
19864176.000	3.287470e-001	9.363306e-001
19870170.000	3.290515e-001	9.362233e-001
19876164.000	3.293382e-001	9.361669e-001
19882158.000	3.295191e-001	9.360242e-001
19888152.000	3.299998e-001	9.359622e-001
19894146.000	3.301305e-001	9.358025e-001
19900140.000	3.304330e-001	9.357801e-001
19906134.000	3.307129e-001	9.356579e-001
19912128.000	3.309133e-001	9.354996e-001
19918122.000	3.312645e-001	9.354963e-001
19924116.000	3.315258e-001	9.353946e-001
19930110.000	3.317255e-001	9.352351e-001
19936104.000	3.319866e-001	9.352201e-001
19942098.000	3.322135e-001	9.350644e-001
19948092.000	3.324970e-001	9.350433e-001
19954086.000	3.328271e-001	9.349111e-001
19960080.000	3.329915e-001	9.348423e-001
19966074.000	3.332501e-001	9.347644e-001
19972068.000	3.336016e-001	9.346419e-001
19978062.000	3.339011e-001	9.345246e-001
19984056.000	3.341818e-001	9.344889e-001
19990050.000	3.343800e-001	9.344008e-001
19996044.000	3.347121e-001	9.342658e-001
20002038.000	3.349739e-001	9.341935e-001
20008032.000	3.352093e-001	9.341039e-001
20014026.000	3.354495e-001	9.339992e-001
20020020.000	3.357899e-001	9.338865e-001
20026014.000	3.360330e-001	9.337623e-001
20032008.000	3.362354e-001	9.336710e-001
20038002.000	3.364919e-001	9.335915e-001
20043996.000	3.367505e-001	9.334991e-001
20049990.000	3.370867e-001	9.334050e-001
20055984.000	3.373246e-001	9.332813e-001
20061978.000	3.376307e-001	9.332116e-001
20067972.000	3.378346e-001	9.331281e-001
20073966.000	3.380606e-001	9.330559e-001
20079960.000	3.384020e-001	9.328860e-001
20085954.000	3.386545e-001	9.328296e-001
20091948.000	3.389901e-001	9.327617e-001
20097942.000	3.391670e-001	9.327179e-001
20103936.000	3.394884e-001	9.326058e-001
20109930.000	3.397912e-001	9.324772e-001
20115924.000	3.399835e-001	9.324029e-001
20121918.000	3.401660e-001	9.323086e-001
20127912.000	3.404877e-001	9.321995e-001
20133906.000	3.407710e-001	9.321538e-001
20139900.000	3.410994e-001	9.320534e-001
20145894.000	3.413111e-001	9.319633e-001
20151888.000	3.415932e-001	9.318206e-001
20157882.000	3.418200e-001	9.317495e-001
20163876.000	3.420780e-001	9.316594e-001
20169870.000	3.424000e-001	9.315599e-001
20175864.000	3.426406e-001	9.314993e-001
20181858.000	3.428221e-001	9.313756e-001
20187852.000	3.431517e-001	9.312269e-001
20193846.000	3.434412e-001	9.310927e-001
20199840.000	3.437637e-001	9.310486e-001
20205834.000	3.439788e-001	9.309747e-001
20211828.000	3.442031e-001	9.308407e-001
20217822.000	3.444581e-001	9.307355e-001
20223816.000	3.446956e-001	9.307473e-001
20229810.000	3.449641e-001	9.305515e-001
20235804.000	3.452492e-001	9.305441e-001
20241798.000	3.454679e-001	9.304021e-001
20247792.000	3.457370e-001	9.302971e-001
20253786.000	3.459986e-001	9.302343e-001
20259780.000	3.462460e-001	9.300942e-001
20265774.000	3.464751e-001	9.299454e-001
20271768.000	3.467195e-001	9.299465e-001
20277762.000	3.469950e-001	9.297798e-001
20283756.000	3.473034e-001	9.296875e-001
20289750.000	3.476218e-001	9.295813e-001
20295744.000	3.478336e-001	9.294837e-001
20301738.000	3.480486e-001	9.294665e-001
20307732.000	3.482799e-001	9.293835e-001
20313726.000	3.485845e-001	9.293199e-001
20319720.000	3.488906e-001	9.291865e-001
20325714.000	3.491569e-001	9.290537e-001
20331708.000	3.493849e-001	9.289897e-001
20337702.000	3.496333e-001	9.289034e-001
20343696.000	3.498657e-001	9.287966e-001
20349690.000	3.501847e-001	9.286631e-001
20355684.000	3.504945e-001	9.285414e-001
20361678.000	3.506692e-001	9.284867e-001
20367672.000	3.509549e-001	9.283888e-001
20373666.000	3.512232e-001	9.283463e-001
20379660.000	3.515653e-001	9.282491e-001
20385654.000	3.518016e-001	9.281616e-001
20391648.000	3.520575e-001	9.280069e-001
20397642.000	3.522558e-001	9.279764e-001
20403636.000	3.525488e-001	9.278798e-001
20409630.000	3.528081e-001	9.277222e-001
20415624.000	3.530521e-001	9.275542e-001
20421618.000	3.533014e-001	9.275583e-001
20427612.000	3.535703e-001	9.274123e-001
20433606.000	3.538426e-001	9.272929e-001
20439600.000	3.541188e-001	9.272703e-001
20445594.000	3.543090e-001	9.270932e-001
20451588.000	3.546082e-001	9.270854e-001
20457582.000	3.548832e-001	9.269965e-001
20463576.000	3.550943e-001	9.268464e-001
20469570.000	3.553313e-001	9.267933e-001
20475564.000	3.556171e-001	9.266974e-001
20481558.000	3.559259e-001	9.265389e-001
20487552.000	3.561235e-001	9.264509e-001
20493546.000	3.563168e-001	9.263433e-001
20499540.000	3.566239e-001	9.263305e-001
20505534.000	3.568961e-001	9.261456e-001
20511528.000	3.571786e-001	9.260493e-001
20517522.000	3.573844e-001	9.259682e-001
20523516.000	3.577010e-001	9.258291e-001
20529510.000	3.579233e-001	9.258570e-001
20535504.000	3.582298e-001	9.257004e-001
20541498.000	3.584578e-001	9.255744e-001
20547492.000	3.587298e-001	9.255500e-001
20553486.000	3.590103e-001	9.253623e-001
20559480.000	3.593226e-001	9.253853e-001
20565474.000	3.595181e-001	9.252059e-001
20571468.000	3.597754e-001	9.250818e-001
20577462.000	3.599443e-001	9.250280e-001
20583456.000	3.603050e-001	9.249101e-001
20589450.000	3.605479e-001	9.247965e-001
20595444.000	3.608051e-001	9.247123e-001
20601438.000	3.609917e-001	9.246107e-001
20607432.000	3.613158e-001	9.245474e-001
20613426.000	3.615851e-001	9.244220e-001
20619420.000	3.617815e-001	9.243823e-001
20625414.000	3.620053e-001	9.242197e-001
20631408.000	3.623002e-001	9.241635e-001
20637402.000	3.625143e-001	9.240287e-001
20643396.000	3.628249e-001	9.239863e-001
20649390.000	3.630268e-001	9.238425e-001
20655384.000	3.632670e-001	9.237499e-001
20661378.000	3.635300e-001	9.236401e-001
20667372.000	3.637489e-001	9.235985e-001
20673366.000	3.640854e-001	9.234774e-001
20679360.000	3.643223e-001	9.233224e-001
20685354.000	3.645399e-001	9.233103e-001
20691348.000	3.646996e-001	9.232168e-001
20697342.000	3.650673e-001	9.230317e-001
20703336.000	3.653076e-001	9.229985e-001
20709330.000	3.655475e-001	9.228633e-001
20715324.000	3.657930e-001	9.228052e-001
20721318.000	3.660372e-001	9.226301e-001
20727312.000	3.662860e-001	9.225637e-001
20733306.000	3.665394e-001	9.225216e-001
20739300.000	3.668611e-001	9.223728e-001
20745294.000	3.670743e-001	9.222761e-001
20751288.000	3.672761e-001	9.221762e-001
20757282.000	3.674786e-001	9.221021e-001
20763276.000	3.677303e-001	9.219913e-001
20769270.000	3.680454e-001	9.218781e-001
20775264.000	3.682641e-001	9.217969e-001
20781258.000	3.685663e-001	9.217391e-001
20787252.000	3.687773e-001	9.216072e-001
20793246.000	3.690527e-001	9.215064e-001
20799240.000	3.692926e-001	9.213869e-001
20805234.000	3.695989e-001	9.213594e-001
20811228.000	3.697969e-001	9.212049e-001
20817222.000	3.700392e-001	9.211101e-001
20823216.000	3.703205e-001	9.210096e-001
20829210.000	3.706592e-001	9.208862e-001
20835204.000	3.708447e-001	9.208502e-001
20841198.000	3.711370e-001	9.207303e-001
20847192.000	3.712891e-001	9.205623e-001
20853186.000	3.715918e-001	9.205136e-001
20859180.000	3.718486e-001	9.203921e-001
20865174.000	3.720814e-001	9.202780e-001
20871168.000	3.723060e-001	9.201300e-001
20877162.000	3.725887e-001	9.201124e-001
20883156.000	3.728348e-001	9.200182e-001
20889150.000	3.730579e-001	9.198617e-001
20895144.000	3.733317e-001	9.198123e-001
20901138.000	3.735275e-001	9.197056e-001
20907132.000	3.737868e-001	9.196059e-001
20913126.000	3.740510e-001	9.195001e-001
20919120.000	3.743220e-001	9.194496e-001
20925114.000	3.744976e-001	9.193356e-001
20931108.000	3.747588e-001	9.192614e-001
20937102.000	3.749959e-001	9.191870e-001
20943096.000	3.753041e-001	9.190644e-001
20949090.000	3.755364e-001	9.188792e-001
20955084.000	3.758787e-001	9.188044e-001
20961078.000	3.760614e-001	9.187322e-001
20967072.000	3.762622e-001	9.186073e-001
20973066.000	3.764940e-001	9.185449e-001
20979060.000	3.767897e-001	9.184867e-001
20985054.000	3.770128e-001	9.183166e-001
20991048.000	3.772756e-001	9.182443e-001
20997042.000	3.774737e-001	9.181150e-001
21003036.000	3.777419e-001	9.181066e-001
21009030.000	3.779628e-001	9.179858e-001
21015024.000	3.782215e-001	9.178507e-001
21021018.000	3.785081e-001	9.177625e-001
21027012.000	3.786973e-001	9.176686e-001
21033006.000	3.789872e-001	9.175327e-001
21039000.000	3.792408e-001	9.174324e-001
21044994.000	3.795058e-001	9.173212e-001
21050988.000	3.797375e-001	9.171776e-001
21056982.000	3.799521e-001	9.171888e-001
21062976.000	3.802351e-001	9.170624e-001
21068970.000	3.805466e-001	9.169148e-001
21074964.000	3.807944e-001	9.168283e-001
21080958.000	3.809942e-001	9.167680e-001
21086952.000	3.813153e-001	9.166165e-001
21092946.000	3.814835e-001	9.165338e-001
21098940.000	3.817719e-001	9.164353e-001
21104934.000	3.819786e-001	9.163403e-001
21110928.000	3.821525e-001	9.162390e-001
21116922.000	3.824911e-001	9.161513e-001
21122916.000	3.826699e-001	9.159881e-001
21128910.000	3.829395e-001	9.159452e-001
21134904.000	3.831389e-001	9.158205e-001
21140898.000	3.834197e-001	9.157219e-001
21146892.000	3.836287e-001	9.155979e-001
21152886.000	3.838949e-001	9.155483e-001
21158880.000	3.841488e-001	9.154521e-001
21164874.000	3.843391e-001	9.153090e-001
21170868.000	3.846413e-001	9.151954e-001
21176862.000	3.849013e-001	9.151104e-001
21182856.000	3.851295e-001	9.150335e-001
21188850.000	3.853352e-001	9.149541e-001
21194844.000	3.855376e-001	9.148638e-001
21200838.000	3.858374e-001	9.147671e-001
21206832.000	3.860842e-001	9.147093e-001
21212826.000	3.863104e-001	9.145644e-001
21218820.000	3.865572e-001	9.144945e-001
21224814.000	3.868179e-001	9.142907e-001
21230808.000	3.870706e-001	9.143154e-001
21236802.000	3.873036e-001	9.141379e-001
21242796.000	3.874790e-001	9.140426e-001
21248790.000	3.877213e-001	9.140316e-001
21254784.000	3.879596e-001	9.138325e-001
21260778.000	3.882245e-001	9.137683e-001
21266772.000	3.885149e-001	9.136523e-001
21272766.000	3.887324e-001	9.135249e-001
21278760.000	3.889515e-001	9.134745e-001
21284754.000	3.892636e-001	9.133167e-001
21290748.000	3.895040e-001	9.132440e-001
21296742.000	3.897102e-001	9.131833e-001
21302736.000	3.899600e-001	9.130257e-001
21308730.000	3.901574e-001	9.129522e-001
21314724.000	3.903628e-001	9.128427e-001
21320718.000	3.905759e-001	9.127193e-001
21326712.000	3.908990e-001	9.126693e-001
21332706.000	3.911365e-001	9.125170e-001
21338700.000	3.913996e-001	9.124222e-001
21344694.000	3.916521e-001	9.123346e-001
21350688.000	3.917777e-001	9.122106e-001
21356682.000	3.920493e-001	9.121168e-001
21362676.000	3.923598e-001	9.120368e-001
21368670.000	3.925157e-001	9.119385e-001
21374664.000	3.928380e-001	9.118111e-001
21380658.000	3.930688e-001	9.117603e-001
21386652.000	3.933135e-001	9.116217e-001
21392646.000	3.935138e-001	9.115635e-001
21398640.000	3.937934e-001	9.114511e-001
21404634.000	3.940514e-001	9.113387e-001
21410628.000	3.942805e-001	9.113260e-001
21416622.000	3.945145e-001	9.111349e-001
21422616.000	3.947741e-001	9.110100e-001
21428610.000	3.949772e-001	9.109103e-001
21434604.000	3.952412e-001	9.108271e-001
21440598.000	3.954565e-001	9.107262e-001
21446592.000	3.957576e-001	9.106633e-001
21452586.000	3.958909e-001	9.105139e-001
21458580.000	3.961694e-001	9.104039e-001
21464574.000	3.964491e-001	9.102547e-001
21470568.000	3.966596e-001	9.102173e-001
21476562.000	3.968432e-001	9.100652e-001
21482556.000	3.970658e-001	9.100517e-001
21488550.000	3.973736e-001	9.099205e-001
21494544.000	3.976291e-001	9.097712e-001
21500538.000	3.978019e-001	9.097022e-001
21506532.000	3.980112e-001	9.096304e-001
21512526.000	3.982711e-001	9.094674e-001
21518520.000	3.985022e-001	9.093654e-001
21524514.000	3.987240e-001	9.093035e-001
21530508.000	3.989714e-001	9.092580e-001
21536502.000	3.991785e-001	9.090507e-001
21542496.000	3.994381e-001	9.089876e-001
21548490.000	3.996486e-001	9.089331e-001
21554484.000	3.998710e-001	9.087878e-001
21560478.000	4.001779e-001	9.086967e-001
21566472.000	4.003030e-001	9.085744e-001
21572466.000	4.005860e-001	9.084356e-001
21578460.000	4.008675e-001	9.083248e-001
21584454.000	4.010200e-001	9.082659e-001
21590448.000	4.013569e-001	9.081366e-001
21596442.000	4.015668e-001	9.080897e-001
21602436.000	4.018071e-001	9.079834e-001
21608430.000	4.020281e-001	9.078224e-001
21614424.000	4.022696e-001	9.077864e-001
21620418.000	4.025033e-001	9.076712e-001
21626412.000	4.027809e-001	9.075997e-001
21632406.000	4.030275e-001	9.075271e-001
21638400.000	4.033262e-001	9.074171e-001
21644394.000	4.034875e-001	9.073220e-001
21650388.000	4.036859e-001	9.072262e-001
21656382.000	4.039587e-001	9.071266e-001
21662376.000	4.042239e-001	9.070202e-001
21668370.000	4.043887e-001	9.068736e-001
21674364.000	4.046691e-001	9.067681e-001
21680358.000	4.048541e-001	9.066701e-001
21686352.000	4.050654e-001	9.065555e-001
21692346.000	4.053208e-001	9.064441e-001
21698340.000	4.055693e-001	9.063895e-001
21704334.000	4.058758e-001	9.062331e-001
21710328.000	4.060391e-001	9.061902e-001
21716322.000	4.061839e-001	9.060425e-001
21722316.000	4.064975e-001	9.059772e-001
21728310.000	4.067231e-001	9.058284e-001
21734304.000	4.069167e-001	9.056596e-001
21740298.000	4.071676e-001	9.056751e-001
21746292.000	4.073975e-001	9.055549e-001
21752286.000	4.076682e-001	9.054591e-001
21758280.000	4.078872e-001	9.053665e-001
21764274.000	4.081415e-001	9.053185e-001
21770268.000	4.083457e-001	9.051087e-001
21776262.000	4.086182e-001	9.050190e-001
21782256.000	4.088054e-001	9.049251e-001
21788250.000	4.090612e-001	9.048298e-001
21794244.000	4.092869e-001	9.048028e-001
21800238.000	4.095332e-001	9.046067e-001
21806232.000	4.097246e-001	9.044817e-001
21812226.000	4.099995e-001	9.044708e-001
21818220.000	4.101655e-001	9.043064e-001
21824214.000	4.103836e-001	9.042129e-001
21830208.000	4.106932e-001	9.041287e-001
21836202.000	4.107991e-001	9.040005e-001
21842196.000	4.110455e-001	9.039323e-001
21848190.000	4.112802e-001	9.038015e-001
21854184.000	4.115928e-001	9.037083e-001
21860178.000	4.117855e-001	9.036064e-001
21866172.000	4.120564e-001	9.034852e-001
21872166.000	4.122787e-001	9.033313e-001
21878160.000	4.124398e-001	9.032711e-001
21884154.000	4.126753e-001	9.031351e-001
21890148.000	4.129434e-001	9.031426e-001
21896142.000	4.131065e-001	9.029244e-001
21902136.000	4.133802e-001	9.028973e-001
21908130.000	4.136358e-001	9.027906e-001
21914124.000	4.138185e-001	9.026600e-001
21920118.000	4.140322e-001	9.025367e-001
21926112.000	4.142746e-001	9.024964e-001
21932106.000	4.145325e-001	9.023889e-001
21938100.000	4.147509e-001	9.022723e-001
21944094.000	4.150321e-001	9.021041e-001
21950088.000	4.152307e-001	9.020952e-001
21956082.000	4.153852e-001	9.019974e-001
21962076.000	4.156628e-001	9.018525e-001
21968070.000	4.158987e-001	9.017789e-001
21974064.000	4.160761e-001	9.016506e-001
21980058.000	4.162905e-001	9.015314e-001
21986052.000	4.164951e-001	9.014915e-001
21992046.000	4.167126e-001	9.013923e-001
21998040.000	4.170049e-001	9.012715e-001
22004034.000	4.171848e-001	9.011358e-001
22010028.000	4.173941e-001	9.010073e-001
22016022.000	4.176241e-001	9.009739e-001
22022016.000	4.179111e-001	9.008028e-001
22028010.000	4.180499e-001	9.006886e-001
22034004.000	4.183375e-001	9.006336e-001
22039998.000	4.185739e-001	9.005540e-001
22045992.000	4.188141e-001	9.004097e-001
22051986.000	4.190182e-001	9.002948e-001
22057980.000	4.191945e-001	9.002251e-001
22063974.000	4.195305e-001	9.001274e-001
22069968.000	4.197461e-001	9.000055e-001
22075962.000	4.199727e-001	8.998955e-001
22081956.000	4.201522e-001	8.997324e-001
22087950.000	4.203531e-001	8.997278e-001
22093944.000	4.205935e-001	8.995783e-001
22099938.000	4.208447e-001	8.995211e-001
22105932.000	4.210143e-001	8.994002e-001
22111926.000	4.212627e-001	8.992911e-001
22117920.000	4.214854e-001	8.991865e-001
22123914.000	4.217163e-001	8.990822e-001
22129908.000	4.219852e-001	8.989427e-001
22135902.000	4.220650e-001	8.989322e-001
22141896.000	4.223926e-001	8.987649e-001
22147890.000	4.226087e-001	8.986839e-001
22153884.000	4.227922e-001	8.985134e-001
22159878.000	4.230390e-001	8.984398e-001
22165872.000	4.233082e-001	8.983377e-001
22171866.000	4.234438e-001	8.982448e-001
22177860.000	4.236947e-001	8.981393e-001
22183854.000	4.239329e-001	8.980077e-001
22189848.000	4.242873e-001	8.979467e-001
22195842.000	4.243746e-001	8.978686e-001
22201836.000	4.246847e-001	8.976938e-001
22207830.000	4.248196e-001	8.976698e-001
22213824.000	4.251012e-001	8.975356e-001
22219818.000	4.253652e-001	8.973610e-001
22225812.000	4.255013e-001	8.973181e-001
22231806.000	4.257543e-001	8.972606e-001
22237800.000	4.260030e-001	8.971378e-001
22243794.000	4.261796e-001	8.970475e-001
22249788.000	4.264003e-001	8.968566e-001
22255782.000	4.266700e-001	8.967437e-001
22261776.000	4.268183e-001	8.967122e-001
22267770.000	4.270266e-001	8.965372e-001
22273764.000	4.272296e-001	8.965093e-001
22279758.000	4.274023e-001	8.963521e-001
22285752.000	4.277331e-001	8.962634e-001
22291746.000	4.279144e-001	8.961412e-001
22297740.000	4.280899e-001	8.960305e-001
22303734.000	4.283761e-001	8.959827e-001
22309728.000	4.285893e-001	8.958045e-001
22315722.000	4.288346e-001	8.957570e-001
22321716.000	4.289716e-001	8.956949e-001
22327710.000	4.292284e-001	8.955744e-001
22333704.000	4.294938e-001	8.954569e-001
22339698.000	4.297465e-001	8.953776e-001
22345692.000	4.298477e-001	8.953048e-001
22351686.000	4.300844e-001	8.951695e-001
22357680.000	4.303259e-001	8.950778e-001
22363674.000	4.305364e-001	8.949163e-001
22369668.000	4.307782e-001	8.948197e-001
22375662.000	4.310182e-001	8.947207e-001
22381656.000	4.312245e-001	8.946153e-001
22387650.000	4.313807e-001	8.944718e-001
22393644.000	4.317604e-001	8.944226e-001
22399638.000	4.319681e-001	8.942942e-001
22405632.000	4.321907e-001	8.942085e-001
22411626.000	4.323911e-001	8.941007e-001
22417620.000	4.325863e-001	8.940140e-001
22423614.000	4.327772e-001	8.938860e-001
22429608.000	4.329504e-001	8.938314e-001
22435602.000	4.331851e-001	8.936805e-001
22441596.000	4.334006e-001	8.936179e-001
22447590.000	4.336084e-001	8.935026e-001
22453584.000	4.338779e-001	8.933739e-001
22459578.000	4.340610e-001	8.933159e-001
22465572.000	4.343102e-001	8.931940e-001
22471566.000	4.344989e-001	8.930651e-001
22477560.000	4.347508e-001	8.930172e-001
22483554.000	4.349684e-001	8.928587e-001
22489548.000	4.352299e-001	8.927647e-001
22495542.000	4.353847e-001	8.926601e-001
22501536.000	4.356543e-001	8.925369e-001
22507530.000	4.359059e-001	8.924727e-001
22513524.000	4.361035e-001	8.923818e-001
22519518.000	4.362974e-001	8.922311e-001
22525512.000	4.365160e-001	8.921829e-001
22531506.000	4.367385e-001	8.920002e-001
22537500.000	4.369553e-001	8.919298e-001
22543494.000	4.371488e-001	8.918340e-001
22549488.000	4.373731e-001	8.917842e-001
22555482.000	4.375896e-001	8.915610e-001
22561476.000	4.377953e-001	8.914736e-001
22567470.000	4.379727e-001	8.913831e-001
22573464.000	4.382244e-001	8.913293e-001
22579458.000	4.384974e-001	8.912022e-001
22585452.000	4.386259e-001	8.910523e-001
22591446.000	4.388811e-001	8.909569e-001
22597440.000	4.391025e-001	8.908945e-001
22603434.000	4.393006e-001	8.907402e-001
22609428.000	4.395879e-001	8.906489e-001
22615422.000	4.397922e-001	8.905888e-001
22621416.000	4.400251e-001	8.904600e-001
22627410.000	4.402443e-001	8.903435e-001
22633404.000	4.403934e-001	8.902548e-001
22639398.000	4.406555e-001	8.901137e-001
22645392.000	4.407925e-001	8.900606e-001
22651386.000	4.410806e-001	8.899752e-001
22657380.000	4.412646e-001	8.897923e-001
22663374.000	4.415560e-001	8.897105e-001
22669368.000	4.417167e-001	8.895951e-001
22675362.000	4.418841e-001	8.895089e-001
22681356.000	4.421257e-001	8.893909e-001
22687350.000	4.423924e-001	8.892933e-001
22693344.000	4.426377e-001	8.892174e-001
22699338.000	4.428247e-001	8.891181e-001
22705332.000	4.429812e-001	8.890187e-001
22711326.000	4.431776e-001	8.888797e-001
22717320.000	4.434180e-001	8.887686e-001
22723314.000	4.436681e-001	8.886984e-001
22729308.000	4.438302e-001	8.885997e-001
22735302.000	4.440396e-001	8.884881e-001
22741296.000	4.441949e-001	8.883896e-001
22747290.000	4.445022e-001	8.882694e-001
22753284.000	4.446961e-001	8.881468e-001
22759278.000	4.448860e-001	8.880275e-001
22765272.000	4.451084e-001	8.878901e-001
22771266.000	4.453612e-001	8.878194e-001
22777260.000	4.455629e-001	8.877275e-001
22783254.000	4.457931e-001	8.875815e-001
22789248.000	4.459783e-001	8.875897e-001
22795242.000	4.460694e-001	8.874808e-001
22801236.000	4.463541e-001	8.873399e-001
22807230.000	4.465516e-001	8.872407e-001
22813224.000	4.468266e-001	8.871184e-001
22819218.000	4.469855e-001	8.869928e-001
22825212.000	4.472408e-001	8.869189e-001
22831206.000	4.474356e-001	8.867976e-001
22837200.000	4.476123e-001	8.866813e-001
22843194.000	4.478055e-001	8.865560e-001
22849188.000	4.480317e-001	8.864558e-001
22855182.000	4.482372e-001	8.863970e-001
22861176.000	4.484717e-001	8.862817e-001
22867170.000	4.486290e-001	8.862264e-001
22873164.000	4.487748e-001	8.860902e-001
22879158.000	4.490071e-001	8.860052e-001
22885152.000	4.492629e-001	8.859115e-001
22891146.000	4.494240e-001	8.857510e-001
22897140.000	4.497155e-001	8.856056e-001
22903134.000	4.499347e-001	8.855037e-001
22909128.000	4.501488e-001	8.854484e-001
22915122.000	4.504088e-001	8.853652e-001
22921116.000	4.505602e-001	8.852165e-001
22927110.000	4.508126e-001	8.850978e-001
22933104.000	4.510496e-001	8.849872e-001
22939098.000	4.511936e-001	8.848515e-001
22945092.000	4.514211e-001	8.848248e-001
22951086.000	4.516950e-001	8.847062e-001
22957080.000	4.518105e-001	8.845730e-001
22963074.000	4.520117e-001	8.845037e-001
22969068.000	4.522073e-001	8.843493e-001
22975062.000	4.525159e-001	8.842880e-001
22981056.000	4.526934e-001	8.841589e-001
22987050.000	4.529297e-001	8.840784e-001
22993044.000	4.531599e-001	8.839606e-001
22999038.000	4.533113e-001	8.838654e-001
23005032.000	4.533367e-001	8.839399e-001
23011026.000	4.536961e-001	8.837107e-001
23017020.000	4.538800e-001	8.835349e-001
23023014.000	4.541715e-001	8.833796e-001
23029008.000	4.543238e-001	8.833138e-001
23035002.000	4.545052e-001	8.831703e-001
23040996.000	4.546786e-001	8.831437e-001
23046990.000	4.549241e-001	8.830291e-001
23052984.000	4.551206e-001	8.829132e-001
23058978.000	4.553533e-001	8.828594e-001
23064972.000	4.555698e-001	8.827299e-001
23070966.000	4.558156e-001	8.825973e-001
23076960.000	4.560109e-001	8.824995e-001
23082954.000	4.561763e-001	8.824372e-001
23088948.000	4.564023e-001	8.822656e-001
23094942.000	4.566759e-001	8.821615e-001
23100936.000	4.568168e-001	8.820636e-001
23106930.000	4.570236e-001	8.819446e-001
23112924.000	4.572527e-001	8.818702e-001
23118918.000	4.574075e-001	8.817405e-001
23124912.000	4.576446e-001	8.816676e-001
23130906.000	4.579032e-001	8.815591e-001
23136900.000	4.580565e-001	8.813839e-001
23142894.000	4.582415e-001	8.813596e-001
23148888.000	4.584686e-001	8.812406e-001
23154882.000	4.586764e-001	8.811176e-001
23160876.000	4.588886e-001	8.809822e-001
23166870.000	4.591273e-001	8.808766e-001
23172864.000	4.593353e-001	8.807666e-001
23178858.000	4.595193e-001	8.806920e-001
23184852.000	4.596962e-001	8.805524e-001
23190846.000	4.599039e-001	8.805009e-001
23196840.000	4.601348e-001	8.803462e-001
23202834.000	4.602933e-001	8.802741e-001
23208828.000	4.605272e-001	8.801971e-001
23214822.000	4.607458e-001	8.800545e-001
23220816.000	4.609287e-001	8.799493e-001
23226810.000	4.611474e-001	8.798233e-001
23232804.000	4.613806e-001	8.797590e-001
23238798.000	4.615407e-001	8.796431e-001
23244792.000	4.617560e-001	8.795255e-001
23250786.000	4.620102e-001	8.794386e-001
23256780.000	4.621995e-001	8.792933e-001
23262774.000	4.623757e-001	8.792617e-001
23268768.000	4.625977e-001	8.791376e-001
23274762.000	4.627839e-001	8.790227e-001
23280756.000	4.630069e-001	8.788410e-001
23286750.000	4.632480e-001	8.787900e-001
23292744.000	4.634774e-001	8.787197e-001
23298738.000	4.635799e-001	8.786448e-001
23304732.000	4.638173e-001	8.785136e-001
23310726.000	4.639400e-001	8.783426e-001
23316720.000	4.642093e-001	8.782971e-001
23322714.000	4.644275e-001	8.781794e-001
23328708.000	4.646046e-001	8.780479e-001
23334702.000	4.648606e-001	8.779627e-001
23340696.000	4.650544e-001	8.778546e-001
23346690.000	4.651764e-001	8.777600e-001
23352684.000	4.654398e-001	8.775749e-001
23358678.000	4.656522e-001	8.775018e-001
23364672.000	4.658986e-001	8.774334e-001
23370666.000	4.660727e-001	8.773327e-001
23376660.000	4.662180e-001	8.771938e-001
23382654.000	4.664350e-001	8.770769e-001
23388648.000	4.666489e-001	8.769722e-001
23394642.000	4.668474e-001	8.769094e-001
23400636.000	4.670452e-001	8.767396e-001
23406630.000	4.672266e-001	8.766328e-001
23412624.000	4.674790e-001	8.765391e-001
23418618.000	4.676456e-001	8.764396e-001
23424612.000	4.678843e-001	8.763471e-001
23430606.000	4.680514e-001	8.762807e-001
23436600.000	4.682494e-001	8.761877e-001
23442594.000	4.684641e-001	8.760817e-001
23448588.000	4.686469e-001	8.759699e-001
23454582.000	4.688232e-001	8.758241e-001
23460576.000	4.690831e-001	8.756799e-001
23466570.000	4.692375e-001	8.756076e-001
23472564.000	4.694965e-001	8.754784e-001
23478558.000	4.697008e-001	8.753743e-001
23484552.000	4.699408e-001	8.752953e-001
23490546.000	4.700140e-001	8.751953e-001
23496540.000	4.702748e-001	8.750539e-001
23502534.000	4.704978e-001	8.749386e-001
23508528.000	4.707176e-001	8.748758e-001
23514522.000	4.708685e-001	8.747740e-001
23520516.000	4.710554e-001	8.746690e-001
23526510.000	4.712998e-001	8.745735e-001
23532504.000	4.714858e-001	8.744280e-001
23538498.000	4.716740e-001	8.743530e-001
23544492.000	4.718789e-001	8.741764e-001
23550486.000	4.720712e-001	8.741473e-001
23556480.000	4.723146e-001	8.740342e-001
23562474.000	4.724807e-001	8.739742e-001
23568468.000	4.727340e-001	8.738289e-001
23574462.000	4.728172e-001	8.736895e-001
23580456.000	4.730551e-001	8.736043e-001
23586450.000	4.732574e-001	8.735155e-001
23592444.000	4.734207e-001	8.734186e-001
23598438.000	4.736397e-001	8.732797e-001
23604432.000	4.738074e-001	8.732264e-001
23610426.000	4.740127e-001	8.730802e-001
23616420.000	4.742142e-001	8.728978e-001
23622414.000	4.744677e-001	8.727765e-001
23628408.000	4.746199e-001	8.727092e-001
23634402.000	4.747821e-001	8.726285e-001
23640396.000	4.750207e-001	8.725190e-001
23646390.000	4.752907e-001	8.724341e-001
23652384.000	4.754405e-001	8.723169e-001
23658378.000	4.755635e-001	8.721936e-001
23664372.000	4.758716e-001	8.720956e-001
23670366.000	4.760903e-001	8.719685e-001
23676360.000	4.761950e-001	8.719546e-001
23682354.000	4.763359e-001	8.718792e-001
23688348.000	4.765973e-001	8.717202e-001
23694342.000	4.768423e-001	8.715549e-001
23700336.000	4.770181e-001	8.715043e-001
23706330.000	4.772373e-001	8.714339e-001
23712324.000	4.773262e-001	8.713230e-001
23718318.000	4.776193e-001	8.711816e-001
23724312.000	4.778223e-001	8.711444e-001
23730306.000	4.780904e-001	8.708915e-001
23736300.000	4.781989e-001	8.708939e-001
23742294.000	4.783783e-001	8.707735e-001
23748288.000	4.785936e-001	8.706441e-001
23754282.000	4.788149e-001	8.705169e-001
23760276.000	4.789985e-001	8.704701e-001
23766270.000	4.791376e-001	8.703042e-001
23772264.000	4.793357e-001	8.702874e-001
23778258.000	4.795962e-001	8.700664e-001
23784252.000	4.798474e-001	8.699700e-001
23790246.000	4.800283e-001	8.698024e-001
23796240.000	4.802299e-001	8.697695e-001
23802234.000	4.803301e-001	8.697023e-001
23808228.000	4.805808e-001	8.696270e-001
23814222.000	4.807467e-001	8.694620e-001
23820216.000	4.810197e-001	8.694025e-001
23826210.000	4.811538e-001	8.692128e-001
23832204.000	4.813804e-001	8.690465e-001
23838198.000	4.815263e-001	8.689730e-001
23844192.000	4.816807e-001	8.688703e-001
23850186.000	4.819038e-001	8.688150e-001
23856180.000	4.821347e-001	8.686955e-001
23862174.000	4.823645e-001	8.685643e-001
23868168.000	4.826024e-001	8.684539e-001
23874162.000	4.827794e-001	8.684166e-001
23880156.000	4.829792e-001	8.683032e-001
23886150.000	4.831498e-001	8.682453e-001
23892144.000	4.832801e-001	8.680920e-001
23898138.000	4.835062e-001	8.679277e-001
23904132.000	4.837246e-001	8.678650e-001
23910126.000	4.839482e-001	8.678098e-001
23916120.000	4.840877e-001	8.676770e-001
23922114.000	4.841706e-001	8.675832e-001
23928108.000	4.844697e-001	8.674532e-001
23934102.000	4.846410e-001	8.673444e-001
23940096.000	4.848469e-001	8.672689e-001
23946090.000	4.850342e-001	8.671096e-001
23952084.000	4.852282e-001	8.670685e-001
23958078.000	4.854739e-001	8.669268e-001
23964072.000	4.856546e-001	8.668480e-001
23970066.000	4.858507e-001	8.667149e-001
23976060.000	4.860251e-001	8.666139e-001
23982054.000	4.861952e-001	8.664840e-001
23988048.000	4.864089e-001	8.663229e-001
23994042.000	4.865549e-001	8.662626e-001
24000036.000	4.867534e-001	8.661568e-001
24006030.000	4.870444e-001	8.660802e-001
24012024.000	4.872394e-001	8.660129e-001
24018018.000	4.873947e-001	8.658349e-001
24024012.000	4.875328e-001	8.657502e-001
24030006.000	4.877547e-001	8.657041e-001
24036000.000	4.879045e-001	8.655510e-001
24041994.000	4.881845e-001	8.654494e-001
24047988.000	4.883928e-001	8.652589e-001
24053982.000	4.886286e-001	8.652408e-001
24059976.000	4.886791e-001	8.651146e-001
24065970.000	4.889523e-001	8.650074e-001
24071964.000	4.891310e-001	8.649168e-001
24077958.000	4.892950e-001	8.648047e-001
24083952.000	4.894895e-001	8.647370e-001
24089946.000	4.897170e-001	8.645084e-001
24095940.000	4.899358e-001	8.644386e-001
24101934.000	4.900664e-001	8.642863e-001
24107928.000	4.902313e-001	8.642280e-001
24113922.000	4.904378e-001	8.641294e-001
24119916.000	4.906826e-001	8.640686e-001
24125910.000	4.908582e-001	8.638891e-001
24131904.000	4.910092e-001	8.638413e-001
24137898.000	4.912221e-001	8.637011e-001
24143892.000	4.913557e-001	8.636436e-001
24149886.000	4.916490e-001	8.634996e-001
24155880.000	4.917487e-001	8.634138e-001
24161874.000	4.919560e-001	8.632722e-001
24167868.000	4.921110e-001	8.631778e-001
24173862.000	4.923765e-001	8.630610e-001
24179856.000	4.925586e-001	8.629659e-001
24185850.000	4.927600e-001	8.628643e-001
24191844.000	4.929468e-001	8.627678e-001
24197838.000	4.931152e-001	8.626991e-001
24203832.000	4.933111e-001	8.625475e-001
24209826.000	4.934791e-001	8.624125e-001
24215820.000	4.936561e-001	8.623773e-001
24221814.000	4.938547e-001	8.622517e-001
24227808.000	4.940547e-001	8.621407e-001
24233802.000	4.942571e-001	8.620164e-001
24239796.000	4.944108e-001	8.618576e-001
24245790.000	4.946023e-001	8.618039e-001
24251784.000	4.947941e-001	8.616452e-001
24257778.000	4.950029e-001	8.615380e-001
24263772.000	4.952080e-001	8.614639e-001
24269766.000	4.952898e-001	8.613752e-001
24275760.000	4.954966e-001	8.612475e-001
24281754.000	4.957040e-001	8.611395e-001
24287748.000	4.958754e-001	8.610813e-001
24293742.000	4.961148e-001	8.610252e-001
24299736.000	4.962914e-001	8.608308e-001
24305730.000	4.964669e-001	8.607546e-001
24311724.000	4.966920e-001	8.606515e-001
24317718.000	4.968333e-001	8.605221e-001
24323712.000	4.970095e-001	8.603648e-001
24329706.000	4.972431e-001	8.602872e-001
24335700.000	4.974382e-001	8.601887e-001
24341694.000	4.975983e-001	8.601669e-001
24347688.000	4.977803e-001	8.599724e-001
24353682.000	4.979236e-001	8.599402e-001
24359676.000	4.981479e-001	8.597857e-001
24365670.000	4.983232e-001	8.597294e-001
24371664.000	4.985114e-001	8.596125e-001
24377658.000	4.987209e-001	8.594418e-001
24383652.000	4.988898e-001	8.594137e-001
24389646.000	4.991254e-001	8.592555e-001
24395640.000	4.992480e-001	8.591211e-001
24401634.000	4.994721e-001	8.590333e-001
24407628.000	4.996593e-001	8.589465e-001
24413622.000	4.998580e-001	8.588423e-001
24419616.000	5.000401e-001	8.587074e-001
24425610.000	5.001850e-001	8.586256e-001
24431604.000	5.003979e-001	8.584923e-001
24437598.000	5.005648e-001	8.583973e-001
24443592.000	5.007517e-001	8.583110e-001
24449586.000	5.009717e-001	8.581269e-001
24455580.000	5.011338e-001	8.580617e-001
24461574.000	5.013512e-001	8.579416e-001
24467568.000	5.015254e-001	8.578867e-001
24473562.000	5.017343e-001	8.577724e-001
24479556.000	5.019013e-001	8.576258e-001
24485550.000	5.020665e-001	8.575266e-001
24491544.000	5.022646e-001	8.574719e-001
24497538.000	5.024792e-001	8.573158e-001
24503532.000	5.026019e-001	8.571871e-001
24509526.000	5.028531e-001	8.571530e-001
24515520.000	5.030224e-001	8.570185e-001
24521514.000	5.032236e-001	8.568308e-001
24527508.000	5.033765e-001	8.567915e-001
24533502.000	5.035756e-001	8.566232e-001
24539496.000	5.037410e-001	8.565978e-001
24545490.000	5.039337e-001	8.564700e-001
24551484.000	5.040836e-001	8.562988e-001
24557478.000	5.043027e-001	8.562084e-001
24563472.000	5.044738e-001	8.561965e-001
24569466.000	5.046342e-001	8.560717e-001
24575460.000	5.048236e-001	8.559949e-001
24581454.000	5.050193e-001	8.558424e-001
24587448.000	5.051691e-001	8.557459e-001
24593442.000	5.053640e-001	8.556303e-001
24599436.000	5.055244e-001	8.555310e-001
24605430.000	5.057642e-001	8.554116e-001
24611424.000	5.059233e-001	8.553024e-001
24617418.000	5.061050e-001	8.552222e-001
24623412.000	5.062908e-001	8.550816e-001
24629406.000	5.065266e-001	8.549063e-001
24635400.000	5.066158e-001	8.548375e-001
24641394.000	5.068570e-001	8.547885e-001
24647388.000	5.070368e-001	8.546850e-001
24653382.000	5.071826e-001	8.545121e-001
24659376.000	5.073613e-001	8.544633e-001
24665370.000	5.075239e-001	8.543569e-001
24671364.000	5.077785e-001	8.541986e-001
24677358.000	5.079278e-001	8.541518e-001
24683352.000	5.081223e-001	8.539472e-001
24689346.000	5.082530e-001	8.539034e-001
24695340.000	5.084243e-001	8.538097e-001
24701334.000	5.086651e-001	8.537503e-001
24707328.000	5.088251e-001	8.535804e-001
24713322.000	5.090387e-001	8.534782e-001
24719316.000	5.091473e-001	8.534381e-001
24725310.000	5.093689e-001	8.533311e-001
24731304.000	5.096166e-001	8.532120e-001
24737298.000	5.097333e-001	8.531062e-001
24743292.000	5.099027e-001	8.529459e-001
24749286.000	5.101348e-001	8.528749e-001
24755280.000	5.102286e-001	8.527689e-001
24761274.000	5.104470e-001	8.526341e-001
24767268.000	5.106792e-001	8.525522e-001
24773262.000	5.107844e-001	8.524570e-001
24779256.000	5.110415e-001	8.523258e-001
24785250.000	5.111734e-001	8.522255e-001
24791244.000	5.113998e-001	8.521564e-001
24797238.000	5.115797e-001	8.520304e-001
24803232.000	5.117171e-001	8.518708e-001
24809226.000	5.119438e-001	8.518264e-001
24815220.000	5.121135e-001	8.516668e-001
24821214.000	5.122384e-001	8.515944e-001
24827208.000	5.124603e-001	8.515032e-001
24833202.000	5.126191e-001	8.513635e-001
24839196.000	5.128084e-001	8.513163e-001
24845190.000	5.130332e-001	8.511478e-001
24851184.000	5.131035e-001	8.510941e-001
24857178.000	5.133382e-001	8.509406e-001
24863172.000	5.135339e-001	8.508564e-001
24869166.000	5.136945e-001	8.506873e-001
24875160.000	5.139149e-001	8.506466e-001
24881154.000	5.140441e-001	8.505654e-001
24887148.000	5.142622e-001	8.504044e-001
24893142.000	5.144510e-001	8.502962e-001
24899136.000	5.146140e-001	8.502284e-001
24905130.000	5.148013e-001	8.501479e-001
24911124.000	5.149907e-001	8.499966e-001
24917118.000	5.151306e-001	8.498681e-001
24923112.000	5.152781e-001	8.497460e-001
24929106.000	5.154938e-001	8.495917e-001
24935100.000	5.156881e-001	8.495331e-001
24941094.000	5.158517e-001	8.494374e-001
24947088.000	5.160184e-001	8.492582e-001
24953082.000	5.162247e-001	8.492296e-001
24959076.000	5.163748e-001	8.490934e-001
24965070.000	5.165588e-001	8.490060e-001
24971064.000	5.167809e-001	8.489634e-001
24977058.000	5.169041e-001	8.487815e-001
24983052.000	5.170896e-001	8.486864e-001
24989046.000	5.172567e-001	8.486032e-001
24995040.000	5.174228e-001	8.484884e-001
25001034.000	5.176415e-001	8.483349e-001
25007028.000	5.177564e-001	8.482931e-001
25013022.000	5.179339e-001	8.481640e-001
25019016.000	5.180321e-001	8.480602e-001
25025010.000	5.183274e-001	8.479588e-001
25031004.000	5.185277e-001	8.478032e-001
25036998.000	5.187236e-001	8.477806e-001
25042992.000	5.189258e-001	8.476583e-001
25048986.000	5.190637e-001	8.475746e-001
25054980.000	5.191938e-001	8.474185e-001
25060974.000	5.193828e-001	8.473472e-001
25066968.000	5.194697e-001	8.471977e-001
25072962.000	5.198085e-001	8.470734e-001
25078956.000	5.199087e-001	8.469900e-001
25084950.000	5.200667e-001	8.468812e-001
25090944.000	5.202144e-001	8.467353e-001
25096938.000	5.204325e-001	8.466512e-001
25102932.000	5.205578e-001	8.465744e-001
25108926.000	5.208024e-001	8.464668e-001
25114920.000	5.209392e-001	8.463477e-001
25120914.000	5.211768e-001	8.462711e-001
25126908.000	5.213009e-001	8.461671e-001
25132902.000	5.215008e-001	8.460263e-001
25138896.000	5.217119e-001	8.459166e-001
25144890.000	5.218871e-001	8.458627e-001
25150884.000	5.220546e-001	8.457153e-001
25156878.000	5.222282e-001	8.456209e-001
25162872.000	5.223828e-001	8.455127e-001
25168866.000	5.225093e-001	8.454302e-001
25174860.000	5.227432e-001	8.453149e-001
25180854.000	5.229383e-001	8.451415e-001
25186848.000	5.230496e-001	8.450090e-001
25192842.000	5.232282e-001	8.449107e-001
25198836.000	5.234351e-001	8.448138e-001
25204830.000	5.236421e-001	8.447410e-001
25210824.000	5.237965e-001	8.446611e-001
25216818.000	5.239107e-001	8.445204e-001
25222812.000	5.241436e-001	8.444098e-001
25228806.000	5.242818e-001	8.443222e-001
25234800.000	5.245259e-001	8.442123e-001
25240794.000	5.247199e-001	8.440739e-001
25246788.000	5.248802e-001	8.439437e-001
25252782.000	5.250272e-001	8.438913e-001
25258776.000	5.251998e-001	8.437794e-001
25264770.000	5.254210e-001	8.436523e-001
25270764.000	5.255603e-001	8.435428e-001
25276758.000	5.257042e-001	8.434660e-001
25282752.000	5.258955e-001	8.433945e-001
25288746.000	5.261066e-001	8.432540e-001
25294740.000	5.262393e-001	8.431950e-001
25300734.000	5.263870e-001	8.430560e-001
25306728.000	5.266127e-001	8.429641e-001
25312722.000	5.267698e-001	8.428062e-001
25318716.000	5.269662e-001	8.427108e-001
25324710.000	5.270966e-001	8.425627e-001
25330704.000	5.272911e-001	8.425050e-001
25336698.000	5.275004e-001	8.424070e-001
25342692.000	5.276612e-001	8.423504e-001
25348686.000	5.278209e-001	8.421730e-001
25354680.000	5.279706e-001	8.420539e-001
25360674.000	5.281545e-001	8.419956e-001
25366668.000	5.282750e-001	8.418762e-001
25372662.000	5.284864e-001	8.417275e-001
25378656.000	5.286765e-001	8.416016e-001
25384650.000	5.288175e-001	8.415296e-001
25390644.000	5.289957e-001	8.414233e-001
25396638.000	5.291778e-001	8.413043e-001
25402632.000	5.293598e-001	8.411749e-001
25408626.000	5.295142e-001	8.410981e-001
25414620.000	5.297129e-001	8.409992e-001
25420614.000	5.298335e-001	8.409436e-001
25426608.000	5.301182e-001	8.407725e-001
25432602.000	5.301830e-001	8.407095e-001
25438596.000	5.304078e-001	8.406234e-001
25444590.000	5.305770e-001	8.404716e-001
25450584.000	5.307068e-001	8.403428e-001
25456578.000	5.308771e-001	8.402328e-001
25462572.000	5.310816e-001	8.401234e-001
25468566.000	5.313086e-001	8.400738e-001
25474560.000	5.314103e-001	8.400151e-001
25480554.000	5.316268e-001	8.398788e-001
25486548.000	5.317395e-001	8.397769e-001
25492542.000	5.319286e-001	8.396657e-001
25498536.000	5.320422e-001	8.395608e-001
25504530.000	5.322181e-001	8.394486e-001
25510524.000	5.323624e-001	8.393109e-001
25516518.000	5.326143e-001	8.392424e-001
25522512.000	5.327596e-001	8.390951e-001
25528506.000	5.330004e-001	8.390089e-001
25534500.000	5.330355e-001	8.389441e-001
25540494.000	5.332338e-001	8.387993e-001
25546488.000	5.334038e-001	8.386693e-001
25552482.000	5.336033e-001	8.385713e-001
25558476.000	5.337997e-001	8.384533e-001
25564470.000	5.339720e-001	8.383387e-001
25570464.000	5.341663e-001	8.382885e-001
25576458.000	5.342500e-001	8.381461e-001
25582452.000	5.344794e-001	8.381018e-001
25588446.000	5.345650e-001	8.379221e-001
25594440.000	5.347669e-001	8.378654e-001
25600434.000	5.348712e-001	8.379556e-001
25606428.000	5.350955e-001	8.376795e-001
25612422.000	5.353088e-001	8.375493e-001
25618416.000	5.354715e-001	8.374261e-001
25624410.000	5.356406e-001	8.372941e-001
25630404.000	5.357791e-001	8.372360e-001
25636398.000	5.359864e-001	8.370880e-001
25642392.000	5.361440e-001	8.370075e-001
25648386.000	5.362851e-001	8.369100e-001
25654380.000	5.364761e-001	8.367417e-001
25660374.000	5.366454e-001	8.366032e-001
25666368.000	5.368505e-001	8.365875e-001
25672362.000	5.370189e-001	8.364968e-001
25678356.000	5.372354e-001	8.363550e-001
25684350.000	5.373483e-001	8.362697e-001
25690344.000	5.375230e-001	8.361816e-001
25696338.000	5.376332e-001	8.360050e-001
25702332.000	5.378133e-001	8.359903e-001
25708326.000	5.380561e-001	8.358458e-001
25714320.000	5.381712e-001	8.357320e-001
25720314.000	5.383612e-001	8.355803e-001
25726308.000	5.385498e-001	8.354804e-001
25732302.000	5.387313e-001	8.353629e-001
25738296.000	5.388827e-001	8.352830e-001
25744290.000	5.390088e-001	8.351811e-001
25750284.000	5.391579e-001	8.350936e-001
25756278.000	5.393640e-001	8.349480e-001
25762272.000	5.394881e-001	8.348292e-001
25768266.000	5.397352e-001	8.347284e-001
25774260.000	5.398691e-001	8.346566e-001
25780254.000	5.399868e-001	8.344929e-001
25786248.000	5.401793e-001	8.344259e-001
25792242.000	5.403699e-001	8.343160e-001
25798236.000	5.405000e-001	8.342136e-001
25804230.000	5.407655e-001	8.340743e-001
25810224.000	5.408767e-001	8.340435e-001
25816218.000	5.410513e-001	8.338547e-001
25822212.000	5.411667e-001	8.338042e-001
25828206.000	5.414172e-001	8.337306e-001
25834200.000	5.415259e-001	8.335553e-001
25840194.000	5.416777e-001	8.334448e-001
25846188.000	5.418404e-001	8.332809e-001
25852182.000	5.420548e-001	8.332017e-001
25858176.000	5.421925e-001	8.331414e-001
25864170.000	5.423929e-001	8.330198e-001
25870164.000	5.425567e-001	8.329108e-001
25876158.000	5.426785e-001	8.328454e-001
25882152.000	5.428479e-001	8.327814e-001
25888146.000	5.430598e-001	8.325916e-001
25894140.000	5.431689e-001	8.325581e-001
25900134.000	5.434006e-001	8.324574e-001
25906128.000	5.435243e-001	8.323403e-001
25912122.000	5.437101e-001	8.322568e-001
25918116.000	5.438643e-001	8.321285e-001
25924110.000	5.439778e-001	8.320234e-001
25930104.000	5.442031e-001	8.318933e-001
25936098.000	5.444591e-001	8.318122e-001
25942092.000	5.445753e-001	8.316382e-001
25948086.000	5.446771e-001	8.315560e-001
25954080.000	5.449023e-001	8.314273e-001
25960074.000	5.449624e-001	8.314035e-001
25966068.000	5.451893e-001	8.312505e-001
25972062.000	5.453333e-001	8.310965e-001
25978056.000	5.455607e-001	8.310936e-001
25984050.000	5.457069e-001	8.309308e-001
25990044.000	5.459047e-001	8.308020e-001
25996038.000	5.460577e-001	8.306952e-001
26002032.000	5.461563e-001	8.305905e-001
26008026.000	5.464061e-001	8.305045e-001
26014020.000	5.465449e-001	8.303641e-001
26020014.000	5.466054e-001	8.303077e-001
26026008.000	5.467967e-001	8.301790e-001
26032002.000	5.469899e-001	8.300740e-001
26037996.000	5.471481e-001	8.299969e-001
26043990.000	5.472761e-001	8.298791e-001
26049984.000	5.475058e-001	8.298006e-001
26055978.000	5.476818e-001	8.297061e-001
26061972.000	5.477732e-001	8.295205e-001
26067966.000	5.479784e-001	8.294781e-001
26073960.000	5.480837e-001	8.293516e-001
26079954.000	5.482161e-001	8.292431e-001
26085948.000	5.484238e-001	8.292001e-001
26091942.000	5.486094e-001	8.290057e-001
26097936.000	5.487471e-001	8.289358e-001
26103930.000	5.489264e-001	8.288229e-001
26109924.000	5.490667e-001	8.286849e-001
26115918.000	5.492527e-001	8.285920e-001
26121912.000	5.494649e-001	8.285083e-001
26127906.000	5.496190e-001	8.283750e-001
26133900.000	5.497430e-001	8.282754e-001
26139894.000	5.497916e-001	8.281488e-001
26145888.000	5.500342e-001	8.280934e-001
26151882.000	5.502374e-001	8.279203e-001
26157876.000	5.504175e-001	8.278943e-001
26163870.000	5.505854e-001	8.277449e-001
26169864.000	5.507605e-001	8.276766e-001
26175858.000	5.508822e-001	8.275477e-001
26181852.000	5.510445e-001	8.274367e-001
26187846.000	5.511832e-001	8.273474e-001
26193840.000	5.513144e-001	8.273111e-001
26199834.000	5.515455e-001	8.271489e-001
26205828.000	5.516465e-001	8.269891e-001
26211822.000	5.518720e-001	8.269385e-001
26217816.000	5.519885e-001	8.268134e-001
26223810.000	5.521603e-001	8.266632e-001
26229804.000	5.523289e-001	8.265870e-001
26235798.000	5.524760e-001	8.264982e-001
26241792.000	5.526278e-001	8.263949e-001
26247786.000	5.527737e-001	8.262774e-001
26253780.000	5.530122e-001	8.262000e-001
26259774.000	5.531571e-001	8.260974e-001
26265768.000	5.532659e-001	8.259424e-001
26271762.000	5.534868e-001	8.258678e-001
26277756.000	5.536869e-001	8.257458e-001
26283750.000	5.537890e-001	8.256346e-001
26289744.000	5.539657e-001	8.256051e-001
26295738.000	5.541240e-001	8.254109e-001
26301732.000	5.542410e-001	8.253294e-001
26307726.000	5.544407e-001	8.251848e-001
26313720.000	5.545868e-001	8.250689e-001
26319714.000	5.548117e-001	8.250727e-001
26325708.000	5.549069e-001	8.249548e-001
26331702.000	5.550587e-001	8.247794e-001
26337696.000	5.552296e-001	8.246716e-001
26343690.000	5.554380e-001	8.245521e-001
26349684.000	5.555691e-001	8.244508e-001
26355678.000	5.556991e-001	8.243649e-001
26361672.000	5.558970e-001	8.242682e-001
26367666.000	5.560477e-001	8.240982e-001
26373660.000	5.561745e-001	8.239295e-001
26379654.000	5.563895e-001	8.239233e-001
26385648.000	5.565492e-001	8.238466e-001
26391642.000	5.566547e-001	8.237789e-001
26397636.000	5.568357e-001	8.236333e-001
26403630.000	5.569945e-001	8.234970e-001
26409624.000	5.571693e-001	8.233802e-001
26415618.000	5.573388e-001	8.232938e-001
26421612.000	5.574398e-001	8.232043e-001
26427606.000	5.575428e-001	8.230324e-001
26433600.000	5.577573e-001	8.229500e-001
26439594.000	5.579358e-001	8.227904e-001
26445588.000	5.581030e-001	8.227354e-001
26451582.000	5.582844e-001	8.226206e-001
26457576.000	5.585129e-001	8.225676e-001
26463570.000	5.585622e-001	8.224382e-001
26469564.000	5.587414e-001	8.223048e-001
26475558.000	5.588955e-001	8.221933e-001
26481552.000	5.590285e-001	8.220922e-001
26487546.000	5.592070e-001	8.220204e-001
26493540.000	5.593786e-001	8.219505e-001
26499534.000	5.596004e-001	8.217914e-001
26505528.000	5.597108e-001	8.216852e-001
26511522.000	5.598070e-001	8.215430e-001
26517516.000	5.600375e-001	8.214491e-001
26523510.000	5.601171e-001	8.213565e-001
26529504.000	5.603337e-001	8.213168e-001
26535498.000	5.604144e-001	8.211312e-001
26541492.000	5.606368e-001	8.211033e-001
26547486.000	5.607723e-001	8.209552e-001
26553480.000	5.609723e-001	8.208685e-001
26559474.000	5.611304e-001	8.207591e-001
26565468.000	5.612957e-001	8.206572e-001
26571462.000	5.613705e-001	8.205528e-001
26577456.000	5.615695e-001	8.203640e-001
26583450.000	5.617666e-001	8.203253e-001
26589444.000	5.619069e-001	8.202346e-001
26595438.000	5.620764e-001	8.201154e-001
26601432.000	5.622615e-001	8.199967e-001
26607426.000	5.623955e-001	8.199300e-001
26613420.000	5.624615e-001	8.198127e-001
26619414.000	5.626421e-001	8.197174e-001
26625408.000	5.628694e-001	8.195735e-001
26631402.000	5.629841e-001	8.194599e-001
26637396.000	5.631457e-001	8.194682e-001
26643390.000	5.632774e-001	8.193052e-001
26649384.000	5.634167e-001	8.191872e-001
26655378.000	5.636390e-001	8.190738e-001
26661372.000	5.637613e-001	8.189345e-001
26667366.000	5.639231e-001	8.188586e-001
26673360.000	5.640040e-001	8.187185e-001
26679354.000	5.642224e-001	8.186387e-001
26685348.000	5.643751e-001	8.185226e-001
26691342.000	5.644810e-001	8.184694e-001
26697336.000	5.646830e-001	8.183383e-001
26703330.000	5.648047e-001	8.181707e-001
26709324.000	5.649798e-001	8.181168e-001
26715318.000	5.651616e-001	8.179941e-001
26721312.000	5.652328e-001	8.178731e-001
26727306.000	5.653704e-001	8.177862e-001
26733300.000	5.655433e-001	8.176807e-001
26739294.000	5.656501e-001	8.175901e-001
26745288.000	5.658809e-001	8.175026e-001
26751282.000	5.660415e-001	8.173590e-001
26757276.000	5.661713e-001	8.172956e-001
26763270.000	5.663538e-001	8.172299e-001
26769264.000	5.665425e-001	8.170180e-001
26775258.000	5.667122e-001	8.169666e-001
26781252.000	5.668349e-001	8.168696e-001
26787246.000	5.670034e-001	8.167084e-001
26793240.000	5.671529e-001	8.166144e-001
26799234.000	5.672661e-001	8.165303e-001
26805228.000	5.673924e-001	8.164130e-001
26811222.000	5.675752e-001	8.162865e-001
26817216.000	5.677574e-001	8.161904e-001
26823210.000	5.678331e-001	8.160508e-001
26829204.000	5.680377e-001	8.159977e-001
26835198.000	5.681903e-001	8.158669e-001
26841192.000	5.683297e-001	8.157259e-001
26847186.000	5.685285e-001	8.156995e-001
26853180.000	5.686562e-001	8.156132e-001
26859174.000	5.688370e-001	8.154821e-001
26865168.000	5.689615e-001	8.153676e-001
26871162.000	5.690898e-001	8.152068e-001
26877156.000	5.692687e-001	8.150953e-001
26883150.000	5.694554e-001	8.150238e-001
26889144.000	5.696608e-001	8.148675e-001
26895138.000	5.698365e-001	8.148266e-001
26901132.000	5.698553e-001	8.146792e-001
26907126.000	5.700447e-001	8.145761e-001
26913120.000	5.702236e-001	8.144834e-001
26919114.000	5.704217e-001	8.143872e-001
26925108.000	5.705317e-001	8.142389e-001
26931102.000	5.706673e-001	8.142013e-001
26937096.000	5.707670e-001	8.141198e-001
26943090.000	5.709585e-001	8.139518e-001
26949084.000	5.711462e-001	8.139221e-001
26955078.000	5.712887e-001	8.137873e-001
26961072.000	5.714209e-001	8.136399e-001
26967066.000	5.715590e-001	8.135394e-001
26973060.000	5.717262e-001	8.134571e-001
26979054.000	5.718437e-001	8.133190e-001
26985048.000	5.720306e-001	8.132493e-001
26991042.000	5.722088e-001	8.131824e-001
26997036.000	5.722574e-001	8.129843e-001
27003030.000	5.724873e-001	8.129038e-001
27009024.000	5.727160e-001	8.127979e-001
27015018.000	5.727823e-001	8.127023e-001
27021012.000	5.729617e-001	8.126755e-001
27027006.000	5.730790e-001	8.125491e-001
27033000.000	5.731980e-001	8.124410e-001
27038994.000	5.733942e-001	8.122896e-001
27044988.000	5.735337e-001	8.122000e-001
27050982.000	5.736225e-001	8.121512e-001
27056976.000	5.738406e-001	8.120190e-001
27062970.000	5.740091e-001	8.118659e-001
27068964.000	5.741226e-001	8.118272e-001
27074958.000	5.743229e-001	8.116764e-001
27080952.000	5.743952e-001	8.116003e-001
27086946.000	5.745533e-001	8.114922e-001
27092940.000	5.747238e-001	8.113533e-001
27098934.000	5.748860e-001	8.112351e-001
27104928.000	5.750760e-001	8.111685e-001
27110922.000	5.752996e-001	8.110016e-001
27116916.000	5.753767e-001	8.108951e-001
27122910.000	5.754940e-001	8.107855e-001
27128904.000	5.757229e-001	8.107062e-001
27134898.000	5.758037e-001	8.106131e-001
27140892.000	5.759768e-001	8.104911e-001
27146886.000	5.761327e-001	8.103737e-001
27152880.000	5.762549e-001	8.103135e-001
27158874.000	5.763494e-001	8.101593e-001
27164868.000	5.765745e-001	8.100614e-001
27170862.000	5.767601e-001	8.099469e-001
27176856.000	5.769058e-001	8.098613e-001
27182850.000	5.770747e-001	8.097374e-001
27188844.000	5.771696e-001	8.096362e-001
27194838.000	5.773189e-001	8.095608e-001
27200832.000	5.774583e-001	8.093609e-001
27206826.000	5.776648e-001	8.093550e-001
27212820.000	5.777007e-001	8.092420e-001
27218814.000	5.779433e-001	8.091059e-001
27224808.000	5.780888e-001	8.089958e-001
27230802.000	5.782233e-001	8.089342e-001
27236796.000	5.783089e-001	8.087508e-001
27242790.000	5.784538e-001	8.086957e-001
27248784.000	5.786711e-001	8.085830e-001
27254778.000	5.787867e-001	8.084701e-001
27260772.000	5.788640e-001	8.084084e-001
27266766.000	5.789806e-001	8.082805e-001
27272760.000	5.791776e-001	8.081931e-001
27278754.000	5.793315e-001	8.080685e-001
27284748.000	5.795080e-001	8.079696e-001
27290742.000	5.796990e-001	8.078694e-001
27296736.000	5.798619e-001	8.077189e-001
27302730.000	5.800336e-001	8.076554e-001
27308724.000	5.801761e-001	8.075292e-001
27314718.000	5.802442e-001	8.074260e-001
27320712.000	5.804593e-001	8.072293e-001
27326706.000	5.805221e-001	8.071296e-001
27332700.000	5.806938e-001	8.071072e-001
27338694.000	5.808348e-001	8.069999e-001
27344688.000	5.809723e-001	8.069347e-001
27350682.000	5.811743e-001	8.068078e-001
27356676.000	5.813230e-001	8.066613e-001
27362670.000	5.814422e-001	8.066456e-001
27368664.000	5.815522e-001	8.064645e-001
27374658.000	5.817760e-001	8.064063e-001
27380652.000	5.818844e-001	8.063148e-001
27386646.000	5.820130e-001	8.061621e-001
27392640.000	5.821796e-001	8.060912e-001
27398634.000	5.822422e-001	8.059996e-001
27404628.000	5.824738e-001	8.058304e-001
27410622.000	5.826245e-001	8.057596e-001
27416616.000	5.827781e-001	8.056420e-001
27422610.000	5.829074e-001	8.056204e-001
27428604.000	5.830738e-001	8.054358e-001
27434598.000	5.832263e-001	8.053870e-001
27440592.000	5.834394e-001	8.052738e-001
27446586.000	5.835432e-001	8.051422e-001
27452580.000	5.837113e-001	8.050446e-001
27458574.000	5.838519e-001	8.049690e-001
27464568.000	5.839890e-001	8.048538e-001
27470562.000	5.841042e-001	8.047583e-001
27476556.000	5.842332e-001	8.046538e-001
27482550.000	5.844020e-001	8.045385e-001
27488544.000	5.845585e-001	8.044774e-001
27494538.000	5.846755e-001	8.043398e-001
27500532.000	5.848565e-001	8.042485e-001
27506526.000	5.850038e-001	8.041193e-001
27512520.000	5.851584e-001	8.040228e-001
27518514.000	5.852445e-001	8.039070e-001
27524508.000	5.854823e-001	8.038259e-001
27530502.000	5.855856e-001	8.037482e-001
27536496.000	5.856797e-001	8.036247e-001
27542490.000	5.858762e-001	8.035542e-001
27548484.000	5.860057e-001	8.033667e-001
27554478.000	5.861890e-001	8.032900e-001
27560472.000	5.862756e-001	8.031493e-001
27566466.000	5.864224e-001	8.030898e-001
27572460.000	5.866435e-001	8.029140e-001
27578454.000	5.867386e-001	8.028156e-001
27584448.000	5.868907e-001	8.027472e-001
27590442.000	5.870165e-001	8.025370e-001
27596436.000	5.871210e-001	8.025275e-001
27602430.000	5.873029e-001	8.024368e-001
27608424.000	5.874201e-001	8.024068e-001
27614418.000	5.876059e-001	8.022375e-001
27620412.000	5.876989e-001	8.022171e-001
27626406.000	5.878770e-001	8.019750e-001
27632400.000	5.880199e-001	8.019216e-001
27638394.000	5.881564e-001	8.018109e-001
27644388.000	5.883810e-001	8.017201e-001
27650382.000	5.885088e-001	8.016136e-001
27656376.000	5.885748e-001	8.014919e-001
27662370.000	5.887075e-001	8.014473e-001
27668364.000	5.889228e-001	8.012887e-001
27674358.000	5.889907e-001	8.012094e-001
27680352.000	5.892671e-001	8.010895e-001
27686346.000	5.893113e-001	8.010235e-001
27692340.000	5.894884e-001	8.008829e-001
27698334.000	5.895205e-001	8.008291e-001
27704328.000	5.897666e-001	8.006426e-001
27710322.000	5.898733e-001	8.005939e-001
27716316.000	5.900674e-001	8.003917e-001
27722310.000	5.902305e-001	8.003535e-001
27728304.000	5.903214e-001	8.002881e-001
27734298.000	5.904984e-001	8.001658e-001
27740292.000	5.906501e-001	7.999922e-001
27746286.000	5.907716e-001	7.999110e-001
27752280.000	5.909405e-001	7.997751e-001
27758274.000	5.910040e-001	7.997695e-001
27764268.000	5.912027e-001	7.996850e-001
27770262.000	5.913315e-001	7.995386e-001
27776256.000	5.914737e-001	7.993764e-001
27782250.000	5.916004e-001	7.993083e-001
27788244.000	5.918008e-001	7.992320e-001
27794238.000	5.918642e-001	7.991606e-001
27800232.000	5.920773e-001	7.989153e-001
27806226.000	5.922538e-001	7.989608e-001
27812220.000	5.923641e-001	7.988045e-001
27818214.000	5.924945e-001	7.987137e-001
27824208.000	5.926390e-001	7.985936e-001
27830202.000	5.927783e-001	7.985040e-001
27836196.000	5.929224e-001	7.983574e-001
27842190.000	5.931323e-001	7.983721e-001
27848184.000	5.932086e-001	7.981744e-001
27854178.000	5.933750e-001	7.980352e-001
27860172.000	5.934529e-001	7.979555e-001
27866166.000	5.935969e-001	7.978662e-001
27872160.000	5.937335e-001	7.977273e-001
27878154.000	5.938770e-001	7.976948e-001
27884148.000	5.941266e-001	7.975884e-001
27890142.000	5.942079e-001	7.974327e-001
27896136.000	5.943679e-001	7.973699e-001
27902130.000	5.944655e-001	7.972583e-001
27908124.000	5.945793e-001	7.971821e-001
27914118.000	5.947754e-001	7.970052e-001
27920112.000	5.949407e-001	7.968771e-001
27926106.000	5.950131e-001	7.968367e-001
27932100.000	5.951559e-001	7.967258e-001
27938094.000	5.954138e-001	7.966368e-001
27944088.000	5.954329e-001	7.965903e-001
27950082.000	5.955889e-001	7.964338e-001
27956076.000	5.957481e-001	7.962488e-001
27962070.000	5.958556e-001	7.962550e-001
27968064.000	5.959968e-001	7.961733e-001
27974058.000	5.961685e-001	7.960188e-001
27980052.000	5.962571e-001	7.959184e-001
27986046.000	5.964578e-001	7.957680e-001
27992040.000	5.965426e-001	7.956619e-001
27998034.000	5.967350e-001	7.956071e-001
28004028.000	5.968907e-001	7.954862e-001
28010022.000	5.969940e-001	7.953542e-001
28016016.000	5.971769e-001	7.952403e-001
28022010.000	5.973446e-001	7.951559e-001
28028004.000	5.974458e-001	7.950731e-001
28033998.000	5.975452e-001	7.949697e-001
28039992.000	5.976514e-001	7.948901e-001
28045986.000	5.978470e-001	7.947404e-001
28051980.000	5.979843e-001	7.946068e-001
28057974.000	5.981320e-001	7.944753e-001
28063968.000	5.982121e-001	7.944421e-001
28069962.000	5.983743e-001	7.943375e-001
28075956.000	5.985579e-001	7.942716e-001
28081950.000	5.986884e-001	7.941062e-001
28087944.000	5.987808e-001	7.939703e-001
28093938.000	5.989589e-001	7.939144e-001
28099932.000	5.990776e-001	7.938435e-001
28105926.000	5.991898e-001	7.937143e-001
28111920.000	5.994003e-001	7.936135e-001
28117914.000	5.994753e-001	7.935500e-001
28123908.000	5.996119e-001	7.933721e-001
28129902.000	5.997263e-001	7.933175e-001
28135896.000	5.999559e-001	7.931213e-001
28141890.000	5.999993e-001	7.930837e-001
28147884.000	6.001904e-001	7.930251e-001
28153878.000	6.003365e-001	7.928726e-001
28159872.000	6.004257e-001	7.927740e-001
28165866.000	6.006363e-001	7.926920e-001
28171860.000	6.007329e-001	7.925924e-001
28177854.000	6.008903e-001	7.924776e-001
28183848.000	6.010840e-001	7.923660e-001
28189842.000	6.012098e-001	7.922603e-001
28195836.000	6.013540e-001	7.922210e-001
28201830.000	6.015098e-001	7.920416e-001
28207824.000	6.016118e-001	7.919846e-001
28213818.000	6.018081e-001	7.918643e-001
28219812.000	6.018746e-001	7.917673e-001
28225806.000	6.020447e-001	7.916777e-001
28231800.000	6.021937e-001	7.915566e-001
28237794.000	6.023117e-001	7.914599e-001
28243788.000	6.024608e-001	7.913142e-001
28249782.000	6.025994e-001	7.912219e-001
28255776.000	6.027276e-001	7.911469e-001
28261770.000	6.028347e-001	7.910853e-001
28267764.000	6.030096e-001	7.909825e-001
28273758.000	6.031544e-001	7.908689e-001
28279752.000	6.032523e-001	7.906811e-001
28285746.000	6.033796e-001	7.906539e-001
28291740.000	6.035497e-001	7.905710e-001
28297734.000	6.036821e-001	7.905043e-001
28303728.000	6.038645e-001	7.903766e-001
28309722.000	6.039552e-001	7.902282e-001
28315716.000	6.040908e-001	7.901321e-001
28321710.000	6.042361e-001	7.900394e-001
28327704.000	6.043485e-001	7.898873e-001
28333698.000	6.044602e-001	7.898570e-001
28339692.000	6.045350e-001	7.897310e-001
28345686.000	6.047731e-001	7.895506e-001
28351680.000	6.048474e-001	7.894975e-001
28357674.000	6.050032e-001	7.893126e-001
28363668.000	6.050747e-001	7.892932e-001
28369662.000	6.052505e-001	7.891980e-001
28375656.000	6.053781e-001	7.890738e-001
28381650.000	6.055036e-001	7.889810e-001
28387644.000	6.056379e-001	7.888988e-001
28393638.000	6.058500e-001	7.888237e-001
28399632.000	6.059951e-001	7.886162e-001
28405626.000	6.061256e-001	7.885246e-001
28411620.000	6.062563e-001	7.884446e-001
28417614.000	6.063674e-001	7.883233e-001
28423608.000	6.064734e-001	7.882732e-001
28429602.000	6.066564e-001	7.881228e-001
28435596.000	6.068074e-001	7.880312e-001
28441590.000	6.069533e-001	7.878813e-001
28447584.000	6.070727e-001	7.878975e-001
28453578.000	6.072141e-001	7.877484e-001
28459572.000	6.072916e-001	7.876632e-001
28465566.000	6.074116e-001	7.875522e-001
28471560.000	6.076580e-001	7.874411e-001
28477554.000	6.077566e-001	7.873152e-001
28483548.000	6.078950e-001	7.871940e-001
28489542.000	6.079781e-001	7.871517e-001
28495536.000	6.081602e-001	7.869787e-001
28501530.000	6.082838e-001	7.868595e-001
28507524.000	6.084904e-001	7.867815e-001
28513518.000	6.086334e-001	7.866940e-001
28519512.000	6.086836e-001	7.866139e-001
28525506.000	6.088278e-001	7.865083e-001
28531500.000	6.089840e-001	7.864380e-001
28537494.000	6.090918e-001	7.862952e-001
28543488.000	6.092394e-001	7.862128e-001
28549482.000	6.093055e-001	7.860712e-001
28555476.000	6.094889e-001	7.859761e-001
28561470.000	6.096647e-001	7.858756e-001
28567464.000	6.096738e-001	7.857794e-001
28573458.000	6.098140e-001	7.856467e-001
28579452.000	6.100274e-001	7.855974e-001
28585446.000	6.102055e-001	7.854759e-001
28591440.000	6.102391e-001	7.853623e-001
28597434.000	6.104000e-001	7.852890e-001
28603428.000	6.105260e-001	7.851662e-001
28609422.000	6.106035e-001	7.850408e-001
28615416.000	6.107551e-001	7.849609e-001
28621410.000	6.109322e-001	7.848926e-001
28627404.000	6.110919e-001	7.847396e-001
28633398.000	6.112714e-001	7.846179e-001
28639392.000	6.113636e-001	7.845120e-001
28645386.000	6.114978e-001	7.844357e-001
28651380.000	6.115975e-001	7.843742e-001
28657374.000	6.117612e-001	7.843177e-001
28663368.000	6.118588e-001	7.841293e-001
28669362.000	6.120202e-001	7.840406e-001
28675356.000	6.121806e-001	7.839446e-001
28681350.000	6.122633e-001	7.837760e-001
28687344.000	6.123676e-001	7.837061e-001
28693338.000	6.125344e-001	7.835915e-001
28699332.000	6.126707e-001	7.835122e-001
28705326.000	6.127508e-001	7.834214e-001
28711320.000	6.129271e-001	7.832779e-001
28717314.000	6.130951e-001	7.831603e-001
28723308.000	6.131792e-001	7.831670e-001
28729302.000	6.132105e-001	7.830044e-001
28735296.000	6.134562e-001	7.828895e-001
28741290.000	6.135871e-001	7.828500e-001
28747284.000	6.137725e-001	7.826576e-001
28753278.000	6.138826e-001	7.825792e-001
28759272.000	6.139576e-001	7.825046e-001
28765266.000	6.141455e-001	7.823714e-001
28771260.000	6.142799e-001	7.822759e-001
28777254.000	6.144049e-001	7.821431e-001
28783248.000	6.144916e-001	7.821027e-001
28789242.000	6.146498e-001	7.819750e-001
28795236.000	6.148262e-001	7.818638e-001
28801230.000	6.149327e-001	7.817787e-001
28807224.000	6.150615e-001	7.816481e-001
28813218.000	6.152121e-001	7.815605e-001
28819212.000	6.153090e-001	7.814517e-001
28825206.000	6.154519e-001	7.813212e-001
28831200.000	6.155252e-001	7.812945e-001
28837194.000	6.156456e-001	7.812043e-001
28843188.000	6.157913e-001	7.811411e-001
28849182.000	6.159716e-001	7.809935e-001
28855176.000	6.160731e-001	7.807990e-001
28861170.000	6.161550e-001	7.807254e-001
28867164.000	6.163523e-001	7.806471e-001
28873158.000	6.165219e-001	7.805146e-001
28879152.000	6.166554e-001	7.804645e-001
28885146.000	6.167726e-001	7.803404e-001
28891140.000	6.169084e-001	7.802286e-001
28897134.000	6.170829e-001	7.801411e-001
28903128.000	6.171719e-001	7.800198e-001
28909122.000	6.172518e-001	7.799421e-001
28915116.000	6.174417e-001	7.798295e-001
28921110.000	6.175698e-001	7.796969e-001
28927104.000	6.176847e-001	7.795644e-001
28933098.000	6.178319e-001	7.794653e-001
28939092.000	6.179251e-001	7.794630e-001
28945086.000	6.180531e-001	7.793713e-001
28951080.000	6.182058e-001	7.791887e-001
28957074.000	6.183657e-001	7.790919e-001
28963068.000	6.184534e-001	7.790661e-001
28969062.000	6.186140e-001	7.788740e-001
28975056.000	6.187331e-001	7.788394e-001
28981050.000	6.188417e-001	7.786765e-001
28987044.000	6.190069e-001	7.786255e-001
28993038.000	6.190195e-001	7.784712e-001
28999032.000	6.192272e-001	7.783323e-001
29005026.000	6.193792e-001	7.782542e-001
29011020.000	6.194681e-001	7.781704e-001
29017014.000	6.195871e-001	7.780732e-001
29023008.000	6.197603e-001	7.779789e-001
29029002.000	6.198555e-001	7.779011e-001
29034996.000	6.200092e-001	7.777442e-001
29040990.000	6.201981e-001	7.776782e-001
29046984.000	6.203101e-001	7.775690e-001
29052978.000	6.204068e-001	7.774687e-001
29058972.000	6.205167e-001	7.773899e-001
29064966.000	6.206859e-001	7.772764e-001
29070960.000	6.207687e-001	7.771950e-001
29076954.000	6.208797e-001	7.770291e-001
29082948.000	6.209561e-001	7.768992e-001
29088942.000	6.211633e-001	7.768942e-001
29094936.000	6.212891e-001	7.767189e-001
29100930.000	6.214091e-001	7.766574e-001
29106924.000	6.215536e-001	7.765657e-001
29112918.000	6.216668e-001	7.764484e-001
29118912.000	6.218408e-001	7.763711e-001
29124906.000	6.220042e-001	7.762175e-001
29130900.000	6.220931e-001	7.761257e-001
29136894.000	6.222176e-001	7.760282e-001
29142888.000	6.223426e-001	7.759150e-001
29148882.000	6.224435e-001	7.758168e-001
29154876.000	6.226614e-001	7.757415e-001
29160870.000	6.226943e-001	7.756668e-001
29166864.000	6.228923e-001	7.755153e-001
29172858.000	6.230005e-001	7.754375e-001
29178852.000	6.231736e-001	7.753489e-001
29184846.000	6.232567e-001	7.751835e-001
29190840.000	6.233855e-001	7.751325e-001
29196834.000	6.235182e-001	7.749955e-001
29202828.000	6.236632e-001	7.748914e-001
29208822.000	6.237647e-001	7.748274e-001
29214816.000	6.239041e-001	7.747397e-001
29220810.000	6.239725e-001	7.745918e-001
29226804.000	6.241269e-001	7.745025e-001
29232798.000	6.242721e-001	7.744451e-001
29238792.000	6.244262e-001	7.742729e-001
29244786.000	6.245714e-001	7.741942e-001
29250780.000	6.246868e-001	7.740843e-001
29256774.000	6.247342e-001	7.740435e-001
29262768.000	6.249553e-001	7.738656e-001
29268762.000	6.250566e-001	7.738282e-001
29274756.000	6.251793e-001	7.737203e-001
29280750.000	6.253011e-001	7.736242e-001
29286744.000	6.254277e-001	7.734976e-001
29292738.000	6.255867e-001	7.734131e-001
29298732.000	6.256678e-001	7.733430e-001
29304726.000	6.257888e-001	7.732272e-001
29310720.000	6.259274e-001	7.731227e-001
29316714.000	6.260216e-001	7.730288e-001
29322708.000	6.261395e-001	7.728734e-001
29328702.000	6.262744e-001	7.727980e-001
29334696.000	6.263999e-001	7.726629e-001
29340690.000	6.266119e-001	7.726011e-001
29346684.000	6.267474e-001	7.725113e-001
29352678.000	6.268139e-001	7.723290e-001
29358672.000	6.269156e-001	7.722112e-001
29364666.000	6.270927e-001	7.721690e-001
29370660.000	6.271875e-001	7.720775e-001
29376654.000	6.272982e-001	7.719504e-001
29382648.000	6.274152e-001	7.718950e-001
29388642.000	6.275844e-001	7.717345e-001
29394636.000	6.276944e-001	7.717073e-001
29400630.000	6.278210e-001	7.715482e-001
29406624.000	6.279846e-001	7.714660e-001
29412618.000	6.280872e-001	7.713483e-001
29418612.000	6.281879e-001	7.712695e-001
29424606.000	6.283344e-001	7.712559e-001
29430600.000	6.284599e-001	7.711339e-001
29436594.000	6.285854e-001	7.710155e-001
29442588.000	6.287356e-001	7.708839e-001
29448582.000	6.288480e-001	7.707795e-001
29454576.000	6.289830e-001	7.706426e-001
29460570.000	6.291304e-001	7.706005e-001
29466564.000	6.292399e-001	7.703872e-001
29472558.000	6.293217e-001	7.704063e-001
29478552.000	6.295744e-001	7.702310e-001
29484546.000	6.296125e-001	7.701145e-001
29490540.000	6.297510e-001	7.700313e-001
29496534.000	6.298831e-001	7.699611e-001
29502528.000	6.299570e-001	7.698058e-001
29508522.000	6.300321e-001	7.697141e-001
29514516.000	6.301702e-001	7.696144e-001
29520510.000	6.302468e-001	7.695414e-001
29526504.000	6.304209e-001	7.694107e-001
29532498.000	6.305228e-001	7.693377e-001
29538492.000	6.306716e-001	7.692028e-001
29544486.000	6.308149e-001	7.691927e-001
29550480.000	6.309322e-001	7.689963e-001
29556474.000	6.310396e-001	7.688969e-001
29562468.000	6.312454e-001	7.688655e-001
29568462.000	6.313076e-001	7.687767e-001
29574456.000	6.314805e-001	7.685893e-001
29580450.000	6.315378e-001	7.685729e-001
29586444.000	6.317512e-001	7.684329e-001
29592438.000	6.317686e-001	7.683720e-001
29598432.000	6.319921e-001	7.682690e-001
29604426.000	6.320729e-001	7.681562e-001
29610420.000	6.321781e-001	7.680378e-001
29616414.000	6.323428e-001	7.679270e-001
29622408.000	6.324741e-001	7.678375e-001
29628402.000	6.325674e-001	7.677672e-001
29634396.000	6.326962e-001	7.676548e-001
29640390.000	6.328383e-001	7.675122e-001
29646384.000	6.329635e-001	7.674630e-001
29652378.000	6.330898e-001	7.673829e-001
29658372.000	6.331953e-001	7.672732e-001
29664366.000	6.333460e-001	7.671163e-001
29670360.000	6.334570e-001	7.670286e-001
29676354.000	6.335571e-001	7.668742e-001
29682348.000	6.336606e-001	7.667754e-001
29688342.000	6.338308e-001	7.667644e-001
29694336.000	6.339105e-001	7.666303e-001
29700330.000	6.340639e-001	7.665502e-001
29706324.000	6.342159e-001	7.664256e-001
29712318.000	6.343257e-001	7.663672e-001
29718312.000	6.344505e-001	7.662136e-001
29724306.000	6.345161e-001	7.661151e-001
29730300.000	6.346707e-001	7.660248e-001
29736294.000	6.348449e-001	7.659562e-001
29742288.000	6.349366e-001	7.658644e-001
29748282.000	6.350188e-001	7.657127e-001
29754276.000	6.351290e-001	7.656405e-001
29760270.000	6.353206e-001	7.654631e-001
29766264.000	6.354267e-001	7.653743e-001
29772258.000	6.355308e-001	7.653341e-001
29778252.000	6.356765e-001	7.652790e-001
29784246.000	6.357979e-001	7.650811e-001
29790240.000	6.359282e-001	7.650399e-001
29796234.000	6.359890e-001	7.649110e-001
29802228.000	6.361852e-001	7.647818e-001
29808222.000	6.362191e-001	7.647808e-001
29814216.000	6.363226e-001	7.646654e-001
29820210.000	6.364962e-001	7.645152e-001
29826204.000	6.366320e-001	7.645512e-001
29832198.000	6.367210e-001	7.643112e-001
29838192.000	6.368115e-001	7.642880e-001
29844186.000	6.369259e-001	7.641253e-001
29850180.000	6.370338e-001	7.640443e-001
29856174.000	6.372348e-001	7.639582e-001
29862168.000	6.373348e-001	7.638188e-001
29868162.000	6.374530e-001	7.637778e-001
29874156.000	6.375278e-001	7.636290e-001
29880150.000	6.376665e-001	7.635614e-001
29886144.000	6.377566e-001	7.634005e-001
29892138.000	6.379584e-001	7.633268e-001
29898132.000	6.380829e-001	7.632670e-001
29904126.000	6.382264e-001	7.631223e-001
29910120.000	6.383191e-001	7.630291e-001
29916114.000	6.384435e-001	7.629698e-001
29922108.000	6.385862e-001	7.627858e-001
29928102.000	6.387076e-001	7.627301e-001
29934096.000	6.387802e-001	7.626060e-001
29940090.000	6.389363e-001	7.625227e-001
29946084.000	6.390210e-001	7.624353e-001
29952078.000	6.391941e-001	7.623291e-001
29958072.000	6.392754e-001	7.622652e-001
29964066.000	6.394306e-001	7.621279e-001
29970060.000	6.395435e-001	7.620389e-001
29976054.000	6.396437e-001	7.619049e-001
29982048.000	6.397797e-001	7.618016e-001
29988042.000	6.399376e-001	7.617359e-001
29994036.000	6.400291e-001	7.616510e-001
30000030.000	6.401541e-001	7.615530e-001
30006024.000	6.402787e-001	7.614268e-001
30012018.000	6.404247e-001	7.613329e-001
30018012.000	6.405057e-001	7.612007e-001
30024006.000	6.406657e-001	7.611448e-001
30030000.000	6.407762e-001	7.610224e-001
30035994.000	6.408478e-001	7.609182e-001
30041988.000	6.409796e-001	7.608421e-001
30047982.000	6.411878e-001	7.607656e-001
30053976.000	6.412890e-001	7.606503e-001
30059970.000	6.413488e-001	7.605572e-001
30065964.000	6.414882e-001	7.604379e-001
30071958.000	6.415748e-001	7.603531e-001
30077952.000	6.417066e-001	7.602443e-001
30083946.000	6.418395e-001	7.601445e-001
30089940.000	6.420135e-001	7.600381e-001
30095934.000	6.420683e-001	7.599915e-001
30101928.000	6.421773e-001	7.598472e-001
30107922.000	6.422719e-001	7.597796e-001
30113916.000	6.424390e-001	7.596217e-001
30119910.000	6.425067e-001	7.595585e-001
30125904.000	6.426482e-001	7.594689e-001
30131898.000	6.427554e-001	7.593763e-001
30137892.000	6.428855e-001	7.592382e-001
30143886.000	6.430104e-001	7.591977e-001
30149880.000	6.430818e-001	7.590642e-001
30155874.000	6.431967e-001	7.589940e-001
30161868.000	6.432904e-001	7.588454e-001
30167862.000	6.434643e-001	7.587966e-001
30173856.000	6.436329e-001	7.586540e-001
30179850.000	6.437921e-001	7.585307e-001
30185844.000	6.438876e-001	7.584628e-001
30191838.000	6.440481e-001	7.583609e-001
30197832.000	6.441417e-001	7.582448e-001
30203826.000	6.442235e-001	7.581107e-001
30209820.000	6.443205e-001	7.580005e-001
30215814.000	6.444532e-001	7.579691e-001
30221808.000	6.444862e-001	7.579114e-001
30227802.000	6.446880e-001	7.577996e-001
30233796.000	6.448292e-001	7.577045e-001
30239790.000	6.449161e-001	7.576224e-001
30245784.000	6.450614e-001	7.574454e-001
30251778.000	6.451621e-001	7.573778e-001
30257772.000	6.453011e-001	7.572687e-001
30263766.000	6.454075e-001	7.571796e-001
30269760.000	6.455574e-001	7.571010e-001
30275754.000	6.455985e-001	7.570107e-001
30281748.000	6.457658e-001	7.568848e-001
30287742.000	6.459135e-001	7.567439e-001
30293736.000	6.460419e-001	7.566506e-001
30299730.000	6.461413e-001	7.565589e-001
30305724.000	6.462289e-001	7.564159e-001
30311718.000	6.463505e-001	7.563762e-001
30317712.000	6.463938e-001	7.563065e-001
30323706.000	6.466124e-001	7.561299e-001
30329700.000	6.466959e-001	7.560541e-001
30335694.000	6.468236e-001	7.559688e-001
30341688.000	6.469485e-001	7.559015e-001
30347682.000	6.469891e-001	7.558340e-001
30353676.000	6.471610e-001	7.556821e-001
30359670.000	6.472852e-001	7.555723e-001
30365664.000	6.473781e-001	7.554110e-001
30371658.000	6.475120e-001	7.553909e-001
30377652.000	6.476503e-001	7.553489e-001
30383646.000	6.476843e-001	7.552035e-001
30389640.000	6.478254e-001	7.550346e-001
30395634.000	6.479214e-001	7.549585e-001
30401628.000	6.480319e-001	7.548855e-001
30407622.000	6.482087e-001	7.547896e-001
30413616.000	6.482638e-001	7.547080e-001
30419610.000	6.484362e-001	7.545999e-001
30425604.000	6.485811e-001	7.544516e-001
30431598.000	6.486225e-001	7.544197e-001
30437592.000	6.487153e-001	7.542725e-001
30443586.000	6.488816e-001	7.541885e-001
30449580.000	6.489951e-001	7.540882e-001
30455574.000	6.491293e-001	7.539735e-001
30461568.000	6.493050e-001	7.538285e-001
30467562.000	6.493690e-001	7.538214e-001
30473556.000	6.494896e-001	7.536784e-001
30479550.000	6.496193e-001	7.535902e-001
30485544.000	6.496934e-001	7.535467e-001
30491538.000	6.497479e-001	7.533951e-001
30497532.000	6.499334e-001	7.532908e-001
30503526.000	6.500579e-001	7.531690e-001
30509520.000	6.501603e-001	7.530953e-001
30515514.000	6.503247e-001	7.530123e-001
30521508.000	6.504235e-001	7.528527e-001
30527502.000	6.504772e-001	7.528223e-001
30533496.000	6.506600e-001	7.527436e-001
30539490.000	6.507295e-001	7.526378e-001
30545484.000	6.508718e-001	7.525441e-001
30551478.000	6.509823e-001	7.523884e-001
30557472.000	6.510960e-001	7.523557e-001
30563466.000	6.511976e-001	7.522719e-001
30569460.000	6.513071e-001	7.521736e-001
30575454.000	6.514317e-001	7.520146e-001
30581448.000	6.515603e-001	7.519097e-001
30587442.000	6.516873e-001	7.518481e-001
30593436.000	6.518198e-001	7.517205e-001
30599430.000	6.519702e-001	7.516457e-001
30605424.000	6.520704e-001	7.514901e-001
30611418.000	6.521657e-001	7.514700e-001
30617412.000	6.522747e-001	7.513423e-001
30623406.000	6.523457e-001	7.512522e-001
30629400.000	6.525072e-001	7.511433e-001
30635394.000	6.526003e-001	7.510359e-001
30641388.000	6.527257e-001	7.509483e-001
30647382.000	6.528290e-001	7.508326e-001
30653376.000	6.529650e-001	7.507672e-001
30659370.000	6.531046e-001	7.506474e-001
30665364.000	6.531547e-001	7.505951e-001
30671358.000	6.533082e-001	7.504112e-001
30677352.000	6.534231e-001	7.503220e-001
30683346.000	6.535699e-001	7.502552e-001
30689340.000	6.536651e-001	7.501598e-001
30695334.000	6.537654e-001	7.500610e-001
30701328.000	6.539535e-001	7.499359e-001
30707322.000	6.540318e-001	7.498637e-001
30713316.000	6.541238e-001	7.497531e-001
30719310.000	6.542177e-001	7.496256e-001
30725304.000	6.543468e-001	7.495560e-001
30731298.000	6.543886e-001	7.494009e-001
30737292.000	6.545829e-001	7.493544e-001
30743286.000	6.546870e-001	7.492466e-001
30749280.000	6.548078e-001	7.491177e-001
30755274.000	6.548899e-001	7.490440e-001
30761268.000	6.549765e-001	7.489252e-001
30767262.000	6.551386e-001	7.488195e-001
30773256.000	6.552916e-001	7.486940e-001
30779250.000	6.553615e-001	7.486774e-001
30785244.000	6.554373e-001	7.485608e-001
30791238.000	6.556457e-001	7.484295e-001
30797232.000	6.557498e-001	7.484053e-001
30803226.000	6.558169e-001	7.482503e-001
30809220.000	6.559532e-001	7.481837e-001
30815214.000	6.560529e-001	7.480634e-001
30821208.000	6.561591e-001	7.479840e-001
30827202.000	6.562606e-001	7.478799e-001
30833196.000	6.564040e-001	7.477241e-001
30839190.000	6.564563e-001	7.476968e-001
30845184.000	6.565927e-001	7.475491e-001
30851178.000	6.567650e-001	7.474798e-001
30857172.000	6.568881e-001	7.473687e-001
30863166.000	6.570058e-001	7.472607e-001
30869160.000	6.570589e-001	7.471871e-001
30875154.000	6.572332e-001	7.471098e-001
30881148.000	6.572632e-001	7.470163e-001
30887142.000	6.574392e-001	7.469157e-001
30893136.000	6.575465e-001	7.468066e-001
30899130.000	6.576765e-001	7.467235e-001
30905124.000	6.577291e-001	7.466085e-001
30911118.000	6.579332e-001	7.465208e-001
30917112.000	6.580077e-001	7.463959e-001
30923106.000	6.580576e-001	7.463351e-001
30929100.000	6.582504e-001	7.461649e-001
30935094.000	6.583892e-001	7.460798e-001
30941088.000	6.584423e-001	7.460098e-001
30947082.000	6.585552e-001	7.458801e-001
30953076.000	6.587274e-001	7.457849e-001
30959070.000	6.588516e-001	7.457181e-001
30965064.000	6.589289e-001	7.455682e-001
30971058.000	6.590202e-001	7.454628e-001
30977052.000	6.591263e-001	7.453758e-001
30983046.000	6.591797e-001	7.453277e-001
30989040.000	6.592751e-001	7.452237e-001
30995034.000	6.594295e-001	7.451094e-001
31001028.000	6.595577e-001	7.449992e-001
31007022.000	6.596760e-001	7.449697e-001
31013016.000	6.597349e-001	7.448927e-001
31019010.000	6.598871e-001	7.447316e-001
31025004.000	6.599356e-001	7.446740e-001
31030998.000	6.601009e-001	7.445103e-001
31036992.000	6.602452e-001	7.444776e-001
31042986.000	6.603934e-001	7.443246e-001
31048980.000	6.604775e-001	7.442317e-001
31054974.000	6.605509e-001	7.441165e-001
31060968.000	6.606962e-001	7.440136e-001
31066962.000	6.608041e-001	7.439633e-001
31072956.000	6.608715e-001	7.438743e-001
31078950.000	6.610267e-001	7.437396e-001
31084944.000	6.611286e-001	7.436359e-001
31090938.000	6.612247e-001	7.435836e-001
31096932.000	6.613455e-001	7.435123e-001
31102926.000	6.614389e-001	7.434372e-001
31108920.000	6.615494e-001	7.432836e-001
31114914.000	6.616379e-001	7.432135e-001
31120908.000	6.617595e-001	7.431409e-001
31126902.000	6.618771e-001	7.430384e-001
31132896.000	6.619719e-001	7.429453e-001
31138890.000	6.621014e-001	7.428710e-001
31144884.000	6.622215e-001	7.427280e-001
31150878.000	6.623552e-001	7.426259e-001
31156872.000	6.624159e-001	7.425630e-001
31162866.000	6.626207e-001	7.424196e-001
31168860.000	6.626893e-001	7.423130e-001
31174854.000	6.627710e-001	7.422705e-001
31180848.000	6.628480e-001	7.421680e-001
31186842.000	6.629893e-001	7.420492e-001
31192836.000	6.630462e-001	7.419160e-001
31198830.000	6.631142e-001	7.418583e-001
31204824.000	6.633117e-001	7.416870e-001
31210818.000	6.634250e-001	7.416294e-001
31216812.000	6.635347e-001	7.415587e-001
31222806.000	6.636162e-001	7.415092e-001
31228800.000	6.637827e-001	7.413973e-001
31234794.000	6.638199e-001	7.412565e-001
31240788.000	6.640104e-001	7.411679e-001
31246782.000	6.640916e-001	7.410083e-001
31252776.000	6.641349e-001	7.409366e-001
31258770.000	6.643092e-001	7.408483e-001
31264764.000	6.644007e-001	7.407759e-001
31270758.000	6.645068e-001	7.405950e-001
31276752.000	6.646284e-001	7.405361e-001
31282746.000	6.647211e-001	7.404246e-001
31288740.000	6.648126e-001	7.402930e-001
31294734.000	6.649642e-001	7.403185e-001
31300728.000	6.650824e-001	7.402002e-001
31306722.000	6.651685e-001	7.400288e-001
31312716.000	6.653117e-001	7.399748e-001
31318710.000	6.654790e-001	7.399231e-001
31324704.000	6.654728e-001	7.398084e-001
31330698.000	6.656384e-001	7.397002e-001
31336692.000	6.657383e-001	7.395798e-001
31342686.000	6.658768e-001	7.395156e-001
31348680.000	6.659542e-001	7.394280e-001
31354674.000	6.660984e-001	7.393372e-001
31360668.000	6.661380e-001	7.391939e-001
31366662.000	6.662430e-001	7.391003e-001
31372656.000	6.663179e-001	7.389922e-001
31378650.000	6.663674e-001	7.388953e-001
31384644.000	6.666160e-001	7.388138e-001
31390638.000	6.667050e-001	7.387707e-001
31396632.000	6.668214e-001	7.386602e-001
31402626.000	6.668604e-001	7.387684e-001
31408620.000	6.669889e-001	7.384961e-001
31414614.000	6.671211e-001	7.383677e-001
31420608.000	6.672202e-001	7.382584e-001
31426602.000	6.673340e-001	7.381869e-001
31432596.000	6.673975e-001	7.380930e-001
31438590.000	6.675433e-001	7.379912e-001
31444584.000	6.676748e-001	7.378352e-001
31450578.000	6.678022e-001	7.377169e-001
31456572.000	6.678827e-001	7.377543e-001
31462566.000	6.680221e-001	7.375663e-001
31468560.000	6.681701e-001	7.374346e-001
31474554.000	6.682104e-001	7.373791e-001
31480548.000	6.682797e-001	7.372724e-001
31486542.000	6.684602e-001	7.371842e-001
31492536.000	6.685231e-001	7.371227e-001
31498530.000	6.687008e-001	7.369188e-001
31504524.000	6.687378e-001	7.369034e-001
31510518.000	6.689469e-001	7.368095e-001
31516512.000	6.690598e-001	7.367611e-001
31522506.000	6.691135e-001	7.366522e-001
31528500.000	6.691710e-001	7.364889e-001
31534494.000	6.693170e-001	7.364150e-001
31540488.000	6.694234e-001	7.363179e-001
31546482.000	6.695203e-001	7.362114e-001
31552476.000	6.696313e-001	7.361769e-001
31558470.000	6.697656e-001	7.360091e-001
31564464.000	6.698514e-001	7.358809e-001
31570458.000	6.699962e-001	7.358423e-001
31576452.000	6.700759e-001	7.357758e-001
31582446.000	6.702093e-001	7.356663e-001
31588440.000	6.702861e-001	7.355429e-001
31594434.000	6.703962e-001	7.355027e-001
31600428.000	6.705436e-001	7.353697e-001
31606422.000	6.706518e-001	7.351981e-001
31612416.000	6.706972e-001	7.351165e-001
31618410.000	6.708289e-001	7.350782e-001
31624404.000	6.710026e-001	7.350087e-001
31630398.000	6.709767e-001	7.349210e-001
31636392.000	6.711369e-001	7.348011e-001
31642386.000	6.712240e-001	7.346514e-001
31648380.000	6.713403e-001	7.346153e-001
31654374.000	6.714640e-001	7.345029e-001
31660368.000	6.715556e-001	7.343804e-001
31666362.000	6.716379e-001	7.342939e-001
31672356.000	6.718038e-001	7.342138e-001
31678350.000	6.719351e-001	7.341493e-001
31684344.000	6.720598e-001	7.340445e-001
31690338.000	6.721700e-001	7.339412e-001
31696332.000	6.722584e-001	7.338054e-001
31702326.000	6.723374e-001	7.336616e-001
31708320.000	6.724572e-001	7.335832e-001
31714314.000	6.725535e-001	7.334721e-001
31720308.000	6.726374e-001	7.334220e-001
31726302.000	6.728054e-001	7.333604e-001
31732296.000	6.728279e-001	7.332719e-001
31738290.000	6.729343e-001	7.331511e-001
31744284.000	6.730952e-001	7.330873e-001
31750278.000	6.732196e-001	7.329290e-001
31756272.000	6.732580e-001	7.328385e-001
31762266.000	6.734176e-001	7.328164e-001
31768260.000	6.734285e-001	7.326922e-001
31774254.000	6.736401e-001	7.325755e-001
31780248.000	6.736929e-001	7.324918e-001
31786242.000	6.738210e-001	7.323974e-001
31792236.000	6.739085e-001	7.322820e-001
31798230.000	6.739961e-001	7.322442e-001
31804224.000	6.741476e-001	7.321409e-001
31810218.000	6.742499e-001	7.320035e-001
31816212.000	6.743432e-001	7.319452e-001
31822206.000	6.744645e-001	7.318210e-001
31828200.000	6.744928e-001	7.317104e-001
31834194.000	6.746583e-001	7.316231e-001
31840188.000	6.747252e-001	7.315176e-001
31846182.000	6.748720e-001	7.314378e-001
31852176.000	6.749955e-001	7.313771e-001
31858170.000	6.750931e-001	7.312547e-001
31864164.000	6.752373e-001	7.310959e-001
31870158.000	6.753415e-001	7.310221e-001
31876152.000	6.753406e-001	7.309797e-001
31882146.000	6.755053e-001	7.308550e-001
31888140.000	6.756355e-001	7.308010e-001
31894134.000	6.757599e-001	7.306782e-001
31900128.000	6.758675e-001	7.306097e-001
31906122.000	6.759804e-001	7.304957e-001
31912116.000	6.760791e-001	7.304146e-001
31918110.000	6.761632e-001	7.302845e-001
31924104.000	6.762239e-001	7.302046e-001
31930098.000	6.763343e-001	7.301354e-001
31936092.000	6.764749e-001	7.300219e-001
31942086.000	6.765755e-001	7.298956e-001
31948080.000	6.767449e-001	7.298090e-001
31954074.000	6.768312e-001	7.297177e-001
31960068.000	6.768811e-001	7.296303e-001
31966062.000	6.770387e-001	7.295583e-001
31972056.000	6.770546e-001	7.294057e-001
31978050.000	6.771796e-001	7.293054e-001
31984044.000	6.772605e-001	7.292536e-001
31990038.000	6.774098e-001	7.291606e-001
31996032.000	6.774419e-001	7.290560e-001
32002026.000	6.775931e-001	7.289244e-001
32008020.000	6.776702e-001	7.288754e-001
32014014.000	6.777548e-001	7.287759e-001
32020008.000	6.778641e-001	7.286449e-001
32026002.000	6.780113e-001	7.285803e-001
32031996.000	6.780580e-001	7.284270e-001
32037990.000	6.782075e-001	7.284037e-001
32043984.000	6.782927e-001	7.283090e-001
32049978.000	6.783865e-001	7.282067e-001
32055972.000	6.785170e-001	7.280743e-001
32061966.000	6.787085e-001	7.280567e-001
32067960.000	6.787412e-001	7.278690e-001
32073954.000	6.788314e-001	7.277778e-001
32079948.000	6.789697e-001	7.277212e-001
32085942.000	6.790676e-001	7.276073e-001
32091936.000	6.791168e-001	7.274984e-001
32097930.000	6.792588e-001	7.274395e-001
32103924.000	6.793304e-001	7.273092e-001
32109918.000	6.793743e-001	7.272271e-001
32115912.000	6.795403e-001	7.271725e-001
32121906.000	6.796659e-001	7.270433e-001
32127900.000	6.797384e-001	7.269472e-001
32133894.000	6.798877e-001	7.268844e-001
32139888.000	6.798982e-001	7.267957e-001
32145882.000	6.800680e-001	7.266883e-001
32151876.000	6.800963e-001	7.266059e-001
32157870.000	6.801962e-001	7.264379e-001
32163864.000	6.803259e-001	7.263407e-001
32169858.000	6.803993e-001	7.262797e-001
32175852.000	6.805551e-001	7.261749e-001
32181846.000	6.806372e-001	7.260864e-001
32187840.000	6.808168e-001	7.259944e-001
32193834.000	6.808734e-001	7.258598e-001
32199828.000	6.809843e-001	7.258002e-001
32205822.000	6.811056e-001	7.257204e-001
32211816.000	6.812020e-001	7.255904e-001
32217810.000	6.813219e-001	7.254463e-001
32223804.000	6.813849e-001	7.254396e-001
32229798.000	6.814976e-001	7.253396e-001
32235792.000	6.816233e-001	7.251750e-001
32241786.000	6.817193e-001	7.251264e-001
32247780.000	6.818265e-001	7.250585e-001
32253774.000	6.819011e-001	7.249971e-001
32259768.000	6.819976e-001	7.248942e-001
32265762.000	6.821217e-001	7.247988e-001
32271756.000	6.822400e-001	7.246644e-001
32277750.000	6.823749e-001	7.245822e-001
32283744.000	6.824163e-001	7.244955e-001
32289738.000	6.825594e-001	7.243850e-001
32295732.000	6.826297e-001	7.242841e-001
32301726.000	6.826888e-001	7.241833e-001
32307720.000	6.828094e-001	7.240929e-001
32313714.000	6.829703e-001	7.240039e-001
32319708.000	6.829670e-001	7.239026e-001
32325702.000	6.831038e-001	7.238014e-001
32331696.000	6.832499e-001	7.236551e-001
32337690.000	6.833305e-001	7.235650e-001
32343684.000	6.834528e-001	7.234814e-001
32349678.000	6.835297e-001	7.233939e-001
32355672.000	6.836631e-001	7.233202e-001
32361666.000	6.837381e-001	7.232663e-001
32367660.000	6.838548e-001	7.230882e-001
32373654.000	6.840237e-001	7.230176e-001
32379648.000	6.840899e-001	7.229729e-001
32385642.000	6.841401e-001	7.228265e-001
32391636.000	6.842325e-001	7.227673e-001
32397630.000	6.844204e-001	7.226450e-001
32403624.000	6.844806e-001	7.225651e-001
32409618.000	6.846053e-001	7.224325e-001
32415612.000	6.846825e-001	7.223853e-001
32421606.000	6.848186e-001	7.222830e-001
32427600.000	6.849266e-001	7.221599e-001
32433594.000	6.849864e-001	7.220730e-001
32439588.000	6.850256e-001	7.219886e-001
32445582.000	6.851428e-001	7.219066e-001
32451576.000	6.852797e-001	7.218126e-001
32457570.000	6.853819e-001	7.216767e-001
32463564.000	6.854955e-001	7.216242e-001
32469558.000	6.856048e-001	7.215162e-001
32475552.000	6.856707e-001	7.213979e-001
32481546.000	6.857727e-001	7.213190e-001
32487540.000	6.858425e-001	7.211455e-001
32493534.000	6.859449e-001	7.211267e-001
32499528.000	6.860674e-001	7.210105e-001
32505522.000	6.861851e-001	7.209406e-001
32511516.000	6.862775e-001	7.208663e-001
32517510.000	6.863799e-001	7.208025e-001
32523504.000	6.864830e-001	7.207126e-001
32529498.000	6.865990e-001	7.205725e-001
32535492.000	6.866651e-001	7.204812e-001
32541486.000	6.867604e-001	7.204153e-001
32547480.000	6.868789e-001	7.202778e-001
32553474.000	6.869443e-001	7.201575e-001
32559468.000	6.871369e-001	7.201047e-001
32565462.000	6.871697e-001	7.199814e-001
32571456.000	6.872859e-001	7.198976e-001
32577450.000	6.874014e-001	7.198432e-001
32583444.000	6.874850e-001	7.196932e-001
32589438.000	6.875353e-001	7.196457e-001
32595432.000	6.877376e-001	7.195201e-001
32601426.000	6.877583e-001	7.194618e-001
32607420.000	6.879210e-001	7.193328e-001
32613414.000	6.879290e-001	7.192613e-001
32619408.000	6.881077e-001	7.191409e-001
32625402.000	6.882614e-001	7.190810e-001
32631396.000	6.882608e-001	7.190036e-001
32637390.000	6.884141e-001	7.188875e-001
32643384.000	6.885038e-001	7.187924e-001
32649378.000	6.885819e-001	7.187041e-001
32655372.000	6.886713e-001	7.186165e-001
32661366.000	6.887469e-001	7.184601e-001
32667360.000	6.887944e-001	7.184705e-001
32673354.000	6.889344e-001	7.183191e-001
32679348.000	6.890308e-001	7.182776e-001
32685342.000	6.890906e-001	7.181714e-001
32691336.000	6.892211e-001	7.180722e-001
32697330.000	6.893092e-001	7.179676e-001
32703324.000	6.894043e-001	7.178656e-001
32709318.000	6.895131e-001	7.177590e-001
32715312.000	6.896220e-001	7.176962e-001
32721306.000	6.896644e-001	7.175296e-001
32727300.000	6.898611e-001	7.174670e-001
32733294.000	6.899388e-001	7.174177e-001
32739288.000	6.900542e-001	7.172618e-001
32745282.000	6.900947e-001	7.171708e-001
32751276.000	6.902327e-001	7.170766e-001
32757270.000	6.903065e-001	7.170211e-001
32763264.000	6.904424e-001	7.168995e-001
32769258.000	6.905377e-001	7.168260e-001
32775252.000	6.905980e-001	7.167531e-001
32781246.000	6.907323e-001	7.166940e-001
32787240.000	6.908416e-001	7.165680e-001
32793234.000	6.908837e-001	7.165342e-001
32799228.000	6.910572e-001	7.163547e-001
32805222.000	6.911701e-001	7.162445e-001
32811216.000	6.912444e-001	7.162282e-001
32817210.000	6.912505e-001	7.160540e-001
32823204.000	6.913871e-001	7.159802e-001
32829198.000	6.915224e-001	7.158926e-001
32835192.000	6.916152e-001	7.157816e-001
32841186.000	6.916802e-001	7.157011e-001
32847180.000	6.917850e-001	7.156019e-001
32853174.000	6.918779e-001	7.155101e-001
32859168.000	6.919958e-001	7.154061e-001
32865162.000	6.920552e-001	7.153504e-001
32871156.000	6.921020e-001	7.152522e-001
32877150.000	6.923055e-001	7.151434e-001
32883144.000	6.923291e-001	7.151080e-001
32889138.000	6.924806e-001	7.149490e-001
32895132.000	6.925524e-001	7.148681e-001
32901126.000	6.926550e-001	7.147673e-001
32907120.000	6.926900e-001	7.147384e-001
32913114.000	6.928547e-001	7.146553e-001
32919108.000	6.929646e-001	7.145350e-001
32925102.000	6.930465e-001	7.144275e-001
32931096.000	6.931432e-001	7.143031e-001
32937090.000	6.932732e-001	7.142153e-001
32943084.000	6.933625e-001	7.141830e-001
32949078.000	6.934754e-001	7.140930e-001
32955072.000	6.935264e-001	7.139539e-001
32961066.000	6.936195e-001	7.138449e-001
32967060.000	6.937259e-001	7.137348e-001
32973054.000	6.938110e-001	7.136434e-001
32979048.000	6.939020e-001	7.135596e-001
32985042.000	6.940145e-001	7.134684e-001
32991036.000	6.941240e-001	7.133400e-001
32997030.000	6.941720e-001	7.132750e-001
33003024.000	6.943647e-001	7.132013e-001
33009018.000	6.944203e-001	7.131017e-001
33015012.000	6.945671e-001	7.129758e-001
33021006.000	6.946520e-001	7.129082e-001
33027000.000	6.946966e-001	7.128041e-001
33032994.000	6.948031e-001	7.127421e-001
33038988.000	6.949044e-001	7.125898e-001
33044982.000	6.949898e-001	7.125024e-001
33050976.000	6.950727e-001	7.124692e-001
33056970.000	6.951394e-001	7.123434e-001
33062964.000	6.952462e-001	7.122527e-001
33068958.000	6.954201e-001	7.121982e-001
33074952.000	6.954779e-001	7.121226e-001
33080946.000	6.955382e-001	7.119948e-001
33086940.000	6.956422e-001	7.118693e-001
33092934.000	6.957304e-001	7.117914e-001
33098928.000	6.958232e-001	7.116786e-001
33104922.000	6.959288e-001	7.116099e-001
33110916.000	6.960925e-001	7.115087e-001
33116910.000	6.961487e-001	7.114218e-001
33122904.000	6.962360e-001	7.113312e-001
33128898.000	6.963795e-001	7.112264e-001
33134892.000	6.964980e-001	7.111378e-001
33140886.000	6.965284e-001	7.110979e-001
33146880.000	6.966319e-001	7.109256e-001
33152874.000	6.967219e-001	7.108629e-001
33158868.000	6.968153e-001	7.107653e-001
33164862.000	6.969261e-001	7.106810e-001
33170856.000	6.969678e-001	7.105859e-001
33176850.000	6.970785e-001	7.105103e-001
33182844.000	6.972109e-001	7.103671e-001
33188838.000	6.972714e-001	7.102820e-001
33194832.000	6.973820e-001	7.102282e-001
33200826.000	6.974826e-001	7.101297e-001
33206820.000	6.975601e-001	7.099983e-001
33212814.000	6.976731e-001	7.099211e-001
33218808.000	6.977903e-001	7.097717e-001
33224802.000	6.978902e-001	7.096979e-001
33230796.000	6.979592e-001	7.096418e-001
33236790.000	6.979992e-001	7.096022e-001
33242784.000	6.981335e-001	7.094320e-001
33248778.000	6.982009e-001	7.093721e-001
33254772.000	6.983398e-001	7.093155e-001
33260766.000	6.983604e-001	7.091986e-001
33266760.000	6.984978e-001	7.091087e-001
33272754.000	6.985726e-001	7.090166e-001
33278748.000	6.987016e-001	7.089169e-001
33284742.000	6.988120e-001	7.088057e-001
33290736.000	6.988623e-001	7.086926e-001
33296730.000	6.990156e-001	7.085756e-001
33302724.000	6.990934e-001	7.085262e-001
33308718.000	6.991618e-001	7.083915e-001
33314712.000	6.992329e-001	7.083545e-001
33320706.000	6.993554e-001	7.082772e-001
33326700.000	6.994334e-001	7.081363e-001
33332694.000	6.995630e-001	7.080838e-001
33338688.000	6.997217e-001	7.079742e-001
33344682.000	6.997640e-001	7.079473e-001
33350676.000	6.998422e-001	7.077622e-001
33356670.000	6.999883e-001	7.077266e-001
33362664.000	7.000585e-001	7.075830e-001
33368658.000	7.001284e-001	7.075063e-001
33374652.000	7.002305e-001	7.074529e-001
33380646.000	7.002945e-001	7.073104e-001
33386640.000	7.003609e-001	7.071821e-001
33392634.000	7.004465e-001	7.071746e-001
33398628.000	7.006902e-001	7.070505e-001
33404622.000	7.007457e-001	7.070075e-001
33410616.000	7.008220e-001	7.068223e-001
33416610.000	7.008515e-001	7.067912e-001
33422604.000	7.010086e-001	7.066929e-001
33428598.000	7.011507e-001	7.065848e-001
33434592.000	7.012061e-001	7.064692e-001
33440586.000	7.012916e-001	7.063515e-001
33446580.000	7.014201e-001	7.062262e-001
33452574.000	7.015096e-001	7.061812e-001
33458568.000	7.015774e-001	7.061738e-001
33464562.000	7.016722e-001	7.060762e-001
33470556.000	7.018054e-001	7.059348e-001
33476550.000	7.018582e-001	7.058608e-001
33482544.000	7.019598e-001	7.057679e-001
33488538.000	7.021259e-001	7.056880e-001
33494532.000	7.021011e-001	7.055917e-001
33500526.000	7.021739e-001	7.054958e-001
33506520.000	7.023380e-001	7.053660e-001
33512514.000	7.024008e-001	7.053205e-001
33518508.000	7.024878e-001	7.052543e-001
33524502.000	7.025417e-001	7.051251e-001
33530496.000	7.027048e-001	7.050675e-001
33536490.000	7.027502e-001	7.049414e-001
33542484.000	7.028267e-001	7.048607e-001
33548478.000	7.029107e-001	7.047290e-001
33554472.000	7.030266e-001	7.046530e-001
33560466.000	7.031808e-001	7.046707e-001
33566460.000	7.032632e-001	7.044796e-001
33572454.000	7.033119e-001	7.043918e-001
33578448.000	7.034510e-001	7.042728e-001
33584442.000	7.035687e-001	7.042801e-001
33590436.000	7.036618e-001	7.041708e-001
33596430.000	7.037657e-001	7.040663e-001
33602424.000	7.038287e-001	7.039559e-001
33608418.000	7.038885e-001	7.039162e-001
33614412.000	7.039962e-001	7.037438e-001
33620406.000	7.040714e-001	7.036307e-001
33626400.000	7.041438e-001	7.035706e-001
33632394.000	7.042067e-001	7.034691e-001
33638388.000	7.043334e-001	7.033694e-001
33644382.000	7.044345e-001	7.033190e-001
33650376.000	7.045080e-001	7.031423e-001
33656370.000	7.045525e-001	7.031559e-001
33662364.000	7.046702e-001	7.030341e-001
33668358.000	7.047715e-001	7.029401e-001
33674352.000	7.048810e-001	7.028926e-001
33680346.000	7.049970e-001	7.027738e-001
33686340.000	7.050600e-001	7.026676e-001
33692334.000	7.051825e-001	7.025862e-001
33698328.000	7.052322e-001	7.025469e-001
33704322.000	7.053298e-001	7.023932e-001
33710316.000	7.054090e-001	7.023413e-001
33716310.000	7.055834e-001	7.022130e-001
33722304.000	7.056164e-001	7.021974e-001
33728298.000	7.056924e-001	7.020551e-001
33734292.000	7.057518e-001	7.019482e-001
33740286.000	7.058937e-001	7.018651e-001
33746280.000	7.060405e-001	7.017784e-001
33752274.000	7.060815e-001	7.017077e-001
33758268.000	7.062142e-001	7.015985e-001
33764262.000	7.062896e-001	7.014854e-001
33770256.000	7.063438e-001	7.014258e-001
33776250.000	7.065151e-001	7.012761e-001
33782244.000	7.065627e-001	7.011792e-001
33788238.000	7.066451e-001	7.010986e-001
33794232.000	7.067444e-001	7.010458e-001
33800226.000	7.068212e-001	7.009403e-001
33806220.000	7.069221e-001	7.008829e-001
33812214.000	7.070317e-001	7.007774e-001
33818208.000	7.071436e-001	7.006562e-001
33824202.000	7.071670e-001	7.005433e-001
33830196.000	7.072906e-001	7.004506e-001
33836190.000	7.073276e-001	7.004005e-001
33842184.000	7.074219e-001	7.003022e-001
33848178.000	7.075495e-001	7.002582e-001
33854172.000	7.076716e-001	7.001643e-001
33860166.000	7.077342e-001	7.000121e-001
33866160.000	7.078111e-001	6.999552e-001
33872154.000	7.078903e-001	6.998309e-001
33878148.000	7.080031e-001	6.997674e-001
33884142.000	7.080596e-001	6.996412e-001
33890136.000	7.081609e-001	6.995970e-001
33896130.000	7.083365e-001	6.994494e-001
33902124.000	7.083315e-001	6.995907e-001
33908118.000	7.084581e-001	6.993257e-001
33914112.000	7.086459e-001	6.992190e-001
33920106.000	7.087027e-001	6.991134e-001
33926100.000	7.087807e-001	6.989945e-001
33932094.000	7.088520e-001	6.988817e-001
33938088.000	7.089439e-001	6.987247e-001
33944082.000	7.090369e-001	6.987655e-001
33950076.000	7.090833e-001	6.986461e-001
33956070.000	7.092477e-001	6.985737e-001
33962064.000	7.093004e-001	6.984496e-001
33968058.000	7.093800e-001	6.983635e-001
33974052.000	7.094989e-001	6.982377e-001
33980046.000	7.096297e-001	6.981611e-001
33986040.000	7.096219e-001	6.981282e-001
33992034.000	7.097646e-001	6.979988e-001
33998028.000	7.098395e-001	6.978647e-001
34004022.000	7.099336e-001	6.978462e-001
34010016.000	7.099875e-001	6.977268e-001
34016010.000	7.100997e-001	6.975745e-001
34022004.000	7.102029e-001	6.975626e-001
34027998.000	7.103056e-001	6.974236e-001
34033992.000	7.103132e-001	6.973891e-001
34039986.000	7.104617e-001	6.973319e-001
34045980.000	7.105758e-001	6.972628e-001
34051974.000	7.106638e-001	6.971432e-001
34057968.000	7.107413e-001	6.970374e-001
34063962.000	7.108285e-001	6.969295e-001
34069956.000	7.109325e-001	6.968693e-001
34075950.000	7.110127e-001	6.967757e-001
34081944.000	7.111164e-001	6.966723e-001
34087938.000	7.111832e-001	6.965974e-001
34093932.000	7.113392e-001	6.964813e-001
34099926.000	7.113653e-001	6.964221e-001
34105920.000	7.114294e-001	6.962865e-001
34111914.000	7.114812e-001	6.961696e-001
34117908.000	7.115943e-001	6.961221e-001
34123902.000	7.116828e-001	6.960439e-001
34129896.000	7.118075e-001	6.959099e-001
34135890.000	7.118748e-001	6.958930e-001
34141884.000	7.120003e-001	6.957736e-001
34147878.000	7.120761e-001	6.956923e-001
34153872.000	7.121884e-001	6.955708e-001
34159866.000	7.122289e-001	6.955307e-001
34165860.000	7.124165e-001	6.953585e-001
34171854.000	7.124251e-001	6.952758e-001
34177848.000	7.125141e-001	6.952383e-001
34183842.000	7.126143e-001	6.951626e-001
34189836.000	7.126908e-001	6.950665e-001
34195830.000	7.128048e-001	6.949856e-001
34201824.000	7.129047e-001	6.948733e-001
34207818.000	7.129797e-001	6.947217e-001
34213812.000	7.130353e-001	6.946785e-001
34219806.000	7.131459e-001	6.946466e-001
34225800.000	7.132450e-001	6.944523e-001
34231794.000	7.133171e-001	6.943845e-001
34237788.000	7.133846e-001	6.942958e-001
34243782.000	7.134763e-001	6.942117e-001
34249776.000	7.135197e-001	6.941259e-001
34255770.000	7.136638e-001	6.940780e-001
34261764.000	7.137597e-001	6.939926e-001
34267758.000	7.137836e-001	6.938944e-001
34273752.000	7.139539e-001	6.938636e-001
34279746.000	7.139883e-001	6.937279e-001
34285740.000	7.140987e-001	6.936263e-001
34291734.000	7.141679e-001	6.935261e-001
34297728.000	7.142326e-001	6.933868e-001
34303722.000	7.142979e-001	6.933506e-001
34309716.000	7.144259e-001	6.932597e-001
34315710.000	7.145204e-001	6.931929e-001
34321704.000	7.146082e-001	6.930945e-001
34327698.000	7.147399e-001	6.929771e-001
34333692.000	7.147828e-001	6.928937e-001
34339686.000	7.149068e-001	6.928149e-001
34345680.000	7.149957e-001	6.927078e-001
34351674.000	7.150870e-001	6.925972e-001
34357668.000	7.151506e-001	6.925109e-001
34363662.000	7.152519e-001	6.924381e-001
34369656.000	7.152954e-001	6.923466e-001
34375650.000	7.154347e-001	6.923021e-001
34381644.000	7.155253e-001	6.921596e-001
34387638.000	7.156035e-001	6.920974e-001
34393632.000	7.156808e-001	6.920374e-001
34399626.000	7.157487e-001	6.919149e-001
34405620.000	7.158681e-001	6.917739e-001
34411614.000	7.159015e-001	6.917029e-001
34417608.000	7.159887e-001	6.915992e-001
34423602.000	7.160835e-001	6.914744e-001
34429596.000	7.162641e-001	6.914555e-001
34435590.000	7.162658e-001	6.913697e-001
34441584.000	7.163716e-001	6.912891e-001
34447578.000	7.164136e-001	6.911918e-001
34453572.000	7.165384e-001	6.910698e-001
34459566.000	7.166771e-001	6.910620e-001
34465560.000	7.167123e-001	6.909133e-001
34471554.000	7.168191e-001	6.908068e-001
34477548.000	7.168873e-001	6.907059e-001
34483542.000	7.169905e-001	6.906232e-001
34489536.000	7.170818e-001	6.904981e-001
34495530.000	7.171872e-001	6.904198e-001
34501524.000	7.172026e-001	6.903825e-001
34507518.000	7.173572e-001	6.902659e-001
34513512.000	7.174567e-001	6.901778e-001
34519506.000	7.175076e-001	6.900555e-001
34525500.000	7.175834e-001	6.900570e-001
34531494.000	7.177257e-001	6.899396e-001
34537488.000	7.178108e-001	6.898171e-001
34543482.000	7.178589e-001	6.897847e-001
34549476.000	7.178681e-001	6.896026e-001
34555470.000	7.180225e-001	6.895895e-001
34561464.000	7.181445e-001	6.894419e-001
34567458.000	7.182048e-001	6.893838e-001
34573452.000	7.182941e-001	6.892939e-001
34579446.000	7.183323e-001	6.891710e-001
34585440.000	7.184144e-001	6.890883e-001
34591434.000	7.185047e-001	6.890204e-001
34597428.000	7.186549e-001	6.889720e-001
34603422.000	7.187047e-001	6.888228e-001
34609416.000	7.187478e-001	6.887871e-001
34615410.000	7.188577e-001	6.886688e-001
34621404.000	7.189858e-001	6.886048e-001
34627398.000	7.190519e-001	6.884953e-001
34633392.000	7.190672e-001	6.883795e-001
34639386.000	7.191821e-001	6.883191e-001
34645380.000	7.193687e-001	6.882767e-001
34651374.000	7.193913e-001	6.881716e-001
34657368.000	7.194179e-001	6.880387e-001
34663362.000	7.195711e-001	6.879660e-001
34669356.000	7.196998e-001	6.878292e-001
34675350.000	7.197016e-001	6.877131e-001
34681344.000	7.199099e-001	6.876525e-001
34687338.000	7.199639e-001	6.875948e-001
34693332.000	7.201112e-001	6.874635e-001
34699326.000	7.201372e-001	6.874557e-001
34705320.000	7.202247e-001	6.873463e-001
34711314.000	7.202457e-001	6.872612e-001
34717308.000	7.203206e-001	6.871778e-001
34723302.000	7.204327e-001	6.870170e-001
34729296.000	7.205532e-001	6.869555e-001
34735290.000	7.205905e-001	6.868914e-001
34741284.000	7.206690e-001	6.867349e-001
34747278.000	7.208165e-001	6.867189e-001
34753272.000	7.209305e-001	6.866477e-001
34759266.000	7.209530e-001	6.865856e-001
34765260.000	7.210936e-001	6.864419e-001
34771254.000	7.211943e-001	6.863641e-001
34777248.000	7.212661e-001	6.862413e-001
34783242.000	7.213169e-001	6.861677e-001
34789236.000	7.213838e-001	6.861071e-001
34795230.000	7.215293e-001	6.859646e-001
34801224.000	7.215808e-001	6.859501e-001
34807218.000	7.216797e-001	6.858057e-001
34813212.000	7.216763e-001	6.856907e-001
34819206.000	7.218422e-001	6.856056e-001
34825200.000	7.218960e-001	6.855498e-001
34831194.000	7.219927e-001	6.854901e-001
34837188.000	7.220591e-001	6.853934e-001
34843182.000	7.222120e-001	6.852840e-001
34849176.000	7.222122e-001	6.852670e-001
34855170.000	7.222958e-001	6.851043e-001
34861164.000	7.223928e-001	6.850387e-001
34867158.000	7.225344e-001	6.849353e-001
34873152.000	7.225769e-001	6.848855e-001
34879146.000	7.226540e-001	6.847309e-001
34885140.000	7.226925e-001	6.846648e-001
34891134.000	7.228188e-001	6.845682e-001
34897128.000	7.228848e-001	6.844471e-001
34903122.000	7.229654e-001	6.843874e-001
34909116.000	7.230672e-001	6.843346e-001
34915110.000	7.231672e-001	6.841733e-001
34921104.000	7.232409e-001	6.841149e-001
34927098.000	7.233287e-001	6.840743e-001
34933092.000	7.233972e-001	6.839476e-001
34939086.000	7.235225e-001	6.838786e-001
34945080.000	7.235978e-001	6.837623e-001
34951074.000	7.236927e-001	6.836626e-001
34957068.000	7.237562e-001	6.836130e-001
34963062.000	7.238732e-001	6.835008e-001
34969056.000	7.240162e-001	6.834626e-001
34975050.000	7.240208e-001	6.833289e-001
34981044.000	7.241218e-001	6.832840e-001
34987038.000	7.241775e-001	6.831812e-001
34993032.000	7.242696e-001	6.830724e-001
34999026.000	7.243485e-001	6.829487e-001
35005020.000	7.244572e-001	6.828866e-001
35011014.000	7.244538e-001	6.827423e-001
35017008.000	7.245559e-001	6.827299e-001
35023002.000	7.246789e-001	6.825939e-001
35028996.000	7.247562e-001	6.825328e-001
35034990.000	7.247460e-001	6.823873e-001
35040984.000	7.248805e-001	6.823922e-001
35046978.000	7.250161e-001	6.822361e-001
35052972.000	7.250405e-001	6.822220e-001
35058966.000	7.252058e-001	6.821751e-001
35064960.000	7.252872e-001	6.821018e-001
35070954.000	7.253063e-001	6.819897e-001
35076948.000	7.254153e-001	6.818588e-001
35082942.000	7.254617e-001	6.817413e-001
35088936.000	7.255571e-001	6.816893e-001
35094930.000	7.256391e-001	6.815819e-001
35100924.000	7.257821e-001	6.814997e-001
35106918.000	7.257994e-001	6.814000e-001
35112912.000	7.259396e-001	6.812905e-001
35118906.000	7.259934e-001	6.812945e-001
35124900.000	7.260717e-001	6.811368e-001
35130894.000	7.261598e-001	6.810450e-001
35136888.000	7.262324e-001	6.809279e-001
35142882.000	7.263300e-001	6.808291e-001
35148876.000	7.264238e-001	6.807304e-001
35154870.000	7.264571e-001	6.806859e-001
35160864.000	7.265546e-001	6.805906e-001
35166858.000	7.266533e-001	6.805657e-001
35172852.000	7.267526e-001	6.804502e-001
35178846.000	7.269091e-001	6.803736e-001
35184840.000	7.269197e-001	6.802895e-001
35190834.000	7.270339e-001	6.802168e-001
35196828.000	7.270772e-001	6.801222e-001
35202822.000	7.272169e-001	6.800285e-001
35208816.000	7.272848e-001	6.799244e-001
35214810.000	7.273325e-001	6.798206e-001
35220804.000	7.274668e-001	6.797177e-001
35226798.000	7.274358e-001	6.796354e-001
35232792.000	7.276163e-001	6.796060e-001
35238786.000	7.276912e-001	6.795240e-001
35244780.000	7.277802e-001	6.793847e-001
35250774.000	7.278375e-001	6.793553e-001
35256768.000	7.279723e-001	6.792097e-001
35262762.000	7.280382e-001	6.790946e-001
35268756.000	7.280817e-001	6.790357e-001
35274750.000	7.281614e-001	6.789113e-001
35280744.000	7.282622e-001	6.789077e-001
35286738.000	7.283298e-001	6.787576e-001
35292732.000	7.284834e-001	6.786722e-001
35298726.000	7.284964e-001	6.786049e-001
35304720.000	7.285950e-001	6.784784e-001
35310714.000	7.286645e-001	6.783523e-001
35316708.000	7.287748e-001	6.783188e-001
35322702.000	7.288116e-001	6.782296e-001
35328696.000	7.289242e-001	6.781122e-001
35334690.000	7.290258e-001	6.780279e-001
35340684.000	7.291112e-001	6.780099e-001
35346678.000	7.291183e-001	6.779034e-001
35352672.000	7.292419e-001	6.777355e-001
35358666.000	7.292780e-001	6.777353e-001
35364660.000	7.294134e-001	6.776267e-001
35370654.000	7.294542e-001	6.774863e-001
35376648.000	7.296031e-001	6.774526e-001
35382642.000	7.296395e-001	6.773076e-001
35388636.000	7.297303e-001	6.771867e-001
35394630.000	7.298067e-001	6.772021e-001
35400624.000	7.298667e-001	6.770783e-001
35406618.000	7.298963e-001	6.769424e-001
35412612.000	7.300146e-001	6.769297e-001
35418606.000	7.300956e-001	6.767769e-001
35424600.000	7.301692e-001	6.767178e-001
35430594.000	7.302088e-001	6.766262e-001
35436588.000	7.303539e-001	6.765357e-001
35442582.000	7.304364e-001	6.764761e-001
35448576.000	7.304840e-001	6.764154e-001
35454570.000	7.306683e-001	6.762415e-001
35460564.000	7.307450e-001	6.761929e-001
35466558.000	7.307767e-001	6.760867e-001
35472552.000	7.308440e-001	6.760155e-001
35478546.000	7.309076e-001	6.759437e-001
35484540.000	7.310070e-001	6.758602e-001
35490534.000	7.311078e-001	6.757158e-001
35496528.000	7.311774e-001	6.756443e-001
35502522.000	7.312807e-001	6.756347e-001
35508516.000	7.313182e-001	6.755576e-001
35514510.000	7.313882e-001	6.754256e-001
35520504.000	7.314715e-001	6.753296e-001
35526498.000	7.315791e-001	6.752956e-001
35532492.000	7.316390e-001	6.752189e-001
35538486.000	7.317334e-001	6.750911e-001
35544480.000	7.318319e-001	6.750290e-001
35550474.000	7.318914e-001	6.749267e-001
35556468.000	7.319539e-001	6.748507e-001
35562462.000	7.320562e-001	6.747276e-001
35568456.000	7.321378e-001	6.745756e-001
35574450.000	7.321903e-001	6.745078e-001
35580444.000	7.322862e-001	6.744227e-001
35586438.000	7.323671e-001	6.744027e-001
35592432.000	7.324897e-001	6.742714e-001
35598426.000	7.325396e-001	6.742567e-001
35604420.000	7.326305e-001	6.741959e-001
35610414.000	7.326886e-001	6.740496e-001
35616408.000	7.327674e-001	6.739934e-001
35622402.000	7.328746e-001	6.738842e-001
35628396.000	7.329238e-001	6.738151e-001
35634390.000	7.330196e-001	6.736656e-001
35640384.000	7.331027e-001	6.735980e-001
35646378.000	7.331623e-001	6.735453e-001
35652372.000	7.332810e-001	6.734627e-001
35658366.000	7.334013e-001	6.733694e-001
35664360.000	7.334053e-001	6.732962e-001
35670354.000	7.334954e-001	6.731812e-001
35676348.000	7.336404e-001	6.731009e-001
35682342.000	7.336681e-001	6.729817e-001
35688336.000	7.337629e-001	6.729279e-001
35694330.000	7.338724e-001	6.728459e-001
35700324.000	7.339364e-001	6.727872e-001
35706318.000	7.340249e-001	6.726713e-001
35712312.000	7.341236e-001	6.725432e-001
35718306.000	7.342003e-001	6.724872e-001
35724300.000	7.342185e-001	6.724089e-001
35730294.000	7.343031e-001	6.723198e-001
35736288.000	7.344065e-001	6.722849e-001
35742282.000	7.344970e-001	6.721498e-001
35748276.000	7.345022e-001	6.720377e-001
35754270.000	7.346305e-001	6.720115e-001
35760264.000	7.347203e-001	6.718841e-001
35766258.000	7.348082e-001	6.718222e-001
35772252.000	7.347880e-001	6.717883e-001
35778246.000	7.349793e-001	6.716658e-001
35784240.000	7.349911e-001	6.716067e-001
35790234.000	7.350879e-001	6.715027e-001
35796228.000	7.351701e-001	6.713812e-001
35802222.000	7.352609e-001	6.713368e-001
35808216.000	7.353827e-001	6.712571e-001
35814210.000	7.353760e-001	6.711270e-001
35820204.000	7.355173e-001	6.710523e-001
35826198.000	7.355909e-001	6.709466e-001
35832192.000	7.356793e-001	6.708909e-001
35838186.000	7.357422e-001	6.708056e-001
35844180.000	7.358378e-001	6.706922e-001
35850174.000	7.358505e-001	6.706201e-001
35856168.000	7.359285e-001	6.705607e-001
35862162.000	7.360474e-001	6.704721e-001
35868156.000	7.361749e-001	6.704042e-001
35874150.000	7.361647e-001	6.702890e-001
35880144.000	7.362872e-001	6.701914e-001
35886138.000	7.364222e-001	6.701112e-001
35892132.000	7.364691e-001	6.700291e-001
35898126.000	7.364676e-001	6.699522e-001
35904120.000	7.365664e-001	6.698413e-001
35910114.000	7.366550e-001	6.697782e-001
35916108.000	7.367273e-001	6.696919e-001
35922102.000	7.368611e-001	6.695615e-001
35928096.000	7.369072e-001	6.695584e-001
35934090.000	7.369684e-001	6.694285e-001
35940084.000	7.370937e-001	6.693914e-001
35946078.000	7.371364e-001	6.692597e-001
35952072.000	7.372097e-001	6.691606e-001
35958066.000	7.373197e-001	6.691623e-001
35964060.000	7.374191e-001	6.690575e-001
35970054.000	7.374835e-001	6.689015e-001
35976048.000	7.375313e-001	6.687715e-001
35982042.000	7.376394e-001	6.687130e-001
35988036.000	7.377076e-001	6.686194e-001
35994030.000	7.377657e-001	6.685614e-001
36000024.000	7.378192e-001	6.685365e-001
36006018.000	7.379154e-001	6.683863e-001
36012012.000	7.379994e-001	6.683208e-001
36018006.000	7.380896e-001	6.682164e-001
36024000.000	7.381206e-001	6.681559e-001
36029994.000	7.382006e-001	6.680983e-001
36035988.000	7.383302e-001	6.679707e-001
36041982.000	7.383804e-001	6.678460e-001
36047976.000	7.384602e-001	6.677709e-001
36053970.000	7.385481e-001	6.677330e-001
36059964.000	7.386260e-001	6.675949e-001
36065958.000	7.386843e-001	6.675636e-001
36071952.000	7.387680e-001	6.674922e-001
36077946.000	7.388918e-001	6.674116e-001
36083940.000	7.389834e-001	6.672843e-001
36089934.000	7.390791e-001	6.671640e-001
36095928.000	7.390797e-001	6.671150e-001
36101922.000	7.391162e-001	6.670156e-001
36107916.000	7.392474e-001	6.669550e-001
36113910.000	7.393215e-001	6.668305e-001
36119904.000	7.394259e-001	6.667658e-001
36125898.000	7.394485e-001	6.666960e-001
36131892.000	7.395383e-001	6.665734e-001
36137886.000	7.396882e-001	6.665407e-001
36143880.000	7.397308e-001	6.664326e-001
36149874.000	7.397502e-001	6.663580e-001
36155868.000	7.398413e-001	6.662731e-001
36161862.000	7.399388e-001	6.662026e-001
36167856.000	7.400391e-001	6.660679e-001
36173850.000	7.401183e-001	6.660613e-001
36179844.000	7.401814e-001	6.659843e-001
36185838.000	7.403433e-001	6.658718e-001
36191832.000	7.403941e-001	6.657336e-001
36197826.000	7.404601e-001	6.656121e-001
36203820.000	7.404758e-001	6.656012e-001
36209814.000	7.405754e-001	6.654655e-001
36215808.000	7.407239e-001	6.653692e-001
36221802.000	7.407653e-001	6.653804e-001
36227796.000	7.407766e-001	6.652293e-001
36233790.000	7.408936e-001	6.651730e-001
36239784.000	7.409848e-001	6.650648e-001
36245778.000	7.410234e-001	6.650345e-001
36251772.000	7.411663e-001	6.649048e-001
36257766.000	7.412447e-001	6.648463e-001
36263760.000	7.412614e-001	6.647647e-001
36269754.000	7.413068e-001	6.646240e-001
36275748.000	7.414404e-001	6.645281e-001
36281742.000	7.415239e-001	6.644744e-001
36287736.000	7.415998e-001	6.643759e-001
36293730.000	7.416046e-001	6.643196e-001
36299724.000	7.417498e-001	6.642660e-001
36305718.000	7.418005e-001	6.641458e-001
36311712.000	7.419684e-001	6.640784e-001
36317706.000	7.419494e-001	6.639921e-001
36323700.000	7.421040e-001	6.638934e-001
36329694.000	7.421402e-001	6.638008e-001
36335688.000	7.422080e-001	6.637814e-001
36341682.000	7.422861e-001	6.636251e-001
36347676.000	7.424166e-001	6.635048e-001
36353670.000	7.425359e-001	6.634471e-001
36359664.000	7.425667e-001	6.634337e-001
36365658.000	7.426197e-001	6.633572e-001
36371652.000	7.427258e-001	6.632418e-001
36377646.000	7.427457e-001	6.630910e-001
36383640.000	7.428434e-001	6.630620e-001
36389634.000	7.428935e-001	6.629603e-001
36395628.000	7.429872e-001	6.628903e-001
36401622.000	7.429894e-001	6.628137e-001
36407616.000	7.431172e-001	6.627542e-001
36413610.000	7.432341e-001	6.626375e-001
36419604.000	7.432315e-001	6.625606e-001
36425598.000	7.433537e-001	6.624074e-001
36431592.000	7.434820e-001	6.623628e-001
36437586.000	7.434898e-001	6.623049e-001
36443580.000	7.435318e-001	6.622274e-001
36449574.000	7.435830e-001	6.621054e-001
36455568.000	7.437437e-001	6.620778e-001
36461562.000	7.437107e-001	6.619770e-001
36467556.000	7.438652e-001	6.618435e-001
36473550.000	7.438718e-001	6.617404e-001
36479544.000	7.440064e-001	6.616926e-001
36485538.000	7.441244e-001	6.616332e-001
36491532.000	7.441170e-001	6.615608e-001
36497526.000	7.442428e-001	6.614514e-001
36503520.000	7.443409e-001	6.613625e-001
36509514.000	7.443642e-001	6.612734e-001
36515508.000	7.444877e-001	6.612080e-001
36521502.000	7.445757e-001	6.611129e-001
36527496.000	7.446371e-001	6.610807e-001
36533490.000	7.447165e-001	6.609623e-001
36539484.000	7.447964e-001	6.608641e-001
36545478.000	7.448636e-001	6.608104e-001
36551472.000	7.449699e-001	6.607255e-001
36557466.000	7.450427e-001	6.606110e-001
36563460.000	7.450797e-001	6.605096e-001
36569454.000	7.451680e-001	6.604919e-001
36575448.000	7.452562e-001	6.603648e-001
36581442.000	7.453162e-001	6.602551e-001
36587436.000	7.454017e-001	6.602489e-001
36593430.000	7.454744e-001	6.600993e-001
36599424.000	7.455201e-001	6.600231e-001
36605418.000	7.456334e-001	6.599879e-001
36611412.000	7.457044e-001	6.599085e-001
36617406.000	7.457600e-001	6.598092e-001
36623400.000	7.457830e-001	6.597116e-001
36629394.000	7.459352e-001	6.595644e-001
36635388.000	7.460236e-001	6.595446e-001
36641382.000	7.461203e-001	6.594212e-001
36647376.000	7.462099e-001	6.593043e-001
36653370.000	7.462172e-001	6.592738e-001
36659364.000	7.462861e-001	6.591667e-001
36665358.000	7.463687e-001	6.590740e-001
36671352.000	7.465047e-001	6.589802e-001
36677346.000	7.464771e-001	6.588973e-001
36683340.000	7.465811e-001	6.588467e-001
36689334.000	7.466409e-001	6.587302e-001
36695328.000	7.467496e-001	6.587289e-001
36701322.000	7.468275e-001	6.585972e-001
36707316.000	7.468449e-001	6.585187e-001
36713310.000	7.469656e-001	6.584794e-001
36719304.000	7.470547e-001	6.583361e-001
36725298.000	7.470735e-001	6.582651e-001
36731292.000	7.472218e-001	6.582171e-001
36737286.000	7.472600e-001	6.581231e-001
36743280.000	7.473446e-001	6.580312e-001
36749274.000	7.473820e-001	6.579867e-001
36755268.000	7.475091e-001	6.578166e-001
36761262.000	7.475932e-001	6.577742e-001
36767256.000	7.476326e-001	6.576937e-001
36773250.000	7.477182e-001	6.576648e-001
36779244.000	7.478164e-001	6.575148e-001
36785238.000	7.478443e-001	6.574260e-001
36791232.000	7.479012e-001	6.573592e-001
36797226.000	7.479914e-001	6.572493e-001
36803220.000	7.481122e-001	6.571671e-001
36809214.000	7.481809e-001	6.570786e-001
36815208.000	7.482664e-001	6.570281e-001
36821202.000	7.482795e-001	6.569057e-001
36827196.000	7.483226e-001	6.568753e-001
36833190.000	7.484623e-001	6.567728e-001
36839184.000	7.484616e-001	6.567213e-001
36845178.000	7.486032e-001	6.566276e-001
36851172.000	7.486220e-001	6.565025e-001
36857166.000	7.486723e-001	6.564651e-001
36863160.000	7.487860e-001	6.562960e-001
36869154.000	7.488837e-001	6.562222e-001
36875148.000	7.489742e-001	6.562223e-001
36881142.000	7.490676e-001	6.561782e-001
36887136.000	7.490843e-001	6.560027e-001
36893130.000	7.491827e-001	6.559469e-001
36899124.000	7.493094e-001	6.558009e-001
36905118.000	7.493194e-001	6.557511e-001
36911112.000	7.493627e-001	6.557169e-001
36917106.000	7.495080e-001	6.556439e-001
36923100.000	7.495556e-001	6.555076e-001
36929094.000	7.496600e-001	6.554430e-001
36935088.000	7.496748e-001	6.553520e-001
36941082.000	7.497461e-001	6.553034e-001
36947076.000	7.498330e-001	6.551594e-001
36953070.000	7.498790e-001	6.551705e-001
36959064.000	7.499708e-001	6.550436e-001
36965058.000	7.500429e-001	6.549425e-001
36971052.000	7.501942e-001	6.548897e-001
36977046.000	7.502432e-001	6.547738e-001
36983040.000	7.503264e-001	6.546934e-001
36989034.000	7.503348e-001	6.545755e-001
36995028.000	7.504570e-001	6.545496e-001
37001022.000	7.505054e-001	6.544050e-001
37007016.000	7.505523e-001	6.543423e-001
37013010.000	7.506603e-001	6.542488e-001
37019004.000	7.507278e-001	6.541686e-001
37024998.000	7.507718e-001	6.541168e-001
37030992.000	7.508359e-001	6.540296e-001
37036986.000	7.509044e-001	6.539086e-001
37042980.000	7.510143e-001	6.538238e-001
37048974.000	7.510864e-001	6.536953e-001
37054968.000	7.512001e-001	6.536631e-001
37060962.000	7.512284e-001	6.535343e-001
37066956.000	7.513042e-001	6.534885e-001
37072950.000	7.513716e-001	6.534048e-001
37078944.000	7.514191e-001	6.533507e-001
37084938.000	7.515528e-001	6.532512e-001
37090932.000	7.516353e-001	6.532008e-001
37096926.000	7.516669e-001	6.531292e-001
37102920.000	7.517598e-001	6.530173e-001
37108914.000	7.518139e-001	6.529599e-001
37114908.000	7.519251e-001	6.528741e-001
37120902.000	7.520026e-001	6.527629e-001
37126896.000	7.521026e-001	6.527507e-001
37132890.000	7.521727e-001	6.526202e-001
37138884.000	7.522589e-001	6.525342e-001
37144878.000	7.522721e-001	6.524855e-001
37150872.000	7.523638e-001	6.523847e-001
37156866.000	7.524480e-001	6.522846e-001
37162860.000	7.525159e-001	6.522145e-001
37168854.000	7.525717e-001	6.521248e-001
37174848.000	7.525945e-001	6.519645e-001
37180842.000	7.527014e-001	6.519693e-001
37186836.000	7.528244e-001	6.518531e-001
37192830.000	7.528396e-001	6.518228e-001
37198824.000	7.529199e-001	6.516969e-001
37204818.000	7.529931e-001	6.516492e-001
37210812.000	7.530718e-001	6.515075e-001
37216806.000	7.531268e-001	6.514860e-001
37222800.000	7.532072e-001	6.513725e-001
37228794.000	7.532870e-001	6.512624e-001
37234788.000	7.533766e-001	6.512285e-001
37240782.000	7.534609e-001	6.511633e-001
37246776.000	7.535433e-001	6.510600e-001
37252770.000	7.536114e-001	6.509321e-001
37258764.000	7.536466e-001	6.509198e-001
37264758.000	7.537220e-001	6.508070e-001
37270752.000	7.537886e-001	6.506992e-001
37276746.000	7.538976e-001	6.506916e-001
37282740.000	7.539599e-001	6.505983e-001
37288734.000	7.539923e-001	6.504145e-001
37294728.000	7.540253e-001	6.503517e-001
37300722.000	7.541096e-001	6.503296e-001
37306716.000	7.541909e-001	6.501762e-001
37312710.000	7.542638e-001	6.501458e-001
37318704.000	7.543495e-001	6.500406e-001
37324698.000	7.544373e-001	6.499215e-001
37330692.000	7.545150e-001	6.498115e-001
37336686.000	7.546295e-001	6.497911e-001
37342680.000	7.546961e-001	6.496515e-001
37348674.000	7.547632e-001	6.495573e-001
37354668.000	7.548130e-001	6.495497e-001
37360662.000	7.548762e-001	6.494560e-001
37366656.000	7.549594e-001	6.493885e-001
37372650.000	7.549801e-001	6.492911e-001
37378644.000	7.551204e-001	6.491784e-001
37384638.000	7.551363e-001	6.491863e-001
37390632.000	7.552182e-001	6.490514e-001
37396626.000	7.552510e-001	6.489682e-001
37402620.000	7.553598e-001	6.488715e-001
37408614.000	7.554479e-001	6.487330e-001
37414608.000	7.555114e-001	6.487472e-001
37420602.000	7.554750e-001	6.486502e-001
37426596.000	7.556595e-001	6.485802e-001
37432590.000	7.556820e-001	6.484280e-001
37438584.000	7.557662e-001	6.484032e-001
37444578.000	7.558499e-001	6.483326e-001
37450572.000	7.559023e-001	6.482169e-001
37456566.000	7.560239e-001	6.481884e-001
37462560.000	7.560633e-001	6.480250e-001
37468554.000	7.561560e-001	6.479055e-001
37474548.000	7.562186e-001	6.478591e-001
37480542.000	7.562531e-001	6.478400e-001
37486536.000	7.563357e-001	6.477592e-001
37492530.000	7.564199e-001	6.476376e-001
37498524.000	7.564930e-001	6.475919e-001
37504518.000	7.565303e-001	6.474721e-001
37510512.000	7.565895e-001	6.473631e-001
37516506.000	7.566798e-001	6.473400e-001
37522500.000	7.567507e-001	6.472231e-001
37528494.000	7.568426e-001	6.471585e-001
37534488.000	7.569400e-001	6.470635e-001
37540482.000	7.569942e-001	6.470054e-001
37546476.000	7.570399e-001	6.469068e-001
37552470.000	7.571323e-001	6.468174e-001
37558464.000	7.572116e-001	6.467909e-001
37564458.000	7.573072e-001	6.466581e-001
37570452.000	7.573177e-001	6.465902e-001
37576446.000	7.574239e-001	6.465175e-001
37582440.000	7.575184e-001	6.464187e-001
37588434.000	7.576132e-001	6.463629e-001
37594428.000	7.576759e-001	6.462679e-001
37600422.000	7.577133e-001	6.462084e-001
37606416.000	7.577641e-001	6.460658e-001
37612410.000	7.578682e-001	6.460415e-001
37618404.000	7.579218e-001	6.459436e-001
37624398.000	7.579885e-001	6.458892e-001
37630392.000	7.580792e-001	6.457462e-001
37636386.000	7.581549e-001	6.457239e-001
37642380.000	7.581941e-001	6.456360e-001
37648374.000	7.583299e-001	6.455843e-001
37654368.000	7.583680e-001	6.454134e-001
37660362.000	7.584499e-001	6.453794e-001
37666356.000	7.585377e-001	6.452431e-001
37672350.000	7.585688e-001	6.451892e-001
37678344.000	7.586155e-001	6.451223e-001
37684338.000	7.587248e-001	6.450263e-001
37690332.000	7.587326e-001	6.448998e-001
37696326.000	7.588843e-001	6.448326e-001
37702320.000	7.589393e-001	6.447930e-001
37708314.000	7.590091e-001	6.446918e-001
37714308.000	7.590476e-001	6.446318e-001
37720302.000	7.591863e-001	6.445841e-001
37726296.000	7.591957e-001	6.445310e-001
37732290.000	7.593174e-001	6.444613e-001
37738284.000	7.593383e-001	6.443282e-001
37744278.000	7.593939e-001	6.442212e-001
37750272.000	7.595075e-001	6.441266e-001
37756266.000	7.595226e-001	6.441523e-001
37762260.000	7.596246e-001	6.439644e-001
37768254.000	7.597166e-001	6.438855e-001
37774248.000	7.598020e-001	6.438017e-001
37780242.000	7.598463e-001	6.437211e-001
37786236.000	7.599098e-001	6.436519e-001
37792230.000	7.599686e-001	6.435945e-001
37798224.000	7.600560e-001	6.435091e-001
37804218.000	7.601092e-001	6.434416e-001
37810212.000	7.601594e-001	6.433394e-001
37816206.000	7.602221e-001	6.432583e-001
37822200.000	7.603111e-001	6.431799e-001
37828194.000	7.603905e-001	6.430710e-001
37834188.000	7.604264e-001	6.430012e-001
37840182.000	7.604994e-001	6.429276e-001
37846176.000	7.606259e-001	6.428526e-001
37852170.000	7.606644e-001	6.428089e-001
37858164.000	7.606884e-001	6.426586e-001
37864158.000	7.607880e-001	6.425855e-001
37870152.000	7.608533e-001	6.425301e-001
37876146.000	7.609036e-001	6.424494e-001
37882140.000	7.610277e-001	6.423257e-001
37888134.000	7.610699e-001	6.422845e-001
37894128.000	7.610989e-001	6.421954e-001
37900122.000	7.611866e-001	6.421161e-001
37906116.000	7.612346e-001	6.420235e-001
37912110.000	7.613620e-001	6.419354e-001
37918104.000	7.614399e-001	6.418354e-001
37924098.000	7.615213e-001	6.418320e-001
37930092.000	7.615209e-001	6.417181e-001
37936086.000	7.616218e-001	6.415898e-001
37942080.000	7.617078e-001	6.415269e-001
37948074.000	7.617155e-001	6.414893e-001
37954068.000	7.617566e-001	6.413673e-001
37960062.000	7.618430e-001	6.413308e-001
37966056.000	7.619523e-001	6.412198e-001
37972050.000	7.619982e-001	6.411849e-001
37978044.000	7.620394e-001	6.410834e-001
37984038.000	7.621659e-001	6.409295e-001
37990032.000	7.621938e-001	6.409034e-001
37996026.000	7.622565e-001	6.408086e-001
38002020.000	7.623492e-001	6.407407e-001
38008014.000	7.624388e-001	6.406937e-001
38014008.000	7.625366e-001	6.406099e-001
38020002.000	7.625703e-001	6.405056e-001
38025996.000	7.626457e-001	6.404127e-001
38031990.000	7.626865e-001	6.403571e-001
38037984.000	7.627409e-001	6.402792e-001
38043978.000	7.628992e-001	6.401903e-001
38049972.000	7.629481e-001	6.400617e-001
38055966.000	7.629604e-001	6.399941e-001
38061960.000	7.630678e-001	6.399485e-001
38067954.000	7.631162e-001	6.398173e-001
38073948.000	7.631674e-001	6.397859e-001
38079942.000	7.632355e-001	6.397213e-001
38085936.000	7.633660e-001	6.396168e-001
38091930.000	7.633510e-001	6.395075e-001
38097924.000	7.634493e-001	6.394292e-001
38103918.000	7.635864e-001	6.393204e-001
38109912.000	7.636176e-001	6.392679e-001
38115906.000	7.636636e-001	6.392308e-001
38121900.000	7.637496e-001	6.391817e-001
38127894.000	7.638375e-001	6.390748e-001
38133888.000	7.639079e-001	6.389990e-001
38139882.000	7.639935e-001	6.389234e-001
38145876.000	7.640673e-001	6.388348e-001
38151870.000	7.640891e-001	6.387506e-001
38157864.000	7.641344e-001	6.386623e-001
38163858.000	7.642388e-001	6.385970e-001
38169852.000	7.642885e-001	6.385432e-001
38175846.000	7.643888e-001	6.383980e-001
38181840.000	7.644261e-001	6.383652e-001
38187834.000	7.644825e-001	6.382856e-001
38193828.000	7.645716e-001	6.381792e-001
38199822.000	7.646359e-001	6.380856e-001
38205816.000	7.647145e-001	6.380679e-001
38211810.000	7.647108e-001	6.379945e-001
38217804.000	7.647682e-001	6.379201e-001
38223798.000	7.648744e-001	6.378381e-001
38229792.000	7.649753e-001	6.377018e-001
38235786.000	7.650123e-001	6.375979e-001
38241780.000	7.650849e-001	6.375569e-001
38247774.000	7.651221e-001	6.374875e-001
38253768.000	7.652517e-001	6.374316e-001
38259762.000	7.653026e-001	6.373108e-001
38265756.000	7.653290e-001	6.372334e-001
38271750.000	7.654016e-001	6.372128e-001
38277744.000	7.655239e-001	6.370646e-001
38283738.000	7.655761e-001	6.369729e-001
38289732.000	7.656569e-001	6.369465e-001
38295726.000	7.657146e-001	6.367953e-001
38301720.000	7.658354e-001	6.367652e-001
38307714.000	7.658876e-001	6.366450e-001
38313708.000	7.660144e-001	6.365920e-001
38319702.000	7.659899e-001	6.365567e-001
38325696.000	7.660392e-001	6.364430e-001
38331690.000	7.660986e-001	6.363460e-001
38337684.000	7.661681e-001	6.362705e-001
38343678.000	7.662977e-001	6.361812e-001
38349672.000	7.663114e-001	6.360849e-001
38355666.000	7.664436e-001	6.360398e-001
38361660.000	7.664610e-001	6.358574e-001
38367654.000	7.664923e-001	6.358706e-001
38373648.000	7.665656e-001	6.357354e-001
38379642.000	7.666945e-001	6.356660e-001
38385636.000	7.667532e-001	6.355942e-001
38391630.000	7.668557e-001	6.355328e-001
38397624.000	7.668525e-001	6.354773e-001
38403618.000	7.669033e-001	6.353814e-001
38409612.000	7.670499e-001	6.353345e-001
38415606.000	7.670649e-001	6.352030e-001
38421600.000	7.671408e-001	6.351340e-001
38427594.000	7.671812e-001	6.350260e-001
38433588.000	7.672690e-001	6.349646e-001
38439582.000	7.673284e-001	6.348816e-001
38445576.000	7.674134e-001	6.348570e-001
38451570.000	7.674210e-001	6.347705e-001
38457564.000	7.675298e-001	6.346737e-001
38463558.000	7.675976e-001	6.346285e-001
38469552.000	7.677014e-001	6.345806e-001
38475546.000	7.677278e-001	6.344816e-001
38481540.000	7.677946e-001	6.343365e-001
38487534.000	7.678398e-001	6.342783e-001
38493528.000	7.679398e-001	6.342098e-001
38499522.000	7.679881e-001	6.341110e-001
38505516.000	7.680807e-001	6.340098e-001
38511510.000	7.681161e-001	6.339528e-001
38517504.000	7.681905e-001	6.338572e-001
38523498.000	7.682600e-001	6.338468e-001
38529492.000	7.682841e-001	6.337488e-001
38535486.000	7.683553e-001	6.336110e-001
38541480.000	7.684446e-001	6.335554e-001
38547474.000	7.685174e-001	6.335023e-001
38553468.000	7.685895e-001	6.334304e-001
38559462.000	7.686330e-001	6.333509e-001
38565456.000	7.686951e-001	6.332802e-001
38571450.000	7.687531e-001	6.331695e-001
38577444.000	7.688556e-001	6.330755e-001
38583438.000	7.689207e-001	6.330202e-001
38589432.000	7.689609e-001	6.329381e-001
38595426.000	7.689912e-001	6.329000e-001
38601420.000	7.691186e-001	6.328022e-001
38607414.000	7.691493e-001	6.326579e-001
38613408.000	7.692732e-001	6.326435e-001
38619402.000	7.693041e-001	6.325241e-001
38625396.000	7.694327e-001	6.324539e-001
38631390.000	7.694364e-001	6.324337e-001
38637384.000	7.695066e-001	6.323037e-001
38643378.000	7.695966e-001	6.322661e-001
38649372.000	7.696024e-001	6.321321e-001
38655366.000	7.696970e-001	6.320640e-001
38661360.000	7.697687e-001	6.319973e-001
38667354.000	7.698623e-001	6.319472e-001
38673348.000	7.699098e-001	6.318232e-001
38679342.000	7.698916e-001	6.317963e-001
38685336.000	7.699817e-001	6.316333e-001
38691330.000	7.700732e-001	6.316333e-001
38697324.000	7.701782e-001	6.314910e-001
38703318.000	7.702337e-001	6.314050e-001
38709312.000	7.702882e-001	6.313984e-001
38715306.000	7.703952e-001	6.312784e-001
38721300.000	7.704249e-001	6.311560e-001
38727294.000	7.704570e-001	6.311203e-001
38733288.000	7.706038e-001	6.310601e-001
38739282.000	7.706213e-001	6.309927e-001
38745276.000	7.706924e-001	6.308654e-001
38751270.000	7.707434e-001	6.307836e-001
38757264.000	7.707812e-001	6.307037e-001
38763258.000	7.708744e-001	6.306067e-001
38769252.000	7.709209e-001	6.305230e-001
38775246.000	7.710679e-001	6.304704e-001
38781240.000	7.710848e-001	6.303832e-001
38787234.000	7.711756e-001	6.303240e-001
38793228.000	7.712402e-001	6.302260e-001
38799222.000	7.712312e-001	6.301286e-001
38805216.000	7.713513e-001	6.300771e-001
38811210.000	7.714268e-001	6.300172e-001
38817204.000	7.714858e-001	6.299576e-001
38823198.000	7.715076e-001	6.298525e-001
38829192.000	7.716160e-001	6.297383e-001
38835186.000	7.716756e-001	6.296975e-001
38841180.000	7.717594e-001	6.295914e-001
38847174.000	7.718264e-001	6.295219e-001
38853168.000	7.718321e-001	6.294896e-001
38859162.000	7.719590e-001	6.293702e-001
38865156.000	7.720142e-001	6.293160e-001
38871150.000	7.720738e-001	6.291820e-001
38877144.000	7.721717e-001	6.292167e-001
38883138.000	7.721635e-001	6.291208e-001
38889132.000	7.722454e-001	6.290091e-001
38895126.000	7.723269e-001	6.289051e-001
38901120.000	7.723678e-001	6.288226e-001
38907114.000	7.724561e-001	6.287253e-001
38913108.000	7.725015e-001	6.286167e-001
38919102.000	7.726035e-001	6.285569e-001
38925096.000	7.727107e-001	6.285197e-001
38931090.000	7.727067e-001	6.284723e-001
38937084.000	7.727543e-001	6.283982e-001
38943078.000	7.728282e-001	6.282995e-001
38949072.000	7.729061e-001	6.282226e-001
38955066.000	7.729441e-001	6.281495e-001
38961060.000	7.729882e-001	6.280435e-001
38967054.000	7.730588e-001	6.279472e-001
38973048.000	7.731997e-001	6.279317e-001
38979042.000	7.732177e-001	6.278303e-001
38985036.000	7.733526e-001	6.277537e-001
38991030.000	7.733125e-001	6.276955e-001
38997024.000	7.734436e-001	6.275847e-001
39003018.000	7.735096e-001	6.275104e-001
39009012.000	7.735968e-001	6.274636e-001
39015006.000	7.736733e-001	6.273585e-001
39021000.000	7.737078e-001	6.272800e-001
39026994.000	7.737761e-001	6.272251e-001
39032988.000	7.738351e-001	6.271403e-001
39038982.000	7.738206e-001	6.269986e-001
39044976.000	7.739436e-001	6.269295e-001
39050970.000	7.739709e-001	6.268598e-001
39056964.000	7.740752e-001	6.268168e-001
39062958.000	7.741990e-001	6.267049e-001
39068952.000	7.742181e-001	6.266663e-001
39074946.000	7.742193e-001	6.265871e-001
39080940.000	7.743296e-001	6.265500e-001
39086934.000	7.743891e-001	6.263567e-001
39092928.000	7.744494e-001	6.262605e-001
39098922.000	7.744671e-001	6.262266e-001
39104916.000	7.746008e-001	6.262149e-001
39110910.000	7.746302e-001	6.260879e-001
39116904.000	7.747344e-001	6.260367e-001
39122898.000	7.747764e-001	6.259392e-001
39128892.000	7.748132e-001	6.258553e-001
39134886.000	7.748947e-001	6.257871e-001
39140880.000	7.749142e-001	6.257378e-001
39146874.000	7.750475e-001	6.256492e-001
39152868.000	7.750871e-001	6.255886e-001
39158862.000	7.751248e-001	6.254280e-001
39164856.000	7.751564e-001	6.253913e-001
39170850.000	7.752941e-001	6.253034e-001
39176844.000	7.753343e-001	6.251940e-001
39182838.000	7.753926e-001	6.252246e-001
39188832.000	7.754706e-001	6.250734e-001
39194826.000	7.755324e-001	6.249805e-001
39200820.000	7.756402e-001	6.249085e-001
39206814.000	7.756550e-001	6.248991e-001
39212808.000	7.757419e-001	6.247613e-001
39218802.000	7.758064e-001	6.247444e-001
39224796.000	7.758810e-001	6.245987e-001
39230790.000	7.759594e-001	6.245634e-001
39236784.000	7.759908e-001	6.244449e-001
39242778.000	7.759913e-001	6.243688e-001
39248772.000	7.760991e-001	6.243073e-001
39254766.000	7.761274e-001	6.241742e-001
39260760.000	7.762453e-001	6.241363e-001
39266754.000	7.762791e-001	6.240458e-001
39272748.000	7.763364e-001	6.239715e-001
39278742.000	7.763725e-001	6.238987e-001
39284736.000	7.765174e-001	6.238226e-001
39290730.000	7.765547e-001	6.238092e-001
39296724.000	7.766220e-001	6.236629e-001
39302718.000	7.767383e-001	6.235859e-001
39308712.000	7.767163e-001	6.235165e-001
39314706.000	7.768256e-001	6.234415e-001
39320700.000	7.768950e-001	6.233460e-001
39326694.000	7.769406e-001	6.232939e-001
39332688.000	7.769977e-001	6.232272e-001
39338682.000	7.770829e-001	6.230994e-001
39344676.000	7.771433e-001	6.230333e-001
39350670.000	7.772159e-001	6.229787e-001
39356664.000	7.772502e-001	6.228864e-001
39362658.000	7.772811e-001	6.228395e-001
39368652.000	7.773409e-001	6.227183e-001
39374646.000	7.774558e-001	6.226550e-001
39380640.000	7.775665e-001	6.226251e-001
39386634.000	7.775996e-001	6.225188e-001
39392628.000	7.776971e-001	6.224639e-001
39398622.000	7.777261e-001	6.223463e-001
39404616.000	7.778335e-001	6.222440e-001
39410610.000	7.778311e-001	6.222611e-001
39416604.000	7.779248e-001	6.220690e-001
39422598.000	7.779522e-001	6.220393e-001
39428592.000	7.780437e-001	6.219677e-001
39434586.000	7.781191e-001	6.219170e-001
39440580.000	7.781533e-001	6.218253e-001
39446574.000	7.782284e-001	6.217069e-001
39452568.000	7.782926e-001	6.216993e-001
39458562.000	7.783353e-001	6.216037e-001
39464556.000	7.783914e-001	6.215177e-001
39470550.000	7.784834e-001	6.214933e-001
39476544.000	7.785058e-001	6.213638e-001
39482538.000	7.786014e-001	6.213341e-001
39488532.000	7.786851e-001	6.212138e-001
39494526.000	7.787561e-001	6.211261e-001
39500520.000	7.787942e-001	6.211110e-001
39506514.000	7.788487e-001	6.209638e-001
39512508.000	7.789116e-001	6.209098e-001
39518502.000	7.789608e-001	6.208512e-001
39524496.000	7.790384e-001	6.207827e-001
39530490.000	7.791168e-001	6.207195e-001
39536484.000	7.791616e-001	6.205845e-001
39542478.000	7.792298e-001	6.205066e-001
39548472.000	7.792762e-001	6.204802e-001
39554466.000	7.793457e-001	6.203298e-001
39560460.000	7.794122e-001	6.202985e-001
39566454.000	7.795077e-001	6.202357e-001
39572448.000	7.795596e-001	6.201211e-001
39578442.000	7.795920e-001	6.200297e-001
39584436.000	7.796306e-001	6.199830e-001
39590430.000	7.796810e-001	6.199059e-001
39596424.000	7.798334e-001	6.198337e-001
39602418.000	7.798085e-001	6.197595e-001
39608412.000	7.798899e-001	6.196861e-001
39614406.000	7.799948e-001	6.195948e-001
39620400.000	7.800635e-001	6.195299e-001
39626394.000	7.800701e-001	6.194155e-001
39632388.000	7.801383e-001	6.193446e-001
39638382.000	7.801886e-001	6.192781e-001
39644376.000	7.802567e-001	6.192124e-001
39650370.000	7.803032e-001	6.191229e-001
39656364.000	7.803757e-001	6.190620e-001
39662358.000	7.804221e-001	6.190164e-001
39668352.000	7.805112e-001	6.188815e-001
39674346.000	7.806101e-001	6.188966e-001
39680340.000	7.806710e-001	6.187588e-001
39686334.000	7.806854e-001	6.187219e-001
39692328.000	7.807688e-001	6.186218e-001
39698322.000	7.808137e-001	6.185425e-001
39704316.000	7.809140e-001	6.184275e-001
39710310.000	7.809441e-001	6.184051e-001
39716304.000	7.810033e-001	6.182617e-001
39722298.000	7.810818e-001	6.182035e-001
39728292.000	7.810625e-001	6.180949e-001
39734286.000	7.811683e-001	6.181283e-001
39740280.000	7.812342e-001	6.179883e-001
39746274.000	7.812866e-001	6.179651e-001
39752268.000	7.813316e-001	6.178855e-001
39758262.000	7.813925e-001	6.177892e-001
39764256.000	7.814925e-001	6.176958e-001
39770250.000	7.815853e-001	6.176448e-001
39776244.000	7.815848e-001	6.174932e-001
39782238.000	7.816352e-001	6.174209e-001
39788232.000	7.817642e-001	6.173729e-001
39794226.000	7.817692e-001	6.172868e-001
39800220.000	7.818475e-001	6.171963e-001
39806214.000	7.819147e-001	6.171558e-001
39812208.000	7.820474e-001	6.170332e-001
39818202.000	7.820741e-001	6.169947e-001
39824196.000	7.821309e-001	6.168753e-001
39830190.000	7.821404e-001	6.168600e-001
39836184.000	7.822443e-001	6.167309e-001
39842178.000	7.823074e-001	6.166937e-001
39848172.000	7.823445e-001	6.166039e-001
39854166.000	7.824132e-001	6.165216e-001
39860160.000	7.824510e-001	6.164743e-001
39866154.000	7.825886e-001	6.163998e-001
39872148.000	7.826164e-001	6.162951e-001
39878142.000	7.826717e-001	6.162546e-001
39884136.000	7.827421e-001	6.161339e-001
39890130.000	7.827840e-001	6.161007e-001
39896124.000	7.828290e-001	6.160088e-001
39902118.000	7.829100e-001	6.159190e-001
39908112.000	7.829664e-001	6.158852e-001
39914106.000	7.830729e-001	6.157830e-001
39920100.000	7.830922e-001	6.157590e-001
39926094.000	7.831855e-001	6.156236e-001
39932088.000	7.832177e-001	6.155085e-001
39938082.000	7.833193e-001	6.154787e-001
39944076.000	7.833596e-001	6.153989e-001
39950070.000	7.833803e-001	6.153219e-001
39956064.000	7.834445e-001	6.152214e-001
39962058.000	7.834707e-001	6.151606e-001
39968052.000	7.835852e-001	6.150926e-001
39974046.000	7.836800e-001	6.150125e-001
39980040.000	7.836748e-001	6.149268e-001
39986034.000	7.837890e-001	6.148593e-001
39992028.000	7.838651e-001	6.147721e-001
39998022.000	7.838782e-001	6.146689e-001
40004016.000	7.839705e-001	6.146828e-001
40010010.000	7.840248e-001	6.145232e-001
40016004.000	7.840624e-001	6.145113e-001
40021998.000	7.841248e-001	6.143892e-001
40027992.000	7.841695e-001	6.143619e-001
40033986.000	7.842057e-001	6.141987e-001
40039980.000	7.842734e-001	6.141307e-001
40045974.000	7.843536e-001	6.141195e-001
40051968.000	7.844344e-001	6.140164e-001
40057962.000	7.844341e-001	6.139298e-001
40063956.000	7.845505e-001	6.138356e-001
40069950.000	7.846155e-001	6.137869e-001
40075944.000	7.846390e-001	6.137413e-001
40081938.000	7.846894e-001	6.136672e-001
40087932.000	7.847111e-001	6.135558e-001
40093926.000	7.847650e-001	6.135236e-001
40099920.000	7.848843e-001	6.134705e-001
40105914.000	7.849283e-001	6.133603e-001
40111908.000	7.849764e-001	6.132811e-001
40117902.000	7.851064e-001	6.131797e-001
40123896.000	7.850934e-001	6.130515e-001
40129890.000	7.851679e-001	6.130491e-001
40135884.000	7.852356e-001	6.129410e-001
40141878.000	7.852629e-001	6.129036e-001
40147872.000	7.854031e-001	6.128366e-001
40153866.000	7.854665e-001	6.127517e-001
40159860.000	7.855016e-001	6.126947e-001
40165854.000	7.855799e-001	6.126270e-001
40171848.000	7.856201e-001	6.124752e-001
40177842.000	7.857333e-001	6.123924e-001
40183836.000	7.857482e-001	6.123283e-001
40189830.000	7.857940e-001	6.122840e-001
40195824.000	7.857959e-001	6.122427e-001
40201818.000	7.859198e-001	6.121634e-001
40207812.000	7.859886e-001	6.120370e-001
40213806.000	7.860479e-001	6.120367e-001
40219800.000	7.861192e-001	6.118514e-001
40225794.000	7.861225e-001	6.117939e-001
40231788.000	7.862574e-001	6.117632e-001
40237782.000	7.862882e-001	6.116697e-001
40243776.000	7.863246e-001	6.115996e-001
40249770.000	7.863707e-001	6.115842e-001
40255764.000	7.864365e-001	6.114680e-001
40261758.000	7.865326e-001	6.113851e-001
40267752.000	7.865393e-001	6.112989e-001
40273746.000	7.866095e-001	6.112068e-001
40279740.000	7.866470e-001	6.111849e-001
40285734.000	7.867458e-001	6.110723e-001
40291728.000	7.867940e-001	6.109525e-001
40297722.000	7.868165e-001	6.108849e-001
40303716.000	7.869158e-001	6.108485e-001
40309710.000	7.869633e-001	6.107991e-001
40315704.000	7.870093e-001	6.106833e-001
40321698.000	7.871050e-001	6.106013e-001
40327692.000	7.871436e-001	6.104764e-001
40333686.000	7.871375e-001	6.104312e-001
40339680.000	7.872249e-001	6.103684e-001
40345674.000	7.873590e-001	6.103128e-001
40351668.000	7.873746e-001	6.102079e-001
40357662.000	7.874208e-001	6.101420e-001
40363656.000	7.875355e-001	6.100974e-001
40369650.000	7.875558e-001	6.100019e-001
40375644.000	7.876692e-001	6.099608e-001
40381638.000	7.877038e-001	6.098466e-001
40387632.000	7.877728e-001	6.097448e-001
40393626.000	7.878012e-001	6.097073e-001
40399620.000	7.878036e-001	6.096412e-001
40405614.000	7.878932e-001	6.094950e-001
40411608.000	7.879771e-001	6.094453e-001
40417602.000	7.879653e-001	6.094113e-001
40423596.000	7.881244e-001	6.092696e-001
40429590.000	7.881885e-001	6.092447e-001
40435584.000	7.882411e-001	6.092160e-001
40441578.000	7.882733e-001	6.091001e-001
40447572.000	7.883382e-001	6.090663e-001
40453566.000	7.883993e-001	6.089716e-001
40459560.000	7.884062e-001	6.088671e-001
40465554.000	7.885124e-001	6.088141e-001
40471548.000	7.885583e-001	6.087308e-001
40477542.000	7.886444e-001	6.086864e-001
40483536.000	7.886698e-001	6.085897e-001
40489530.000	7.887794e-001	6.084972e-001
40495524.000	7.888162e-001	6.084443e-001
40501518.000	7.889019e-001	6.083738e-001
40507512.000	7.888642e-001	6.082964e-001
40513506.000	7.889617e-001	6.082323e-001
40519500.000	7.889668e-001	6.081229e-001
40525494.000	7.891301e-001	6.080044e-001
40531488.000	7.891622e-001	6.079875e-001
40537482.000	7.892194e-001	6.078636e-001
40543476.000	7.892549e-001	6.078451e-001
40549470.000	7.892313e-001	6.077742e-001
40555464.000	7.893663e-001	6.077028e-001
40561458.000	7.894436e-001	6.075422e-001
40567452.000	7.895267e-001	6.074695e-001
40573446.000	7.895357e-001	6.074094e-001
40579440.000	7.896549e-001	6.073406e-001
40585434.000	7.897047e-001	6.073181e-001
40591428.000	7.897400e-001	6.072642e-001
40597422.000	7.898231e-001	6.071967e-001
40603416.000	7.898701e-001	6.071284e-001
40609410.000	7.898995e-001	6.069945e-001
40615404.000	7.899666e-001	6.069720e-001
40621398.000	7.900465e-001	6.068469e-001
40627392.000	7.901148e-001	6.068455e-001
40633386.000	7.901729e-001	6.067115e-001
40639380.000	7.902598e-001	6.066235e-001
40645374.000	7.902591e-001	6.065524e-001
40651368.000	7.903392e-001	6.065046e-001
40657362.000	7.903629e-001	6.064460e-001
40663356.000	7.904810e-001	6.063134e-001
40669350.000	7.904963e-001	6.062453e-001
40675344.000	7.905547e-001	6.061801e-001
40681338.000	7.905734e-001	6.061884e-001
40687332.000	7.906929e-001	6.060746e-001
40693326.000	7.907193e-001	6.059995e-001
40699320.000	7.907927e-001	6.059316e-001
40705314.000	7.908584e-001	6.058793e-001
40711308.000	7.909179e-001	6.058011e-001
40717302.000	7.909467e-001	6.056535e-001
40723296.000	7.910046e-001	6.055862e-001
40729290.000	7.910832e-001	6.055507e-001
40735284.000	7.911177e-001	6.054719e-001
40741278.000	7.911942e-001	6.053690e-001
40747272.000	7.912365e-001	6.052756e-001
40753266.000	7.913184e-001	6.052414e-001
40759260.000	7.913393e-001	6.051599e-001
40765254.000	7.913930e-001	6.050758e-001
40771248.000	7.914135e-001	6.050068e-001
40777242.000	7.914820e-001	6.049381e-001
40783236.000	7.916004e-001	6.049066e-001
40789230.000	7.916736e-001	6.048528e-001
40795224.000	7.916970e-001	6.046677e-001
40801218.000	7.916715e-001	6.046460e-001
40807212.000	7.917794e-001	6.045681e-001
40813206.000	7.918313e-001	6.044814e-001
40819200.000	7.919196e-001	6.043876e-001
40825194.000	7.920199e-001	6.043327e-001
40831188.000	7.920597e-001	6.042872e-001
40837182.000	7.920656e-001	6.042098e-001
40843176.000	7.921348e-001	6.041435e-001
40849170.000	7.922502e-001	6.040562e-001
40855164.000	7.922378e-001	6.039626e-001
40861158.000	7.923018e-001	6.039033e-001
40867152.000	7.924133e-001	6.037906e-001
40873146.000	7.924530e-001	6.037350e-001
40879140.000	7.925474e-001	6.037115e-001
40885134.000	7.926169e-001	6.035489e-001
40891128.000	7.926204e-001	6.035172e-001
40897122.000	7.927196e-001	6.034694e-001
40903116.000	7.927981e-001	6.033811e-001
40909110.000	7.928006e-001	6.032681e-001
40915104.000	7.928579e-001	6.032529e-001
40921098.000	7.929390e-001	6.031775e-001
40927092.000	7.930152e-001	6.031249e-001
40933086.000	7.930348e-001	6.029778e-001
40939080.000	7.930819e-001	6.029044e-001
40945074.000	7.931265e-001	6.028157e-001
40951068.000	7.931710e-001	6.027642e-001
40957062.000	7.932392e-001	6.027043e-001
40963056.000	7.933212e-001	6.026082e-001
40969050.000	7.933890e-001	6.025709e-001
40975044.000	7.934402e-001	6.025158e-001
40981038.000	7.935250e-001	6.024009e-001
40987032.000	7.935615e-001	6.023384e-001
40993026.000	7.935599e-001	6.023115e-001
40999020.000	7.936282e-001	6.021801e-001
41005014.000	7.937006e-001	6.021197e-001
41011008.000	7.938217e-001	6.020613e-001
41017002.000	7.937767e-001	6.019608e-001
41022996.000	7.938763e-001	6.019005e-001
41028990.000	7.939168e-001	6.018586e-001
41034984.000	7.940286e-001	6.017513e-001
41040978.000	7.941057e-001	6.017119e-001
41046972.000	7.941105e-001	6.016093e-001
41052966.000	7.941939e-001	6.015210e-001
41058960.000	7.942021e-001	6.014520e-001
41064954.000	7.942639e-001	6.014487e-001
41070948.000	7.943624e-001	6.013661e-001
41076942.000	7.943985e-001	6.012298e-001
41082936.000	7.944340e-001	6.011687e-001
41088930.000	7.945831e-001	6.011401e-001
41094924.000	7.946015e-001	6.010799e-001
41100918.000	7.946131e-001	6.009695e-001
41106912.000	7.947170e-001	6.008974e-001
41112906.000	7.947298e-001	6.008445e-001
41118900.000	7.948342e-001	6.007153e-001
41124894.000	7.948835e-001	6.006465e-001
41130888.000	7.948973e-001	6.005524e-001
41136882.000	7.949788e-001	6.004989e-001
41142876.000	7.950360e-001	6.003940e-001
41148870.000	7.950798e-001	6.003111e-001
41154864.000	7.951554e-001	6.003010e-001
41160858.000	7.951969e-001	6.002088e-001
41166852.000	7.952786e-001	6.001687e-001
41172846.000	7.953019e-001	6.000646e-001
41178840.000	7.954080e-001	6.000310e-001
41184834.000	7.953632e-001	5.999295e-001
41190828.000	7.955025e-001	5.998478e-001
41196822.000	7.955511e-001	5.997167e-001
41202816.000	7.955483e-001	5.996440e-001
41208810.000	7.956385e-001	5.996200e-001
41214804.000	7.957073e-001	5.995282e-001
41220798.000	7.957815e-001	5.994803e-001
41226792.000	7.958216e-001	5.993540e-001
41232786.000	7.959181e-001	5.993006e-001
41238780.000	7.959123e-001	5.992446e-001
41244774.000	7.960633e-001	5.991891e-001
41250768.000	7.960084e-001	5.990908e-001
41256762.000	7.960504e-001	5.989942e-001
41262756.000	7.961597e-001	5.989734e-001
41268750.000	7.961810e-001	5.989147e-001
41274744.000	7.962925e-001	5.988621e-001
41280738.000	7.963442e-001	5.987358e-001
41286732.000	7.964024e-001	5.986688e-001
41292726.000	7.964448e-001	5.985883e-001
41298720.000	7.964685e-001	5.984923e-001
41304714.000	7.966385e-001	5.984430e-001
41310708.000	7.965661e-001	5.983250e-001
41316702.000	7.966923e-001	5.982782e-001
41322696.000	7.967680e-001	5.982600e-001
41328690.000	7.967620e-001	5.981650e-001
41334684.000	7.968426e-001	5.980712e-001
41340678.000	7.968347e-001	5.979739e-001
41346672.000	7.969095e-001	5.979202e-001
41352666.000	7.969640e-001	5.978205e-001
41358660.000	7.970690e-001	5.977952e-001
41364654.000	7.970715e-001	5.978082e-001
41370648.000	7.971959e-001	5.976886e-001
41376642.000	7.971951e-001	5.975718e-001
41382636.000	7.972878e-001	5.975300e-001
41388630.000	7.973621e-001	5.974309e-001
41394624.000	7.973640e-001	5.973088e-001
41400618.000	7.974636e-001	5.972527e-001
41406612.000	7.974752e-001	5.971768e-001
41412606.000	7.974976e-001	5.971277e-001
41418600.000	7.975893e-001	5.970512e-001
41424594.000	7.976716e-001	5.969448e-001
41430588.000	7.977136e-001	5.969005e-001
41436582.000	7.977882e-001	5.967947e-001
41442576.000	7.977709e-001	5.967530e-001
41448570.000	7.978757e-001	5.966572e-001
41454564.000	7.978872e-001	5.966173e-001
41460558.000	7.979525e-001	5.965316e-001
41466552.000	7.980237e-001	5.964413e-001
41472546.000	7.980443e-001	5.963393e-001
41478540.000	7.981500e-001	5.963205e-001
41484534.000	7.981903e-001	5.962497e-001
41490528.000	7.982489e-001	5.961297e-001
41496522.000	7.982605e-001	5.961333e-001
41502516.000	7.983253e-001	5.960000e-001
41508510.000	7.983981e-001	5.959366e-001
41514504.000	7.984898e-001	5.958774e-001
41520498.000	7.985380e-001	5.957891e-001
41526492.000	7.985958e-001	5.957305e-001
41532486.000	7.986111e-001	5.956894e-001
41538480.000	7.986730e-001	5.956140e-001
41544474.000	7.988046e-001	5.955825e-001
41550468.000	7.988177e-001	5.954609e-001
41556462.000	7.988648e-001	5.953788e-001
41562456.000	7.988660e-001	5.953235e-001
41568450.000	7.989805e-001	5.951966e-001
41574444.000	7.990412e-001	5.951061e-001
41580438.000	7.990273e-001	5.950873e-001
41586432.000	7.990858e-001	5.949418e-001
41592426.000	7.991721e-001	5.949558e-001
41598420.000	7.992216e-001	5.948485e-001
41604414.000	7.992711e-001	5.947609e-001
41610408.000	7.993585e-001	5.947413e-001
41616402.000	7.994118e-001	5.946453e-001
41622396.000	7.994873e-001	5.945980e-001
41628390.000	7.994734e-001	5.944621e-001
41634384.000	7.995745e-001	5.943903e-001
41640378.000	7.996496e-001	5.943427e-001
41646372.000	7.997305e-001	5.942499e-001
41652366.000	7.997786e-001	5.941657e-001
41658360.000	7.997917e-001	5.941303e-001
41664354.000	7.998189e-001	5.940616e-001
41670348.000	7.998745e-001	5.939418e-001
41676342.000	7.999428e-001	5.939524e-001
41682336.000	7.999722e-001	5.938230e-001
41688330.000	8.000608e-001	5.937508e-001
41694324.000	8.001223e-001	5.937052e-001
41700318.000	8.001161e-001	5.935813e-001
41706312.000	8.001431e-001	5.935087e-001
41712306.000	8.002564e-001	5.934520e-001
41718300.000	8.003313e-001	5.934307e-001
41724294.000	8.003270e-001	5.932942e-001
41730288.000	8.003944e-001	5.932250e-001
41736282.000	8.005127e-001	5.932063e-001
41742276.000	8.004493e-001	5.931162e-001
41748270.000	8.005723e-001	5.929890e-001
41754264.000	8.006358e-001	5.929154e-001
41760258.000	8.007233e-001	5.928618e-001
41766252.000	8.006994e-001	5.928533e-001
41772246.000	8.007916e-001	5.927645e-001
41778240.000	8.008703e-001	5.926793e-001
41784234.000	8.009079e-001	5.926408e-001
41790228.000	8.009473e-001	5.925469e-001
41796222.000	8.010108e-001	5.924348e-001
41802216.000	8.010875e-001	5.923600e-001
41808210.000	8.011383e-001	5.923300e-001
41814204.000	8.011908e-001	5.922465e-001
41820198.000	8.012193e-001	5.921888e-001
41826192.000	8.012726e-001	5.920969e-001
41832186.000	8.013579e-001	5.919874e-001
41838180.000	8.014344e-001	5.919363e-001
41844174.000	8.014950e-001	5.918699e-001
41850168.000	8.015121e-001	5.917812e-001
41856162.000	8.015501e-001	5.916777e-001
41862156.000	8.016239e-001	5.916504e-001
41868150.000	8.016168e-001	5.915972e-001
41874144.000	8.017440e-001	5.915208e-001
41880138.000	8.017787e-001	5.914568e-001
41886132.000	8.018351e-001	5.914049e-001
41892126.000	8.019144e-001	5.913059e-001
41898120.000	8.019811e-001	5.912569e-001
41904114.000	8.020141e-001	5.911898e-001
41910108.000	8.020667e-001	5.910645e-001
41916102.000	8.021432e-001	5.910229e-001
41922096.000	8.021392e-001	5.909894e-001
41928090.000	8.022617e-001	5.909095e-001
41934084.000	8.022934e-001	5.908385e-001
41940078.000	8.023034e-001	5.907487e-001
41946072.000	8.023818e-001	5.906349e-001
41952066.000	8.024087e-001	5.905821e-001
41958060.000	8.024551e-001	5.905236e-001
41964054.000	8.025265e-001	5.904634e-001
41970048.000	8.025151e-001	5.903371e-001
41976042.000	8.026657e-001	5.903408e-001
41982036.000	8.026758e-001	5.902517e-001
41988030.000	8.027316e-001	5.901570e-001
41994024.000	8.028126e-001	5.900968e-001
42000018.000	8.028796e-001	5.900272e-001
42006012.000	8.029416e-001	5.899739e-001
42012006.000	8.029778e-001	5.898353e-001
42018000.000	8.030194e-001	5.898190e-001
42023994.000	8.030775e-001	5.897474e-001
42029988.000	8.031061e-001	5.896278e-001
42035982.000	8.031395e-001	5.896440e-001
42041976.000	8.032458e-001	5.895438e-001
42047970.000	8.032396e-001	5.893989e-001
42053964.000	8.033898e-001	5.893514e-001
42059958.000	8.033968e-001	5.892773e-001
42065952.000	8.034313e-001	5.892916e-001
42071946.000	8.035555e-001	5.891575e-001
42077940.000	8.035612e-001	5.891044e-001
42083934.000	8.036386e-001	5.890342e-001
42089928.000	8.036553e-001	5.889730e-001
42095922.000	8.036830e-001	5.888758e-001
42101916.000	8.037067e-001	5.888134e-001
42107910.000	8.038124e-001	5.887037e-001
42113904.000	8.038137e-001	5.886294e-001
42119898.000	8.039469e-001	5.886062e-001
42125892.000	8.039657e-001	5.885245e-001
42131886.000	8.040273e-001	5.884203e-001
42137880.000	8.040618e-001	5.883583e-001
42143874.000	8.040575e-001	5.883024e-001
42149868.000	8.041344e-001	5.882419e-001
42155862.000	8.041920e-001	5.881042e-001
42161856.000	8.042431e-001	5.880709e-001
42167850.000	8.043140e-001	5.879923e-001
42173844.000	8.043649e-001	5.878960e-001
42179838.000	8.044739e-001	5.878867e-001
42185832.000	8.044499e-001	5.877858e-001
42191826.000	8.045375e-001	5.876983e-001
42197820.000	8.045787e-001	5.876265e-001
42203814.000	8.046254e-001	5.875419e-001
42209808.000	8.046779e-001	5.874628e-001
42215802.000	8.047634e-001	5.874484e-001
42221796.000	8.048407e-001	5.873571e-001
42227790.000	8.048733e-001	5.872620e-001
42233784.000	8.049058e-001	5.872332e-001
42239778.000	8.049317e-001	5.872000e-001
42245772.000	8.050436e-001	5.870460e-001
42251766.000	8.051122e-001	5.870061e-001
42257760.000	8.051413e-001	5.869107e-001
42263754.000	8.051245e-001	5.868846e-001
42269748.000	8.052406e-001	5.868303e-001
42275742.000	8.052534e-001	5.867870e-001
42281736.000	8.053703e-001	5.866778e-001
42287730.000	8.053418e-001	5.865790e-001
42293724.000	8.054817e-001	5.865310e-001
42299718.000	8.054988e-001	5.864690e-001
42305712.000	8.055456e-001	5.863660e-001
42311706.000	8.055796e-001	5.863845e-001
42317700.000	8.056044e-001	5.862398e-001
42323694.000	8.056430e-001	5.861712e-001
42329688.000	8.057311e-001	5.860780e-001
42335682.000	8.057992e-001	5.860542e-001
42341676.000	8.058741e-001	5.859509e-001
42347670.000	8.059132e-001	5.858422e-001
42353664.000	8.059318e-001	5.858010e-001
42359658.000	8.059828e-001	5.857185e-001
42365652.000	8.060130e-001	5.856287e-001
42371646.000	8.060984e-001	5.856259e-001
42377640.000	8.061420e-001	5.855233e-001
42383634.000	8.062324e-001	5.854350e-001
42389628.000	8.062855e-001	5.853696e-001
42395622.000	8.063246e-001	5.853760e-001
42401616.000	8.063699e-001	5.852474e-001
42407610.000	8.064120e-001	5.851791e-001
42413604.000	8.064769e-001	5.851436e-001
42419598.000	8.065417e-001	5.850609e-001
42425592.000	8.065839e-001	5.849439e-001
42431586.000	8.066445e-001	5.849207e-001
42437580.000	8.067089e-001	5.847994e-001
42443574.000	8.067480e-001	5.847183e-001
42449568.000	8.068120e-001	5.846517e-001
42455562.000	8.068604e-001	5.846494e-001
42461556.000	8.069687e-001	5.844957e-001
42467550.000	8.069668e-001	5.843935e-001
42473544.000	8.070577e-001	5.844081e-001
42479538.000	8.070645e-001	5.843169e-001
42485532.000	8.070907e-001	5.842789e-001
42491526.000	8.071760e-001	5.841532e-001
42497520.000	8.072268e-001	5.841297e-001
42503514.000	8.072747e-001	5.839703e-001
42509508.000	8.072992e-001	5.839578e-001
42515502.000	8.073001e-001	5.838987e-001
42521496.000	8.073816e-001	5.838034e-001
42527490.000	8.074172e-001	5.837555e-001
42533484.000	8.075163e-001	5.836858e-001
42539478.000	8.075118e-001	5.836299e-001
42545472.000	8.076330e-001	5.835638e-001
42551466.000	8.076766e-001	5.834447e-001
42557460.000	8.077003e-001	5.834142e-001
42563454.000	8.077538e-001	5.833074e-001
42569448.000	8.078296e-001	5.832268e-001
42575442.000	8.078878e-001	5.832075e-001
42581436.000	8.079145e-001	5.831101e-001
42587430.000	8.079913e-001	5.830801e-001
42593424.000	8.080823e-001	5.829857e-001
42599418.000	8.080909e-001	5.829277e-001
42605412.000	8.081438e-001	5.829093e-001
42611406.000	8.082012e-001	5.827585e-001
42617400.000	8.082280e-001	5.826818e-001
42623394.000	8.082780e-001	5.826154e-001
42629388.000	8.083102e-001	5.825520e-001
42635382.000	8.084185e-001	5.825118e-001
42641376.000	8.084561e-001	5.824726e-001
42647370.000	8.084692e-001	5.823430e-001
42653364.000	8.085289e-001	5.822567e-001
42659358.000	8.085700e-001	5.822450e-001
42665352.000	8.086653e-001	5.821214e-001
42671346.000	8.086989e-001	5.820511e-001
42677340.000	8.087840e-001	5.820426e-001
42683334.000	8.088256e-001	5.818705e-001
42689328.000	8.088720e-001	5.818804e-001
42695322.000	8.089267e-001	5.817285e-001
42701316.000	8.089675e-001	5.816557e-001
42707310.000	8.090432e-001	5.816230e-001
42713304.000	8.090295e-001	5.815603e-001
42719298.000	8.090760e-001	5.814734e-001
42725292.000	8.091318e-001	5.814330e-001
42731286.000	8.092215e-001	5.813254e-001
42737280.000	8.092325e-001	5.812159e-001
42743274.000	8.092906e-001	5.811474e-001
42749268.000	8.093366e-001	5.811510e-001
42755262.000	8.093837e-001	5.810850e-001
42761256.000	8.094932e-001	5.809928e-001
42767250.000	8.095137e-001	5.809277e-001
42773244.000	8.095547e-001	5.809361e-001
42779238.000	8.096005e-001	5.808323e-001
42785232.000	8.096397e-001	5.807266e-001
42791226.000	8.096707e-001	5.806724e-001
42797220.000	8.097513e-001	5.805762e-001
42803214.000	8.097642e-001	5.804873e-001
42809208.000	8.098592e-001	5.804754e-001
42815202.000	8.099009e-001	5.804219e-001
42821196.000	8.099671e-001	5.802869e-001
42827190.000	8.100674e-001	5.802057e-001
42833184.000	8.100903e-001	5.801660e-001
42839178.000	8.101142e-001	5.801210e-001
42845172.000	8.101732e-001	5.800231e-001
42851166.000	8.102142e-001	5.798969e-001
42857160.000	8.102613e-001	5.798549e-001
42863154.000	8.103122e-001	5.798532e-001
42869148.000	8.103813e-001	5.797425e-001
42875142.000	8.104010e-001	5.796697e-001
42881136.000	8.104568e-001	5.795763e-001
42887130.000	8.105428e-001	5.795043e-001
42893124.000	8.105335e-001	5.794782e-001
42899118.000	8.106249e-001	5.793785e-001
42905112.000	8.106808e-001	5.793211e-001
42911106.000	8.107434e-001	5.792524e-001
42917100.000	8.108235e-001	5.792293e-001
42923094.000	8.108536e-001	5.791152e-001
42929088.000	8.109024e-001	5.790311e-001
42935082.000	8.109497e-001	5.789911e-001
42941076.000	8.109918e-001	5.789319e-001
42947070.000	8.110354e-001	5.788370e-001
42953064.000	8.111272e-001	5.787220e-001
42959058.000	8.111691e-001	5.786820e-001
42965052.000	8.112099e-001	5.786399e-001
42971046.000	8.112647e-001	5.785346e-001
42977040.000	8.113350e-001	5.784752e-001
42983034.000	8.113425e-001	5.783794e-001
42989028.000	8.113882e-001	5.783494e-001
42995022.000	8.114030e-001	5.783079e-001
43001016.000	8.114976e-001	5.781744e-001
43007010.000	8.115089e-001	5.781245e-001
43013004.000	8.115833e-001	5.780330e-001
43018998.000	8.116674e-001	5.780407e-001
43024992.000	8.117321e-001	5.778831e-001
43030986.000	8.117787e-001	5.778977e-001
43036980.000	8.118555e-001	5.778128e-001
43042974.000	8.118561e-001	5.777584e-001
43048968.000	8.119020e-001	5.776039e-001
43054962.000	8.119399e-001	5.776168e-001
43060956.000	8.120252e-001	5.774816e-001
43066950.000	8.120522e-001	5.774453e-001
43072944.000	8.121208e-001	5.773566e-001
43078938.000	8.121918e-001	5.772991e-001
43084932.000	8.121398e-001	5.772631e-001
43090926.000	8.122595e-001	5.771228e-001
43096920.000	8.122717e-001	5.770585e-001
43102914.000	8.123675e-001	5.769831e-001
43108908.000	8.123497e-001	5.769174e-001
43114902.000	8.124471e-001	5.768582e-001
43120896.000	8.124605e-001	5.768267e-001
43126890.000	8.125598e-001	5.767401e-001
43132884.000	8.126263e-001	5.767493e-001
43138878.000	8.126374e-001	5.766360e-001
43144872.000	8.126619e-001	5.765190e-001
43150866.000	8.127613e-001	5.764990e-001
43156860.000	8.127496e-001	5.765197e-001
43162854.000	8.128171e-001	5.763836e-001
43168848.000	8.128902e-001	5.763146e-001
43174842.000	8.129730e-001	5.761688e-001
43180836.000	8.130066e-001	5.760762e-001
43186830.000	8.130275e-001	5.760741e-001
43192824.000	8.131163e-001	5.760649e-001
43198818.000	8.131119e-001	5.759330e-001
43204812.000	8.132279e-001	5.758025e-001
43210806.000	8.132448e-001	5.757506e-001
43216800.000	8.132839e-001	5.757080e-001
43222794.000	8.133800e-001	5.756632e-001
43228788.000	8.133780e-001	5.756052e-001
43234782.000	8.134466e-001	5.755256e-001
43240776.000	8.134781e-001	5.754475e-001
43246770.000	8.135554e-001	5.753320e-001
43252764.000	8.135570e-001	5.752737e-001
43258758.000	8.135811e-001	5.752304e-001
43264752.000	8.136845e-001	5.751899e-001
43270746.000	8.137027e-001	5.750723e-001
43276740.000	8.137629e-001	5.750387e-001
43282734.000	8.138412e-001	5.749500e-001
43288728.000	8.138902e-001	5.748661e-001
43294722.000	8.138880e-001	5.748163e-001
43300716.000	8.139060e-001	5.747487e-001
43306710.000	8.140020e-001	5.746764e-001
43312704.000	8.141031e-001	5.746234e-001
43318698.000	8.141231e-001	5.745602e-001
43324692.000	8.141473e-001	5.744572e-001
43330686.000	8.142278e-001	5.743822e-001
43336680.000	8.142908e-001	5.743590e-001
43342674.000	8.143068e-001	5.743038e-001
43348668.000	8.143841e-001	5.741838e-001
43354662.000	8.144202e-001	5.740787e-001
43360656.000	8.144724e-001	5.740432e-001
43366650.000	8.145117e-001	5.740023e-001
43372644.000	8.145870e-001	5.739132e-001
43378638.000	8.145565e-001	5.737926e-001
43384632.000	8.146520e-001	5.737950e-001
43390626.000	8.146773e-001	5.736888e-001
43396620.000	8.147544e-001	5.736489e-001
43402614.000	8.148682e-001	5.735734e-001
43408608.000	8.148539e-001	5.735178e-001
43414602.000	8.149290e-001	5.734489e-001
43420596.000	8.149344e-001	5.733885e-001
43426590.000	8.149667e-001	5.732693e-001
43432584.000	8.150048e-001	5.731932e-001
43438578.000	8.150698e-001	5.731825e-001
43444572.000	8.151173e-001	5.730865e-001
43450566.000	8.152039e-001	5.730286e-001
43456560.000	8.152476e-001	5.729703e-001
43462554.000	8.153576e-001	5.728984e-001
43468548.000	8.153834e-001	5.728465e-001
43474542.000	8.153650e-001	5.727476e-001
43480536.000	8.154330e-001	5.727013e-001
43486530.000	8.154506e-001	5.726420e-001
43492524.000	8.155978e-001	5.725682e-001
43498518.000	8.155726e-001	5.724598e-001
43504512.000	8.156318e-001	5.724064e-001
43510506.000	8.157186e-001	5.723964e-001
43516500.000	8.156972e-001	5.722441e-001
43522494.000	8.157923e-001	5.721616e-001
43528488.000	8.158646e-001	5.721428e-001
43534482.000	8.159195e-001	5.721346e-001
43540476.000	8.159467e-001	5.720301e-001
43546470.000	8.159348e-001	5.719565e-001
43552464.000	8.160085e-001	5.718828e-001
43558458.000	8.160513e-001	5.718019e-001
43564452.000	8.161273e-001	5.717054e-001
43570446.000	8.161904e-001	5.716686e-001
43576440.000	8.162243e-001	5.715830e-001
43582434.000	8.162583e-001	5.715054e-001
43588428.000	8.163279e-001	5.714130e-001
43594422.000	8.163848e-001	5.713755e-001
43600416.000	8.163455e-001	5.713005e-001
43606410.000	8.164829e-001	5.712024e-001
43612404.000	8.165119e-001	5.711636e-001
43618398.000	8.165295e-001	5.710676e-001
43624392.000	8.165992e-001	5.710479e-001
43630386.000	8.166642e-001	5.709680e-001
43636380.000	8.166901e-001	5.708827e-001
43642374.000	8.167856e-001	5.708165e-001
43648368.000	8.167814e-001	5.707509e-001
43654362.000	8.168164e-001	5.707191e-001
43660356.000	8.169316e-001	5.706301e-001
43666350.000	8.169768e-001	5.705973e-001
43672344.000	8.169833e-001	5.705290e-001
43678338.000	8.170809e-001	5.704187e-001
43684332.000	8.170754e-001	5.704050e-001
43690326.000	8.171471e-001	5.703377e-001
43696320.000	8.171837e-001	5.701806e-001
43702314.000	8.172358e-001	5.701760e-001
43708308.000	8.172620e-001	5.700659e-001
43714302.000	8.173204e-001	5.700077e-001
43720296.000	8.173649e-001	5.699571e-001
43726290.000	8.174126e-001	5.699012e-001
43732284.000	8.174745e-001	5.698539e-001
43738278.000	8.175501e-001	5.697531e-001
43744272.000	8.175449e-001	5.696704e-001
43750266.000	8.175786e-001	5.696698e-001
43756260.000	8.176650e-001	5.695747e-001
43762254.000	8.177275e-001	5.694574e-001
43768248.000	8.177553e-001	5.694436e-001
43774242.000	8.178011e-001	5.693250e-001
43780236.000	8.178614e-001	5.692561e-001
43786230.000	8.178691e-001	5.692131e-001
43792224.000	8.179777e-001	5.691046e-001
43798218.000	8.180442e-001	5.691049e-001
43804212.000	8.180072e-001	5.689963e-001
43810206.000	8.180957e-001	5.689269e-001
43816200.000	8.181376e-001	5.688602e-001
43822194.000	8.182606e-001	5.688071e-001
43828188.000	8.182478e-001	5.687894e-001
43834182.000	8.183251e-001	5.686299e-001
43840176.000	8.183811e-001	5.685884e-001
43846170.000	8.183863e-001	5.685676e-001
43852164.000	8.184425e-001	5.684152e-001
43858158.000	8.185063e-001	5.684324e-001
43864152.000	8.184911e-001	5.683615e-001
43870146.000	8.186333e-001	5.682888e-001
43876140.000	8.186295e-001	5.681857e-001
43882134.000	8.186574e-001	5.681293e-001
43888128.000	8.188021e-001	5.680601e-001
43894122.000	8.187650e-001	5.680108e-001
43900116.000	8.188235e-001	5.679555e-001
43906110.000	8.188833e-001	5.679139e-001
43912104.000	8.189069e-001	5.678106e-001
43918098.000	8.189815e-001	5.677546e-001
43924092.000	8.189934e-001	5.676767e-001
43930086.000	8.190453e-001	5.676133e-001
43936080.000	8.190930e-001	5.675422e-001
43942074.000	8.191407e-001	5.674730e-001
43948068.000	8.192178e-001	5.673752e-001
43954062.000	8.192586e-001	5.673137e-001
43960056.000	8.193214e-001	5.672471e-001
43966050.000	8.193346e-001	5.671772e-001
43972044.000	8.193775e-001	5.671031e-001
43978038.000	8.195127e-001	5.670643e-001
43984032.000	8.195058e-001	5.669340e-001
43990026.000	8.195725e-001	5.669145e-001
43996020.000	8.195943e-001	5.668416e-001
44002014.000	8.196042e-001	5.668237e-001
44008008.000	8.196942e-001	5.666990e-001
44014002.000	8.196539e-001	5.666112e-001
44019996.000	8.197960e-001	5.665965e-001
44025990.000	8.198143e-001	5.665163e-001
44031984.000	8.199069e-001	5.664794e-001
44037978.000	8.199469e-001	5.664002e-001
44043972.000	8.200096e-001	5.663273e-001
44049966.000	8.199939e-001	5.662473e-001
44055960.000	8.200627e-001	5.662431e-001
44061954.000	8.200857e-001	5.660999e-001
44067948.000	8.201873e-001	5.660801e-001
44073942.000	8.201676e-001	5.659907e-001
44079936.000	8.202222e-001	5.659764e-001
44085930.000	8.202643e-001	5.658630e-001
44091924.000	8.203347e-001	5.657500e-001
44097918.000	8.203644e-001	5.657183e-001
44103912.000	8.204281e-001	5.656834e-001
44109906.000	8.205045e-001	5.655644e-001
44115900.000	8.205198e-001	5.655326e-001
44121894.000	8.205092e-001	5.654126e-001
44127888.000	8.206246e-001	5.653888e-001
44133882.000	8.206413e-001	5.653382e-001
44139876.000	8.207190e-001	5.652440e-001
44145870.000	8.206899e-001	5.651923e-001
44151864.000	8.207838e-001	5.651226e-001
44157858.000	8.208474e-001	5.650387e-001
44163852.000	8.208496e-001	5.649329e-001
44169846.000	8.208941e-001	5.649207e-001
44175840.000	8.209532e-001	5.647845e-001
44181834.000	8.210239e-001	5.647266e-001
44187828.000	8.210643e-001	5.646732e-001
44193822.000	8.211532e-001	5.646179e-001
44199816.000	8.212145e-001	5.645592e-001
44205810.000	8.212346e-001	5.645482e-001
44211804.000	8.212417e-001	5.643945e-001
44217798.000	8.213117e-001	5.643862e-001
44223792.000	8.212978e-001	5.642468e-001
44229786.000	8.213968e-001	5.642087e-001
44235780.000	8.214365e-001	5.641092e-001
44241774.000	8.215254e-001	5.640466e-001
44247768.000	8.214674e-001	5.639834e-001
44253762.000	8.215779e-001	5.639556e-001
44259756.000	8.215961e-001	5.638627e-001
44265750.000	8.216717e-001	5.638019e-001
44271744.000	8.217122e-001	5.637357e-001
44277738.000	8.217841e-001	5.636799e-001
44283732.000	8.217970e-001	5.635938e-001
44289726.000	8.218154e-001	5.635452e-001
44295720.000	8.218840e-001	5.634900e-001
44301714.000	8.219517e-001	5.634066e-001
44307708.000	8.220010e-001	5.633577e-001
44313702.000	8.220129e-001	5.632661e-001
44319696.000	8.220491e-001	5.631780e-001
44325690.000	8.221354e-001	5.630837e-001
44331684.000	8.221408e-001	5.630753e-001
44337678.000	8.221702e-001	5.630090e-001
44343672.000	8.222646e-001	5.629437e-001
44349666.000	8.223082e-001	5.628917e-001
44355660.000	8.223569e-001	5.628178e-001
44361654.000	8.223649e-001	5.627833e-001
44367648.000	8.224369e-001	5.626661e-001
44373642.000	8.224917e-001	5.625834e-001
44379636.000	8.224988e-001	5.625339e-001
44385630.000	8.225855e-001	5.624512e-001
44391624.000	8.226552e-001	5.623930e-001
44397618.000	8.226843e-001	5.622965e-001
44403612.000	8.227073e-001	5.622575e-001
44409606.000	8.227644e-001	5.622090e-001
44415600.000	8.228266e-001	5.620793e-001
44421594.000	8.228345e-001	5.620312e-001
44427588.000	8.229589e-001	5.619703e-001
44433582.000	8.229413e-001	5.618860e-001
44439576.000	8.229799e-001	5.618331e-001
44445570.000	8.230573e-001	5.618044e-001
44451564.000	8.230546e-001	5.617314e-001
44457558.000	8.231276e-001	5.616547e-001
44463552.000	8.232090e-001	5.615892e-001
44469546.000	8.232187e-001	5.615123e-001
44475540.000	8.232675e-001	5.614474e-001
44481534.000	8.233314e-001	5.613639e-001
44487528.000	8.233862e-001	5.613018e-001
44493522.000	8.234139e-001	5.612443e-001
44499516.000	8.234876e-001	5.612383e-001
44505510.000	8.235447e-001	5.610805e-001
44511504.000	8.235361e-001	5.610156e-001
44517498.000	8.236289e-001	5.609741e-001
44523492.000	8.236762e-001	5.609025e-001
44529486.000	8.237280e-001	5.607934e-001
44535480.000	8.237531e-001	5.608240e-001
44541474.000	8.238023e-001	5.606840e-001
44547468.000	8.238182e-001	5.606060e-001
44553462.000	8.239199e-001	5.605823e-001
44559456.000	8.239233e-001	5.605480e-001
44565450.000	8.240022e-001	5.604761e-001
44571444.000	8.240467e-001	5.603686e-001
44577438.000	8.240522e-001	5.603059e-001
44583432.000	8.241340e-001	5.602573e-001
44589426.000	8.241457e-001	5.602879e-001
44595420.000	8.241829e-001	5.601300e-001
44601414.000	8.242541e-001	5.600516e-001
44607408.000	8.243489e-001	5.600240e-001
44613402.000	8.243426e-001	5.599576e-001
44619396.000	8.244303e-001	5.598615e-001
44625390.000	8.243517e-001	5.597685e-001
44631384.000	8.244603e-001	5.596938e-001
44637378.000	8.245020e-001	5.595925e-001
44643372.000	8.245282e-001	5.595166e-001
44649366.000	8.246156e-001	5.595212e-001
44655360.000	8.246875e-001	5.594470e-001
44661354.000	8.247226e-001	5.593562e-001
44667348.000	8.247835e-001	5.593406e-001
44673342.000	8.248703e-001	5.592551e-001
44679336.000	8.248638e-001	5.592209e-001
44685330.000	8.248776e-001	5.591594e-001
44691324.000	8.249636e-001	5.590329e-001
44697318.000	8.249780e-001	5.590170e-001
44703312.000	8.250310e-001	5.589761e-001
44709306.000	8.250707e-001	5.588879e-001
44715300.000	8.251780e-001	5.587906e-001
44721294.000	8.252461e-001	5.587080e-001
44727288.000	8.252214e-001	5.586782e-001
44733282.000	8.252871e-001	5.585766e-001
44739276.000	8.253470e-001	5.585072e-001
44745270.000	8.253713e-001	5.585054e-001
44751264.000	8.254045e-001	5.583538e-001
44757258.000	8.254429e-001	5.583464e-001
44763252.000	8.255382e-001	5.581974e-001
44769246.000	8.255289e-001	5.581813e-001
44775240.000	8.255296e-001	5.580648e-001
44781234.000	8.256516e-001	5.579973e-001
44787228.000	8.256549e-001	5.579728e-001
44793222.000	8.256883e-001	5.579027e-001
44799216.000	8.258064e-001	5.578633e-001
44805210.000	8.257843e-001	5.577522e-001
44811204.000	8.258992e-001	5.577154e-001
44817198.000	8.258647e-001	5.576450e-001
44823192.000	8.259376e-001	5.575753e-001
44829186.000	8.260314e-001	5.575385e-001
44835180.000	8.260376e-001	5.574414e-001
44841174.000	8.260756e-001	5.573946e-001
44847168.000	8.261530e-001	5.573311e-001
44853162.000	8.261908e-001	5.572449e-001
44859156.000	8.262636e-001	5.571807e-001
44865150.000	8.262373e-001	5.571362e-001
44871144.000	8.263269e-001	5.570550e-001
44877138.000	8.263807e-001	5.570310e-001
44883132.000	8.263764e-001	5.569810e-001
44889126.000	8.264207e-001	5.568958e-001
44895120.000	8.265361e-001	5.568516e-001
44901114.000	8.265545e-001	5.567399e-001
44907108.000	8.265645e-001	5.566868e-001
44913102.000	8.266236e-001	5.566922e-001
44919096.000	8.266353e-001	5.565552e-001
44925090.000	8.266917e-001	5.565487e-001
44931084.000	8.267382e-001	5.564221e-001
44937078.000	8.267960e-001	5.563508e-001
44943072.000	8.268567e-001	5.563245e-001
44949066.000	8.269297e-001	5.562439e-001
44955060.000	8.269282e-001	5.561787e-001
44961054.000	8.270096e-001	5.561643e-001
44967048.000	8.270430e-001	5.560568e-001
44973042.000	8.270642e-001	5.559624e-001
44979036.000	8.270960e-001	5.558661e-001
44985030.000	8.271218e-001	5.558632e-001
44991024.000	8.271777e-001	5.557767e-001
44997018.000	8.272653e-001	5.556922e-001
45003012.000	8.273248e-001	5.556292e-001
45009006.000	8.273523e-001	5.556184e-001
45015000.000	8.273564e-001	5.555155e-001
45020994.000	8.273860e-001	5.554464e-001
45026988.000	8.274726e-001	5.553643e-001
45032982.000	8.275375e-001	5.553131e-001
45038976.000	8.275545e-001	5.552336e-001
45044970.000	8.276325e-001	5.551733e-001
45050964.000	8.276644e-001	5.550992e-001
45056958.000	8.277334e-001	5.550214e-001
45062952.000	8.277439e-001	5.549393e-001
45068946.000	8.278180e-001	5.548973e-001
45074940.000	8.278367e-001	5.548234e-001
45080934.000	8.278749e-001	5.547846e-001
45086928.000	8.279045e-001	5.547427e-001
45092922.000	8.279429e-001	5.547139e-001
45098916.000	8.280151e-001	5.546159e-001
45104910.000	8.281210e-001	5.545386e-001
45110904.000	8.280940e-001	5.544670e-001
45116898.000	8.281622e-001	5.544001e-001
45122892.000	8.281752e-001	5.542807e-001
45128886.000	8.282589e-001	5.542896e-001
45134880.000	8.282960e-001	5.541786e-001
45140874.000	8.282782e-001	5.540988e-001
45146868.000	8.283437e-001	5.540506e-001
45152862.000	8.284110e-001	5.539392e-001
45158856.000	8.284375e-001	5.539566e-001
45164850.000	8.284684e-001	5.538634e-001
45170844.000	8.285538e-001	5.538573e-001
45176838.000	8.286158e-001	5.537824e-001
45182832.000	8.286442e-001	5.537188e-001
45188826.000	8.287415e-001	5.536685e-001
45194820.000	8.287659e-001	5.535128e-001
45200814.000	8.287444e-001	5.535062e-001
45206808.000	8.288799e-001	5.533598e-001
45212802.000	8.288102e-001	5.533280e-001
45218796.000	8.289079e-001	5.532816e-001
45224790.000	8.289789e-001	5.532117e-001
45230784.000	8.289894e-001	5.531719e-001
45236778.000	8.290936e-001	5.531251e-001
45242772.000	8.290873e-001	5.530272e-001
45248766.000	8.291640e-001	5.529749e-001
45254760.000	8.292580e-001	5.529157e-001
45260754.000	8.292138e-001	5.528451e-001
45266748.000	8.292683e-001	5.527684e-001
45272742.000	8.293088e-001	5.527234e-001
45278736.000	8.293414e-001	5.526620e-001
45284730.000	8.294233e-001	5.525622e-001
45290724.000	8.294423e-001	5.525168e-001
45296718.000	8.294717e-001	5.524510e-001
45302712.000	8.294942e-001	5.523600e-001
45308706.000	8.295849e-001	5.523283e-001
45314700.000	8.295672e-001	5.523182e-001
45320694.000	8.296970e-001	5.521933e-001
45326688.000	8.296982e-001	5.521125e-001
45332682.000	8.297296e-001	5.520504e-001
45338676.000	8.297951e-001	5.520148e-001
45344670.000	8.298221e-001	5.519143e-001
45350664.000	8.298803e-001	5.518642e-001
45356658.000	8.299513e-001	5.517310e-001
45362652.000	8.299902e-001	5.517313e-001
45368646.000	8.299473e-001	5.516798e-001
45374640.000	8.300951e-001	5.515928e-001
45380634.000	8.300523e-001	5.515441e-001
45386628.000	8.301421e-001	5.514839e-001
45392622.000	8.301203e-001	5.513388e-001
45398616.000	8.301845e-001	5.512840e-001
45404610.000	8.302565e-001	5.512723e-001
45410604.000	8.303401e-001	5.511978e-001
45416598.000	8.303933e-001	5.510868e-001
45422592.000	8.304165e-001	5.510358e-001
45428586.000	8.303727e-001	5.509873e-001
45434580.000	8.304619e-001	5.509331e-001
45440574.000	8.305286e-001	5.508423e-001
45446568.000	8.305558e-001	5.507763e-001
45452562.000	8.306488e-001	5.507331e-001
45458556.000	8.306804e-001	5.506551e-001
45464550.000	8.306973e-001	5.506054e-001
45470544.000	8.306958e-001	5.505565e-001
45476538.000	8.307888e-001	5.504785e-001
45482532.000	8.308221e-001	5.504087e-001
45488526.000	8.308823e-001	5.503573e-001
45494520.000	8.308790e-001	5.502413e-001
45500514.000	8.309512e-001	5.501750e-001
45506508.000	8.309930e-001	5.501456e-001
45512502.000	8.310303e-001	5.500830e-001
45518496.000	8.310320e-001	5.500276e-001
45524490.000	8.311414e-001	5.499551e-001
45530484.000	8.311376e-001	5.499006e-001
45536478.000	8.311996e-001	5.497992e-001
45542472.000	8.312384e-001	5.497243e-001
45548466.000	8.312898e-001	5.496817e-001
45554460.000	8.313402e-001	5.495905e-001
45560454.000	8.314380e-001	5.495456e-001
45566448.000	8.314298e-001	5.495384e-001
45572442.000	8.315030e-001	5.494435e-001
45578436.000	8.315319e-001	5.493764e-001
45584430.000	8.315911e-001	5.493502e-001
45590424.000	8.316225e-001	5.492932e-001
45596418.000	8.316762e-001	5.491829e-001
45602412.000	8.316871e-001	5.491375e-001
45608406.000	8.317529e-001	5.490747e-001
45614400.000	8.317515e-001	5.489749e-001
45620394.000	8.318082e-001	5.489550e-001
45626388.000	8.318964e-001	5.488828e-001
45632382.000	8.318812e-001	5.488187e-001
45638376.000	8.318911e-001	5.487959e-001
45644370.000	8.319879e-001	5.487176e-001
45650364.000	8.320640e-001	5.486315e-001
45656358.000	8.320485e-001	5.486199e-001
45662352.000	8.321502e-001	5.485077e-001
45668346.000	8.321608e-001	5.484652e-001
45674340.000	8.321501e-001	5.483902e-001
45680334.000	8.322018e-001	5.482407e-001
45686328.000	8.322468e-001	5.482807e-001
45692322.000	8.323468e-001	5.482079e-001
45698316.000	8.323339e-001	5.480882e-001
45704310.000	8.323693e-001	5.480405e-001
45710304.000	8.324670e-001	5.479760e-001
45716298.000	8.324724e-001	5.479193e-001
45722292.000	8.324950e-001	5.478159e-001
45728286.000	8.326403e-001	5.478065e-001
45734280.000	8.326338e-001	5.477587e-001
45740274.000	8.326864e-001	5.476876e-001
45746268.000	8.326922e-001	5.475889e-001
45752262.000	8.328119e-001	5.476231e-001
45758256.000	8.328239e-001	5.475247e-001
45764250.000	8.328256e-001	5.474568e-001
45770244.000	8.328909e-001	5.474050e-001
45776238.000	8.329731e-001	5.473060e-001
45782232.000	8.329756e-001	5.471863e-001
45788226.000	8.330368e-001	5.471502e-001
45794220.000	8.330869e-001	5.470410e-001
45800214.000	8.331283e-001	5.470301e-001
45806208.000	8.332133e-001	5.469684e-001
45812202.000	8.332536e-001	5.468774e-001
45818196.000	8.333291e-001	5.468565e-001
45824190.000	8.332567e-001	5.467379e-001
45830184.000	8.333217e-001	5.466848e-001
45836178.000	8.333705e-001	5.466172e-001
45842172.000	8.333758e-001	5.465384e-001
45848166.000	8.335064e-001	5.465352e-001
45854160.000	8.335174e-001	5.464329e-001
45860154.000	8.335022e-001	5.463719e-001
45866148.000	8.336058e-001	5.463272e-001
45872142.000	8.336127e-001	5.462334e-001
45878136.000	8.337080e-001	5.461600e-001
45884130.000	8.336666e-001	5.461438e-001
45890124.000	8.337416e-001	5.460553e-001
45896118.000	8.337912e-001	5.459324e-001
45902112.000	8.337907e-001	5.459403e-001
45908106.000	8.338968e-001	5.458640e-001
45914100.000	8.339775e-001	5.457874e-001
45920094.000	8.339788e-001	5.457071e-001
45926088.000	8.340209e-001	5.456807e-001
45932082.000	8.341240e-001	5.456242e-001
45938076.000	8.341237e-001	5.455153e-001
45944070.000	8.341445e-001	5.454345e-001
45950064.000	8.341457e-001	5.453522e-001
45956058.000	8.341974e-001	5.453289e-001
45962052.000	8.342735e-001	5.452674e-001
45968046.000	8.343222e-001	5.452212e-001
45974040.000	8.343942e-001	5.451411e-001
45980034.000	8.344051e-001	5.450976e-001
45986028.000	8.343956e-001	5.449840e-001
45992022.000	8.344873e-001	5.449601e-001
45998016.000	8.344865e-001	5.448933e-001
46004010.000	8.345336e-001	5.447898e-001
46010004.000	8.345748e-001	5.448132e-001
46015998.000	8.345918e-001	5.446921e-001
46021992.000	8.346809e-001	5.446975e-001
46027986.000	8.347362e-001	5.445678e-001
46033980.000	8.347977e-001	5.444911e-001
46039974.000	8.347910e-001	5.444438e-001
46045968.000	8.348406e-001	5.444250e-001
46051962.000	8.349288e-001	5.442444e-001
46057956.000	8.349333e-001	5.441994e-001
46063950.000	8.350249e-001	5.441515e-001
46069944.000	8.350336e-001	5.440869e-001
46075938.000	8.350578e-001	5.440746e-001
46081932.000	8.350790e-001	5.439990e-001
46087926.000	8.351886e-001	5.439632e-001
46093920.000	8.351944e-001	5.438590e-001
46099914.000	8.351989e-001	5.438408e-001
46105908.000	8.352687e-001	5.437467e-001
46111902.000	8.352791e-001	5.436579e-001
46117896.000	8.353408e-001	5.435961e-001
46123890.000	8.354201e-001	5.435715e-001
46129884.000	8.354468e-001	5.435331e-001
46135878.000	8.355215e-001	5.434156e-001
46141872.000	8.355012e-001	5.433140e-001
46147866.000	8.355968e-001	5.432799e-001
46153860.000	8.356171e-001	5.432128e-001
46159854.000	8.356118e-001	5.431598e-001
46165848.000	8.356561e-001	5.430799e-001
46171842.000	8.356672e-001	5.429992e-001
46177836.000	8.357268e-001	5.430466e-001
46183830.000	8.357679e-001	5.428846e-001
46189824.000	8.358310e-001	5.428728e-001
46195818.000	8.358705e-001	5.427636e-001
46201812.000	8.359581e-001	5.427443e-001
46207806.000	8.359498e-001	5.426239e-001
46213800.000	8.360367e-001	5.425992e-001
46219794.000	8.360258e-001	5.425500e-001
46225788.000	8.360512e-001	5.424621e-001
46231782.000	8.361199e-001	5.423842e-001
46237776.000	8.361025e-001	5.423139e-001
46243770.000	8.361523e-001	5.423188e-001
46249764.000	8.362156e-001	5.421869e-001
46255758.000	8.362200e-001	5.421997e-001
46261752.000	8.362840e-001	5.420818e-001
46267746.000	8.362940e-001	5.420403e-001
46273740.000	8.364316e-001	5.419294e-001
46279734.000	8.364496e-001	5.419558e-001
46285728.000	8.364873e-001	5.418216e-001
46291722.000	8.365604e-001	5.417897e-001
46297716.000	8.365275e-001	5.416529e-001
46303710.000	8.365941e-001	5.416406e-001
46309704.000	8.366302e-001	5.415250e-001
46315698.000	8.366447e-001	5.415415e-001
46321692.000	8.366986e-001	5.415020e-001
46327686.000	8.367972e-001	5.413953e-001
46333680.000	8.367875e-001	5.413517e-001
46339674.000	8.368356e-001	5.412677e-001
46345668.000	8.369274e-001	5.412411e-001
46351662.000	8.369756e-001	5.411725e-001
46357656.000	8.369346e-001	5.411255e-001
46363650.000	8.370165e-001	5.410367e-001
46369644.000	8.370994e-001	5.409429e-001
46375638.000	8.371523e-001	5.408586e-001
46381632.000	8.371476e-001	5.407630e-001
46387626.000	8.372220e-001	5.407998e-001
46393620.000	8.372417e-001	5.406972e-001
46399614.000	8.372423e-001	5.406474e-001
46405608.000	8.373227e-001	5.405543e-001
46411602.000	8.373701e-001	5.405312e-001
46417596.000	8.374003e-001	5.404028e-001
46423590.000	8.373689e-001	5.404213e-001
46429584.000	8.374362e-001	5.403369e-001
46435578.000	8.375293e-001	5.402657e-001
46441572.000	8.375490e-001	5.402317e-001
46447566.000	8.376091e-001	5.400856e-001
46453560.000	8.376010e-001	5.400570e-001
46459554.000	8.376486e-001	5.400126e-001
46465548.000	8.376903e-001	5.399769e-001
46471542.000	8.377890e-001	5.398519e-001
46477536.000	8.378322e-001	5.398562e-001
46483530.000	8.379107e-001	5.397480e-001
46489524.000	8.379255e-001	5.397369e-001
46495518.000	8.379329e-001	5.396425e-001
46501512.000	8.379659e-001	5.395950e-001
46507506.000	8.380189e-001	5.395525e-001
46513500.000	8.380670e-001	5.394898e-001
46519494.000	8.380433e-001	5.393988e-001
46525488.000	8.381353e-001	5.393518e-001
46531482.000	8.381602e-001	5.393256e-001
46537476.000	8.381852e-001	5.391894e-001
46543470.000	8.382206e-001	5.391686e-001
46549464.000	8.382755e-001	5.390472e-001
46555458.000	8.382977e-001	5.390129e-001
46561452.000	8.383681e-001	5.389856e-001
46567446.000	8.383647e-001	5.388947e-001
46573440.000	8.384187e-001	5.388474e-001
46579434.000	8.384115e-001	5.387638e-001
46585428.000	8.385177e-001	5.386686e-001
46591422.000	8.385750e-001	5.386244e-001
46597416.000	8.386376e-001	5.386056e-001
46603410.000	8.386480e-001	5.385021e-001
46609404.000	8.387667e-001	5.384303e-001
46615398.000	8.387952e-001	5.383857e-001
46621392.000	8.388299e-001	5.383264e-001
46627386.000	8.388063e-001	5.382308e-001
46633380.000	8.388354e-001	5.381408e-001
46639374.000	8.389185e-001	5.380908e-001
46645368.000	8.389327e-001	5.380596e-001
46651362.000	8.390282e-001	5.380139e-001
46657356.000	8.390844e-001	5.379588e-001
46663350.000	8.390720e-001	5.378486e-001
46669344.000	8.391246e-001	5.378339e-001
46675338.000	8.391452e-001	5.377530e-001
46681332.000	8.391919e-001	5.377252e-001
46687326.000	8.392594e-001	5.376313e-001
46693320.000	8.392803e-001	5.375752e-001
46699314.000	8.393138e-001	5.375401e-001
46705308.000	8.393917e-001	5.374236e-001
46711302.000	8.393939e-001	5.373698e-001
46717296.000	8.394469e-001	5.373017e-001
46723290.000	8.395355e-001	5.372576e-001
46729284.000	8.395046e-001	5.372050e-001
46735278.000	8.394996e-001	5.371065e-001
46741272.000	8.396210e-001	5.370857e-001
46747266.000	8.396905e-001	5.369966e-001
46753260.000	8.396670e-001	5.369170e-001
46759254.000	8.397569e-001	5.368695e-001
46765248.000	8.397502e-001	5.368257e-001
46771242.000	8.398084e-001	5.367948e-001
46777236.000	8.398392e-001	5.367198e-001
46783230.000	8.398837e-001	5.366382e-001
46789224.000	8.399622e-001	5.365764e-001
46795218.000	8.399485e-001	5.365272e-001
46801212.000	8.399961e-001	5.364093e-001
46807206.000	8.400293e-001	5.363781e-001
46813200.000	8.401496e-001	5.363642e-001
46819194.000	8.401196e-001	5.363066e-001
46825188.000	8.402336e-001	5.361897e-001
46831182.000	8.402055e-001	5.361505e-001
46837176.000	8.402625e-001	5.360726e-001
46843170.000	8.402782e-001	5.360528e-001
46849164.000	8.403576e-001	5.359521e-001
46855158.000	8.403911e-001	5.359271e-001
46861152.000	8.403809e-001	5.358404e-001
46867146.000	8.404100e-001	5.357520e-001
46873140.000	8.404470e-001	5.356903e-001
46879134.000	8.404696e-001	5.356562e-001
46885128.000	8.405611e-001	5.355472e-001
46891122.000	8.406100e-001	5.355155e-001
46897116.000	8.407053e-001	5.354450e-001
46903110.000	8.407222e-001	5.354121e-001
46909104.000	8.407597e-001	5.353270e-001
46915098.000	8.407458e-001	5.353222e-001
46921092.000	8.407899e-001	5.352034e-001
46927086.000	8.407754e-001	5.351679e-001
46933080.000	8.408863e-001	5.350820e-001
46939074.000	8.409075e-001	5.350119e-001
46945068.000	8.409329e-001	5.349330e-001
46951062.000	8.409763e-001	5.348921e-001
46957056.000	8.410905e-001	5.348572e-001
46963050.000	8.410784e-001	5.347615e-001
46969044.000	8.411432e-001	5.347286e-001
46975038.000	8.411682e-001	5.346651e-001
46981032.000	8.412130e-001	5.346056e-001
46987026.000	8.412484e-001	5.345098e-001
46993020.000	8.413055e-001	5.344440e-001
46999014.000	8.412969e-001	5.344001e-001
47005008.000	8.413568e-001	5.343054e-001
47011002.000	8.413604e-001	5.342371e-001
47016996.000	8.414469e-001	5.342123e-001
47022990.000	8.414740e-001	5.341414e-001
47028984.000	8.415315e-001	5.340393e-001
47034978.000	8.415352e-001	5.340731e-001
47040972.000	8.416128e-001	5.339650e-001
47046966.000	8.416804e-001	5.338924e-001
47052960.000	8.416592e-001	5.337851e-001
47058954.000	8.417084e-001	5.337398e-001
47064948.000	8.417441e-001	5.336868e-001
47070942.000	8.417884e-001	5.336717e-001
47076936.000	8.418706e-001	5.336351e-001
47082930.000	8.418821e-001	5.335255e-001
47088924.000	8.418986e-001	5.334469e-001
47094918.000	8.419465e-001	5.334676e-001
47100912.000	8.419775e-001	5.333821e-001
47106906.000	8.420593e-001	5.332630e-001
47112900.000	8.420826e-001	5.332491e-001
47118894.000	8.421196e-001	5.331904e-001
47124888.000	8.421403e-001	5.330969e-001
47130882.000	8.422062e-001	5.330977e-001
47136876.000	8.422439e-001	5.329886e-001
47142870.000	8.423129e-001	5.329164e-001
47148864.000	8.423483e-001	5.329559e-001
47154858.000	8.423551e-001	5.328424e-001
47160852.000	8.424605e-001	5.327473e-001
47166846.000	8.424725e-001	5.327084e-001
47172840.000	8.424878e-001	5.326442e-001
47178834.000	8.425462e-001	5.325430e-001
47184828.000	8.426356e-001	5.325555e-001
47190822.000	8.426474e-001	5.324963e-001
47196816.000	8.426642e-001	5.324249e-001
47202810.000	8.426959e-001	5.323394e-001
47208804.000	8.427037e-001	5.322539e-001
47214798.000	8.427696e-001	5.321804e-001
47220792.000	8.427900e-001	5.320593e-001
47226786.000	8.428392e-001	5.320524e-001
47232780.000	8.428684e-001	5.319778e-001
47238774.000	8.428826e-001	5.319466e-001
47244768.000	8.428772e-001	5.318262e-001
47250762.000	8.429587e-001	5.318055e-001
47256756.000	8.430315e-001	5.317072e-001
47262750.000	8.430841e-001	5.316893e-001
47268744.000	8.430647e-001	5.315804e-001
47274738.000	8.431088e-001	5.315272e-001
47280732.000	8.431577e-001	5.315100e-001
47286726.000	8.432437e-001	5.314628e-001
47292720.000	8.433072e-001	5.313697e-001
47298714.000	8.433181e-001	5.313573e-001
47304708.000	8.433253e-001	5.313220e-001
47310702.000	8.434158e-001	5.312386e-001
47316696.000	8.434294e-001	5.311234e-001
47322690.000	8.435004e-001	5.311179e-001
47328684.000	8.435383e-001	5.310344e-001
47334678.000	8.436141e-001	5.309436e-001
47340672.000	8.435914e-001	5.308499e-001
47346666.000	8.436267e-001	5.308506e-001
47352660.000	8.437150e-001	5.307637e-001
47358654.000	8.437321e-001	5.306778e-001
47364648.000	8.437605e-001	5.306234e-001
47370642.000	8.437629e-001	5.306115e-001
47376636.000	8.438358e-001	5.305071e-001
47382630.000	8.438819e-001	5.304544e-001
47388624.000	8.438484e-001	5.303793e-001
47394618.000	8.439757e-001	5.303579e-001
47400612.000	8.439333e-001	5.302929e-001
47406606.000	8.439645e-001	5.301894e-001
47412600.000	8.440421e-001	5.301739e-001
47418594.000	8.441004e-001	5.301808e-001
47424588.000	8.440927e-001	5.300367e-001
47430582.000	8.441641e-001	5.299912e-001
47436576.000	8.441792e-001	5.299326e-001
47442570.000	8.442435e-001	5.298570e-001
47448564.000	8.442866e-001	5.297671e-001
47454558.000	8.443077e-001	5.296980e-001
47460552.000	8.444315e-001	5.296156e-001
47466546.000	8.444106e-001	5.295652e-001
47472540.000	8.444198e-001	5.295117e-001
47478534.000	8.444917e-001	5.294608e-001
47484528.000	8.445401e-001	5.293787e-001
47490522.000	8.445289e-001	5.292793e-001
47496516.000	8.445919e-001	5.292893e-001
47502510.000	8.446637e-001	5.292066e-001
47508504.000	8.446782e-001	5.291227e-001
47514498.000	8.447431e-001	5.290794e-001
47520492.000	8.447567e-001	5.290058e-001
47526486.000	8.447892e-001	5.289448e-001
47532480.000	8.448422e-001	5.288821e-001
47538474.000	8.448890e-001	5.288458e-001
47544468.000	8.449333e-001	5.288115e-001
47550462.000	8.449372e-001	5.287338e-001
47556456.000	8.449623e-001	5.286713e-001
47562450.000	8.450251e-001	5.286049e-001
47568444.000	8.449794e-001	5.285344e-001
47574438.000	8.450563e-001	5.284377e-001
47580432.000	8.451171e-001	5.284537e-001
47586426.000	8.451476e-001	5.283086e-001
47592420.000	8.451858e-001	5.282820e-001
47598414.000	8.452091e-001	5.282105e-001
47604408.000	8.452747e-001	5.281790e-001
47610402.000	8.452703e-001	5.281081e-001
47616396.000	8.453467e-001	5.280267e-001
47622390.000	8.454008e-001	5.279847e-001
47628384.000	8.454125e-001	5.278997e-001
47634378.000	8.454528e-001	5.278826e-001
47640372.000	8.455459e-001	5.277882e-001
47646366.000	8.455473e-001	5.277401e-001
47652360.000	8.456214e-001	5.276687e-001
47658354.000	8.456414e-001	5.276754e-001
47664348.000	8.457043e-001	5.275195e-001
47670342.000	8.456970e-001	5.275395e-001
47676336.000	8.456949e-001	5.274959e-001
47682330.000	8.457343e-001	5.273537e-001
47688324.000	8.457958e-001	5.273557e-001
47694318.000	8.458074e-001	5.272564e-001
47700312.000	8.458544e-001	5.271655e-001
47706306.000	8.459172e-001	5.271932e-001
47712300.000	8.459124e-001	5.270564e-001
47718294.000	8.459403e-001	5.269886e-001
47724288.000	8.460642e-001	5.270065e-001
47730282.000	8.460910e-001	5.268866e-001
47736276.000	8.460710e-001	5.268913e-001
47742270.000	8.461721e-001	5.268089e-001
47748264.000	8.461771e-001	5.267607e-001
47754258.000	8.462350e-001	5.267063e-001
47760252.000	8.462298e-001	5.266550e-001
47766246.000	8.462712e-001	5.265240e-001
47772240.000	8.462752e-001	5.264858e-001
47778234.000	8.463257e-001	5.264396e-001
47784228.000	8.463980e-001	5.263537e-001
47790222.000	8.464912e-001	5.263775e-001
47796216.000	8.465065e-001	5.262618e-001
47802210.000	8.464991e-001	5.261995e-001
47808204.000	8.465928e-001	5.261557e-001
47814198.000	8.466489e-001	5.260486e-001
47820192.000	8.466493e-001	5.260211e-001
47826186.000	8.466578e-001	5.259683e-001
47832180.000	8.467469e-001	5.259504e-001
47838174.000	8.467401e-001	5.258209e-001
47844168.000	8.468375e-001	5.257783e-001
47850162.000	8.468594e-001	5.257303e-001
47856156.000	8.468655e-001	5.256425e-001
47862150.000	8.468880e-001	5.256165e-001
47868144.000	8.469176e-001	5.255399e-001
47874138.000	8.469794e-001	5.254006e-001
47880132.000	8.470076e-001	5.254302e-001
47886126.000	8.470237e-001	5.253404e-001
47892120.000	8.470619e-001	5.252975e-001
47898114.000	8.471192e-001	5.252494e-001
47904108.000	8.471647e-001	5.251535e-001
47910102.000	8.471990e-001	5.250939e-001
47916096.000	8.472440e-001	5.250374e-001
47922090.000	8.472523e-001	5.250330e-001
47928084.000	8.473377e-001	5.249336e-001
47934078.000	8.473527e-001	5.248650e-001
47940072.000	8.473837e-001	5.248296e-001
47946066.000	8.474191e-001	5.247951e-001
47952060.000	8.474243e-001	5.247084e-001
47958054.000	8.474922e-001	5.246609e-001
47964048.000	8.475643e-001	5.246077e-001
47970042.000	8.475945e-001	5.245147e-001
47976036.000	8.476331e-001	5.244162e-001
47982030.000	8.476846e-001	5.244404e-001
47988024.000	8.477742e-001	5.243472e-001
47994018.000	8.477842e-001	5.243049e-001
48000012.000	8.477780e-001	5.242080e-001
48006006.000	8.478102e-001	5.241302e-001
48012000.000	8.478417e-001	5.240825e-001
48017994.000	8.478898e-001	5.240372e-001
48023988.000	8.479646e-001	5.239429e-001
48029982.000	8.479285e-001	5.238908e-001
48035976.000	8.480162e-001	5.238677e-001
48041970.000	8.480742e-001	5.238398e-001
48047964.000	8.481136e-001	5.237433e-001
48053958.000	8.481452e-001	5.236799e-001
48059952.000	8.481311e-001	5.235579e-001
48065946.000	8.481771e-001	5.234764e-001
48071940.000	8.482602e-001	5.234889e-001
48077934.000	8.483271e-001	5.234560e-001
48083928.000	8.483405e-001	5.233734e-001
48089922.000	8.483754e-001	5.232462e-001
48095916.000	8.483843e-001	5.231998e-001
48101910.000	8.483739e-001	5.231307e-001
48107904.000	8.484697e-001	5.231329e-001
48113898.000	8.485101e-001	5.230254e-001
48119892.000	8.485064e-001	5.230149e-001
48125886.000	8.485766e-001	5.229440e-001
48131880.000	8.486145e-001	5.229352e-001
48137874.000	8.486358e-001	5.228450e-001
48143868.000	8.487050e-001	5.227668e-001
48149862.000	8.487710e-001	5.226934e-001
48155856.000	8.487767e-001	5.226782e-001
48161850.000	8.487939e-001	5.226448e-001
48167844.000	8.488535e-001	5.225312e-001
48173838.000	8.488636e-001	5.224841e-001
48179832.000	8.488998e-001	5.223642e-001
48185826.000	8.489207e-001	5.223866e-001
48191820.000	8.489558e-001	5.222632e-001
48197814.000	8.490011e-001	5.221902e-001
48203808.000	8.490430e-001	5.221525e-001
48209802.000	8.490746e-001	5.220435e-001
48215796.000	8.491251e-001	5.220561e-001
48221790.000	8.492085e-001	5.219691e-001
48227784.000	8.492186e-001	5.218986e-001
48233778.000	8.492685e-001	5.217927e-001
48239772.000	8.493243e-001	5.217689e-001
48245766.000	8.493522e-001	5.217599e-001
48251760.000	8.493367e-001	5.216751e-001
48257754.000	8.494115e-001	5.215883e-001
48263748.000	8.494226e-001	5.215228e-001
48269742.000	8.494704e-001	5.214635e-001
48275736.000	8.495160e-001	5.214281e-001
48281730.000	8.495288e-001	5.213596e-001
48287724.000	8.495707e-001	5.212668e-001
48293718.000	8.496393e-001	5.212589e-001
48299712.000	8.496489e-001	5.211842e-001
48305706.000	8.497216e-001	5.210964e-001
48311700.000	8.497049e-001	5.210686e-001
48317694.000	8.496718e-001	5.209857e-001
48323688.000	8.497255e-001	5.209290e-001
48329682.000	8.497833e-001	5.209073e-001
48335676.000	8.497891e-001	5.208270e-001
48341670.000	8.498563e-001	5.207586e-001
48347664.000	8.499066e-001	5.206990e-001
48353658.000	8.499127e-001	5.206491e-001
48359652.000	8.499664e-001	5.205958e-001
48365646.000	8.500079e-001	5.205794e-001
48371640.000	8.500946e-001	5.205342e-001
48377634.000	8.500954e-001	5.204240e-001
48383628.000	8.501649e-001	5.203399e-001
48389622.000	8.501855e-001	5.203472e-001
48395616.000	8.502343e-001	5.202856e-001
48401610.000	8.502436e-001	5.202326e-001
48407604.000	8.502536e-001	5.202176e-001
48413598.000	8.502987e-001	5.200925e-001
48419592.000	8.503037e-001	5.200117e-001
48425586.000	8.504584e-001	5.199970e-001
48431580.000	8.503788e-001	5.199379e-001
48437574.000	8.504629e-001	5.198298e-001
48443568.000	8.505026e-001	5.197980e-001
48449562.000	8.505437e-001	5.197040e-001
48455556.000	8.506108e-001	5.196861e-001
48461550.000	8.506258e-001	5.195894e-001
48467544.000	8.506591e-001	5.195748e-001
48473538.000	8.507093e-001	5.195346e-001
48479532.000	8.507458e-001	5.194204e-001
48485526.000	8.507549e-001	5.194149e-001
48491520.000	8.507616e-001	5.192861e-001
48497514.000	8.507957e-001	5.192371e-001
48503508.000	8.508890e-001	5.191939e-001
48509502.000	8.508941e-001	5.191416e-001
48515496.000	8.509657e-001	5.190722e-001
48521490.000	8.510361e-001	5.190014e-001
48527484.000	8.510103e-001	5.189556e-001
48533478.000	8.510818e-001	5.188632e-001
48539472.000	8.510764e-001	5.187996e-001
48545466.000	8.511145e-001	5.187687e-001
48551460.000	8.511605e-001	5.187045e-001
48557454.000	8.511733e-001	5.186151e-001
48563448.000	8.512068e-001	5.185563e-001
48569442.000	8.512900e-001	5.184940e-001
48575436.000	8.512619e-001	5.184090e-001
48581430.000	8.513867e-001	5.184330e-001
48587424.000	8.513911e-001	5.183514e-001
48593418.000	8.514625e-001	5.183359e-001
48599412.000	8.514964e-001	5.182591e-001
48605406.000	8.514850e-001	5.182283e-001
48611400.000	8.515193e-001	5.182158e-001
48617394.000	8.515723e-001	5.180830e-001
48623388.000	8.516259e-001	5.180717e-001
48629382.000	8.516697e-001	5.179235e-001
48635376.000	8.517135e-001	5.179403e-001
48641370.000	8.517338e-001	5.178495e-001
48647364.000	8.518079e-001	5.178052e-001
48653358.000	8.518205e-001	5.177538e-001
48659352.000	8.518921e-001	5.176934e-001
48665346.000	8.518939e-001	5.176581e-001
48671340.000	8.518636e-001	5.175396e-001
48677334.000	8.519856e-001	5.174737e-001
48683328.000	8.520245e-001	5.174608e-001
48689322.000	8.520124e-001	5.173746e-001
48695316.000	8.520578e-001	5.173304e-001
48701310.000	8.521555e-001	5.171974e-001
48707304.000	8.521704e-001	5.172350e-001
48713298.000	8.521920e-001	5.171292e-001
48719292.000	8.522059e-001	5.170291e-001
48725286.000	8.522335e-001	5.170123e-001
48731280.000	8.522925e-001	5.169433e-001
48737274.000	8.523245e-001	5.169008e-001
48743268.000	8.523477e-001	5.168396e-001
48749262.000	8.524253e-001	5.167805e-001
48755256.000	8.524552e-001	5.167541e-001
48761250.000	8.524702e-001	5.166862e-001
48767244.000	8.524914e-001	5.165546e-001
48773238.000	8.525590e-001	5.165263e-001
48779232.000	8.525949e-001	5.164525e-001
48785226.000	8.525922e-001	5.164325e-001
48791220.000	8.526750e-001	5.163435e-001
48797214.000	8.527064e-001	5.163161e-001
48803208.000	8.527433e-001	5.162475e-001
48809202.000	8.527647e-001	5.162008e-001
48815196.000	8.528327e-001	5.161786e-001
48821190.000	8.528687e-001	5.160599e-001
48827184.000	8.528867e-001	5.159824e-001
48833178.000	8.529329e-001	5.159558e-001
48839172.000	8.529446e-001	5.158626e-001
48845166.000	8.530217e-001	5.158000e-001
48851160.000	8.529998e-001	5.157398e-001
48857154.000	8.530708e-001	5.157075e-001
48863148.000	8.531332e-001	5.156577e-001
48869142.000	8.530844e-001	5.155703e-001
48875136.000	8.531049e-001	5.155134e-001
48881130.000	8.531524e-001	5.154601e-001
48887124.000	8.531814e-001	5.154092e-001
48893118.000	8.532745e-001	5.153927e-001
48899112.000	8.533152e-001	5.152990e-001
48905106.000	8.533272e-001	5.152408e-001
48911100.000	8.533756e-001	5.151979e-001
48917094.000	8.533725e-001	5.151312e-001
48923088.000	8.534034e-001	5.150496e-001
48929082.000	8.535122e-001	5.150604e-001
48935076.000	8.534566e-001	5.149361e-001
48941070.000	8.534993e-001	5.148109e-001
48947064.000	8.536203e-001	5.148167e-001
48953058.000	8.536216e-001	5.147368e-001
48959052.000	8.536347e-001	5.147140e-001
48965046.000	8.536830e-001	5.146637e-001
48971040.000	8.537003e-001	5.145764e-001
48977034.000	8.537675e-001	5.145514e-001
48983028.000	8.538405e-001	5.145141e-001
48989022.000	8.538239e-001	5.144272e-001
48995016.000	8.538178e-001	5.143241e-001
49001010.000	8.539464e-001	5.146701e-001
49007004.000	8.539249e-001	5.143946e-001
49012998.000	8.539434e-001	5.143349e-001
49018992.000	8.540015e-001	5.141861e-001
49024986.000	8.539830e-001	5.141904e-001
49030980.000	8.540464e-001	5.141017e-001
49036974.000	8.540647e-001	5.141066e-001
49042968.000	8.541196e-001	5.139482e-001
49048962.000	8.541649e-001	5.139879e-001
49054956.000	8.541587e-001	5.138731e-001
49060950.000	8.542464e-001	5.138285e-001
49066944.000	8.543019e-001	5.138137e-001
49072938.000	8.543001e-001	5.137084e-001
49078932.000	8.543133e-001	5.136741e-001
49084926.000	8.543529e-001	5.135582e-001
49090920.000	8.543662e-001	5.135484e-001
49096914.000	8.544598e-001	5.134797e-001
49102908.000	8.544716e-001	5.133547e-001
49108902.000	8.545109e-001	5.133855e-001
49114896.000	8.545739e-001	5.133168e-001
49120890.000	8.545866e-001	5.132903e-001
49126884.000	8.546030e-001	5.132071e-001
49132878.000	8.546469e-001	5.131472e-001
49138872.000	8.546900e-001	5.130916e-001
49144866.000	8.547351e-001	5.130347e-001
49150860.000	8.547548e-001	5.129284e-001
49156854.000	8.547967e-001	5.128938e-001
49162848.000	8.548835e-001	5.128306e-001
49168842.000	8.548975e-001	5.127674e-001
49174836.000	8.548552e-001	5.126590e-001
49180830.000	8.549230e-001	5.126269e-001
49186824.000	8.549660e-001	5.126468e-001
49192818.000	8.550219e-001	5.125656e-001
49198812.000	8.550434e-001	5.124545e-001
49204806.000	8.550502e-001	5.124049e-001
49210800.000	8.550626e-001	5.123095e-001
49216794.000	8.550604e-001	5.123238e-001
49222788.000	8.551663e-001	5.121898e-001
49228782.000	8.551936e-001	5.121710e-001
49234776.000	8.552199e-001	5.121230e-001
49240770.000	8.552374e-001	5.120439e-001
49246764.000	8.552933e-001	5.119616e-001
49252758.000	8.553171e-001	5.119820e-001
49258752.000	8.553818e-001	5.119027e-001
49264746.000	8.553855e-001	5.118349e-001
49270740.000	8.554520e-001	5.117899e-001
49276734.000	8.554849e-001	5.117137e-001
49282728.000	8.555324e-001	5.116355e-001
49288722.000	8.555879e-001	5.115873e-001
49294716.000	8.555982e-001	5.115430e-001
49300710.000	8.556445e-001	5.114769e-001
49306704.000	8.556278e-001	5.114226e-001
49312698.000	8.557545e-001	5.114093e-001
49318692.000	8.557280e-001	5.113349e-001
49324686.000	8.558042e-001	5.113085e-001
49330680.000	8.557848e-001	5.112295e-001
49336674.000	8.558728e-001	5.111381e-001
49342668.000	8.559046e-001	5.110855e-001
49348662.000	8.559092e-001	5.110828e-001
49354656.000	8.559104e-001	5.109484e-001
49360650.000	8.559208e-001	5.109094e-001
49366644.000	8.559982e-001	5.108584e-001
49372638.000	8.560215e-001	5.107850e-001
49378632.000	8.560935e-001	5.107428e-001
49384626.000	8.561075e-001	5.106738e-001
49390620.000	8.561521e-001	5.106183e-001
49396614.000	8.561692e-001	5.105709e-001
49402608.000	8.562040e-001	5.105274e-001
49408602.000	8.562256e-001	5.104754e-001
49414596.000	8.562577e-001	5.103794e-001
49420590.000	8.563225e-001	5.103019e-001
49426584.000	8.563691e-001	5.102999e-001
49432578.000	8.563809e-001	5.102471e-001
49438572.000	8.563979e-001	5.101739e-001
49444566.000	8.564149e-001	5.100944e-001
49450560.000	8.564239e-001	5.100851e-001
49456554.000	8.565177e-001	5.100159e-001
49462548.000	8.565659e-001	5.099530e-001
49468542.000	8.565905e-001	5.098741e-001
49474536.000	8.566368e-001	5.098406e-001
49480530.000	8.566169e-001	5.098128e-001
49486524.000	8.566312e-001	5.096561e-001
49492518.000	8.567146e-001	5.096537e-001
49498512.000	8.567822e-001	5.095666e-001
49504506.000	8.568083e-001	5.095352e-001
49510500.000	8.568416e-001	5.094826e-001
49516494.000	8.568857e-001	5.093704e-001
49522488.000	8.568768e-001	5.093768e-001
49528482.000	8.569327e-001	5.092777e-001
49534476.000	8.569180e-001	5.092354e-001
49540470.000	8.569595e-001	5.092012e-001
49546464.000	8.570342e-001	5.091611e-001
49552458.000	8.570851e-001	5.090956e-001
49558452.000	8.571312e-001	5.090039e-001
49564446.000	8.571476e-001	5.089599e-001
49570440.000	8.572420e-001	5.089219e-001
49576434.000	8.571835e-001	5.088152e-001
49582428.000	8.572833e-001	5.087833e-001
49588422.000	8.572831e-001	5.087112e-001
49594416.000	8.573750e-001	5.086189e-001
49600410.000	8.573522e-001	5.085681e-001
49606404.000	8.573907e-001	5.085585e-001
49612398.000	8.574215e-001	5.084416e-001
49618392.000	8.574698e-001	5.084262e-001
49624386.000	8.575025e-001	5.083916e-001
49630380.000	8.575397e-001	5.083410e-001
49636374.000	8.575820e-001	5.082196e-001
49642368.000	8.576326e-001	5.081723e-001
49648362.000	8.576366e-001	5.081705e-001
49654356.000	8.576768e-001	5.081205e-001
49660350.000	8.577079e-001	5.080759e-001
49666344.000	8.577563e-001	5.079913e-001
49672338.000	8.577485e-001	5.079455e-001
49678332.000	8.577452e-001	5.078160e-001
49684326.000	8.578293e-001	5.078177e-001
49690320.000	8.578586e-001	5.077370e-001
49696314.000	8.579155e-001	5.077056e-001
49702308.000	8.580152e-001	5.076075e-001
49708302.000	8.579725e-001	5.075790e-001
49714296.000	8.580790e-001	5.075458e-001
49720290.000	8.580601e-001	5.074056e-001
49726284.000	8.580669e-001	5.074251e-001
49732278.000	8.581604e-001	5.073315e-001
49738272.000	8.581682e-001	5.072621e-001
49744266.000	8.582000e-001	5.072729e-001
49750260.000	8.582494e-001	5.071125e-001
49756254.000	8.582523e-001	5.071215e-001
49762248.000	8.582758e-001	5.070444e-001
49768242.000	8.583089e-001	5.069999e-001
49774236.000	8.583288e-001	5.069018e-001
49780230.000	8.584026e-001	5.068804e-001
49786224.000	8.584449e-001	5.068256e-001
49792218.000	8.584266e-001	5.067794e-001
49798212.000	8.584903e-001	5.066958e-001
49804206.000	8.585147e-001	5.066303e-001
49810200.000	8.585647e-001	5.065913e-001
49816194.000	8.586147e-001	5.065195e-001
49822188.000	8.586150e-001	5.064353e-001
49828182.000	8.586606e-001	5.064291e-001
49834176.000	8.587031e-001	5.063959e-001
49840170.000	8.587823e-001	5.063473e-001
49846164.000	8.587726e-001	5.061981e-001
49852158.000	8.588058e-001	5.061819e-001
49858152.000	8.588214e-001	5.061077e-001
49864146.000	8.588672e-001	5.060623e-001
49870140.000	8.589273e-001	5.060035e-001
49876134.000	8.589614e-001	5.059542e-001
49882128.000	8.589806e-001	5.058813e-001
49888122.000	8.589958e-001	5.058356e-001
49894116.000	8.590677e-001	5.058329e-001
49900110.000	8.590715e-001	5.057432e-001
49906104.000	8.591585e-001	5.056703e-001
49912098.000	8.591685e-001	5.055986e-001
49918092.000	8.591924e-001	5.055319e-001
49924086.000	8.592099e-001	5.055196e-001
49930080.000	8.592410e-001	5.054078e-001
49936074.000	8.593097e-001	5.053927e-001
49942068.000	8.593064e-001	5.053554e-001
49948062.000	8.593665e-001	5.052856e-001
49954056.000	8.594157e-001	5.052018e-001
49960050.000	8.594373e-001	5.052162e-001
49966044.000	8.594193e-001	5.050941e-001
49972038.000	8.595421e-001	5.050734e-001
49978032.000	8.595623e-001	5.049870e-001
49984026.000	8.595515e-001	5.049218e-001
49990020.000	8.595481e-001	5.048926e-001
49996014.000	8.596132e-001	5.048230e-001
50002008.000	8.596318e-001	5.048206e-001
50008002.000	8.596197e-001	5.047329e-001
50013996.000	8.597491e-001	5.046156e-001
50019990.000	8.597064e-001	5.045809e-001
50025984.000	8.597922e-001	5.045360e-001
50031978.000	8.598194e-001	5.044507e-001
50037972.000	8.598478e-001	5.044237e-001
50043966.000	8.599141e-001	5.043781e-001
50049960.000	8.598906e-001	5.042141e-001
50055954.000	8.599615e-001	5.042055e-001
50061948.000	8.599991e-001	5.041866e-001
50067942.000	8.600477e-001	5.040659e-001
50073936.000	8.600664e-001	5.040524e-001
50079930.000	8.600726e-001	5.039923e-001
50085924.000	8.601672e-001	5.039544e-001
50091918.000	8.601731e-001	5.039191e-001
50097912.000	8.602118e-001	5.038270e-001
50103906.000	8.602660e-001	5.038111e-001
50109900.000	8.602826e-001	5.037221e-001
50115894.000	8.603041e-001	5.037044e-001
50121888.000	8.603496e-001	5.036826e-001
50127882.000	8.603999e-001	5.035658e-001
50133876.000	8.604081e-001	5.035671e-001
50139870.000	8.603887e-001	5.034988e-001
50145864.000	8.604474e-001	5.034399e-001
50151858.000	8.604968e-001	5.034147e-001
50157852.000	8.605000e-001	5.032883e-001
50163846.000	8.605529e-001	5.032971e-001
50169840.000	8.605673e-001	5.031510e-001
50175834.000	8.606030e-001	5.031517e-001
50181828.000	8.606801e-001	5.030689e-001
50187822.000	8.606743e-001	5.029909e-001
50193816.000	8.606966e-001	5.029521e-001
50199810.000	8.607570e-001	5.028958e-001
50205804.000	8.607881e-001	5.027954e-001
50211798.000	8.607899e-001	5.027905e-001
50217792.000	8.608184e-001	5.026981e-001
50223786.000	8.608750e-001	5.026726e-001
50229780.000	8.608539e-001	5.025965e-001
50235774.000	8.609014e-001	5.026200e-001
50241768.000	8.610576e-001	5.025377e-001
50247762.000	8.610789e-001	5.024743e-001
50253756.000	8.610410e-001	5.024204e-001
50259750.000	8.610437e-001	5.023931e-001
50265744.000	8.610930e-001	5.022755e-001
50271738.000	8.611168e-001	5.022522e-001
50277732.000	8.611485e-001	5.021833e-001
50283726.000	8.611410e-001	5.020682e-001
50289720.000	8.612284e-001	5.020484e-001
50295714.000	8.612560e-001	5.020307e-001
50301708.000	8.613363e-001	5.019699e-001
50307702.000	8.614083e-001	5.018507e-001
50313696.000	8.614215e-001	5.018145e-001
50319690.000	8.614159e-001	5.017550e-001
50325684.000	8.614615e-001	5.016853e-001
50331678.000	8.614844e-001	5.017033e-001
50337672.000	8.615130e-001	5.015752e-001
50343666.000	8.616497e-001	5.015787e-001
50349660.000	8.616596e-001	5.015069e-001
50355654.000	8.616526e-001	5.014419e-001
50361648.000	8.616226e-001	5.013685e-001
50367642.000	8.616540e-001	5.012912e-001
50373636.000	8.617472e-001	5.012670e-001
50379630.000	8.617434e-001	5.011850e-001
50385624.000	8.618395e-001	5.011755e-001
50391618.000	8.617649e-001	5.011070e-001
50397612.000	8.618669e-001	5.010491e-001
50403606.000	8.618664e-001	5.009539e-001
50409600.000	8.618858e-001	5.009605e-001
50415594.000	8.619841e-001	5.008783e-001
50421588.000	8.620166e-001	5.008337e-001
50427582.000	8.620423e-001	5.007837e-001
50433576.000	8.620620e-001	5.007711e-001
50439570.000	8.620666e-001	5.006561e-001
50445564.000	8.621599e-001	5.006038e-001
50451558.000	8.621443e-001	5.005559e-001
50457552.000	8.622000e-001	5.004748e-001
50463546.000	8.622107e-001	5.004075e-001
50469540.000	8.622233e-001	5.003423e-001
50475534.000	8.622621e-001	5.002593e-001
50481528.000	8.622758e-001	5.002543e-001
50487522.000	8.623115e-001	5.001739e-001
50493516.000	8.623654e-001	5.001549e-001
50499510.000	8.624155e-001	5.000495e-001
50505504.000	8.624443e-001	5.000529e-001
50511498.000	8.624622e-001	4.999162e-001
50517492.000	8.624616e-001	4.998931e-001
50523486.000	8.624891e-001	4.998430e-001
50529480.000	8.625314e-001	4.997903e-001
50535474.000	8.625535e-001	4.997082e-001
50541468.000	8.625885e-001	4.996803e-001
50547462.000	8.626484e-001	4.996316e-001
50553456.000	8.627020e-001	4.995749e-001
50559450.000	8.627101e-001	4.995601e-001
50565444.000	8.627457e-001	4.994463e-001
50571438.000	8.627630e-001	4.993874e-001
50577432.000	8.627709e-001	4.993083e-001
50583426.000	8.628572e-001	4.992606e-001
50589420.000	8.628688e-001	4.992591e-001
50595414.000	8.629351e-001	4.991604e-001
50601408.000	8.629426e-001	4.991286e-001
50607402.000	8.629463e-001	4.990809e-001
50613396.000	8.629877e-001	4.990331e-001
50619390.000	8.630576e-001	4.989980e-001
50625384.000	8.630942e-001	4.989783e-001
50631378.000	8.631224e-001	4.988712e-001
50637372.000	8.631532e-001	4.988543e-001
50643366.000	8.631529e-001	4.987114e-001
50649360.000	8.631835e-001	4.987233e-001
50655354.000	8.632987e-001	4.986954e-001
50661348.000	8.633078e-001	4.985811e-001
50667342.000	8.633190e-001	4.984792e-001
50673336.000	8.633291e-001	4.984761e-001
50679330.000	8.633677e-001	4.984181e-001
50685324.000	8.634196e-001	4.983578e-001
50691318.000	8.634384e-001	4.983337e-001
50697312.000	8.634398e-001	4.982536e-001
50703306.000	8.635519e-001	4.982208e-001
50709300.000	8.635674e-001	4.981755e-001
50715294.000	8.635952e-001	4.981558e-001
50721288.000	8.635992e-001	4.980189e-001
50727282.000	8.636893e-001	4.979940e-001
50733276.000	8.636880e-001	4.979297e-001
50739270.000	8.636630e-001	4.978913e-001
50745264.000	8.637206e-001	4.978251e-001
50751258.000	8.637417e-001	4.977875e-001
50757252.000	8.637825e-001	4.976853e-001
50763246.000	8.638731e-001	4.976332e-001
50769240.000	8.638548e-001	4.975933e-001
50775234.000	8.639243e-001	4.975523e-001
50781228.000	8.639407e-001	4.974958e-001
50787222.000	8.639855e-001	4.974078e-001
50793216.000	8.640492e-001	4.973872e-001
50799210.000	8.640171e-001	4.973609e-001
50805204.000	8.640999e-001	4.972400e-001
50811198.000	8.640763e-001	4.971868e-001
50817192.000	8.641322e-001	4.971395e-001
50823186.000	8.641657e-001	4.971044e-001
50829180.000	8.642103e-001	4.970243e-001
50835174.000	8.642060e-001	4.969663e-001
50841168.000	8.642218e-001	4.969309e-001
50847162.000	8.643091e-001	4.968924e-001
50853156.000	8.643008e-001	4.967855e-001
50859150.000	8.642952e-001	4.967193e-001
50865144.000	8.643442e-001	4.967509e-001
50871138.000	8.643992e-001	4.966453e-001
50877132.000	8.644909e-001	4.966448e-001
50883126.000	8.644428e-001	4.965268e-001
50889120.000	8.645084e-001	4.964338e-001
50895114.000	8.645268e-001	4.964047e-001
50901108.000	8.645929e-001	4.963316e-001
50907102.000	8.646830e-001	4.963258e-001
50913096.000	8.646372e-001	4.962514e-001
50919090.000	8.646709e-001	4.962332e-001
50925084.000	8.646605e-001	4.961266e-001
50931078.000	8.647523e-001	4.960728e-001
50937072.000	8.647299e-001	4.960426e-001
50943066.000	8.647847e-001	4.959821e-001
50949060.000	8.648482e-001	4.958937e-001
50955054.000	8.648557e-001	4.959001e-001
50961048.000	8.649023e-001	4.958748e-001
50967042.000	8.649117e-001	4.957764e-001
50973036.000	8.650353e-001	4.957192e-001
50979030.000	8.649883e-001	4.956858e-001
50985024.000	8.650483e-001	4.956421e-001
50991018.000	8.651305e-001	4.955344e-001
50997012.000	8.651228e-001	4.955052e-001
51003006.000	8.651557e-001	4.954280e-001
51009000.000	8.651829e-001	4.954376e-001
51014994.000	8.651992e-001	4.953182e-001
51020988.000	8.652261e-001	4.952716e-001
51026982.000	8.652710e-001	4.952364e-001
51032976.000	8.653151e-001	4.951716e-001
51038970.000	8.653411e-001	4.951301e-001
51044964.000	8.653820e-001	4.950377e-001
51050958.000	8.653869e-001	4.950124e-001
51056952.000	8.654520e-001	4.949346e-001
51062946.000	8.654809e-001	4.948871e-001
51068940.000	8.655019e-001	4.948482e-001
51074934.000	8.655084e-001	4.947174e-001
51080928.000	8.656251e-001	4.947060e-001
51086922.000	8.656002e-001	4.946213e-001
51092916.000	8.655942e-001	4.945870e-001
51098910.000	8.656144e-001	4.945185e-001
51104904.000	8.656535e-001	4.944737e-001
51110898.000	8.657185e-001	4.944674e-001
51116892.000	8.657344e-001	4.944009e-001
51122886.000	8.657746e-001	4.942602e-001
51128880.000	8.657579e-001	4.942609e-001
51134874.000	8.659211e-001	4.942254e-001
51140868.000	8.658615e-001	4.940828e-001
51146862.000	8.658926e-001	4.940521e-001
51152856.000	8.659425e-001	4.940655e-001
51158850.000	8.659668e-001	4.939977e-001
51164844.000	8.660260e-001	4.939504e-001
51170838.000	8.660344e-001	4.938521e-001
51176832.000	8.660497e-001	4.937723e-001
51182826.000	8.660727e-001	4.937615e-001
51188820.000	8.661524e-001	4.937244e-001
51194814.000	8.661775e-001	4.936899e-001
51200808.000	8.662159e-001	4.935682e-001
51206802.000	8.662092e-001	4.934854e-001
51212796.000	8.662742e-001	4.934681e-001
51218790.000	8.663500e-001	4.934332e-001
51224784.000	8.663336e-001	4.933819e-001
51230778.000	8.663321e-001	4.933515e-001
51236772.000	8.663725e-001	4.932908e-001
51242766.000	8.664137e-001	4.932399e-001
51248760.000	8.664599e-001	4.931408e-001
51254754.000	8.664518e-001	4.931051e-001
51260748.000	8.665052e-001	4.930395e-001
51266742.000	8.665316e-001	4.929608e-001
51272736.000	8.665301e-001	4.929108e-001
51278730.000	8.666445e-001	4.928664e-001
51284724.000	8.666293e-001	4.928207e-001
51290718.000	8.666096e-001	4.927398e-001
51296712.000	8.666623e-001	4.927403e-001
51302706.000	8.667355e-001	4.926377e-001
51308700.000	8.667138e-001	4.925277e-001
51314694.000	8.667883e-001	4.925140e-001
51320688.000	8.667664e-001	4.924894e-001
51326682.000	8.668387e-001	4.924100e-001
51332676.000	8.668078e-001	4.923743e-001
51338670.000	8.669017e-001	4.923066e-001
51344664.000	8.669564e-001	4.922506e-001
51350658.000	8.669798e-001	4.922065e-001
51356652.000	8.669415e-001	4.921891e-001
51362646.000	8.670389e-001	4.921040e-001
51368640.000	8.670856e-001	4.920602e-001
51374634.000	8.670623e-001	4.919671e-001
51380628.000	8.671279e-001	4.919518e-001
51386622.000	8.671738e-001	4.918674e-001
51392616.000	8.671223e-001	4.918031e-001
51398610.000	8.672108e-001	4.917227e-001
51404604.000	8.672244e-001	4.917653e-001
51410598.000	8.672885e-001	4.916516e-001
51416592.000	8.672915e-001	4.916109e-001
51422586.000	8.673749e-001	4.916220e-001
51428580.000	8.673895e-001	4.914972e-001
51434574.000	8.673988e-001	4.914454e-001
51440568.000	8.674569e-001	4.913502e-001
51446562.000	8.674966e-001	4.913144e-001
51452556.000	8.675314e-001	4.912594e-001
51458550.000	8.675276e-001	4.912005e-001
51464544.000	8.675552e-001	4.911426e-001
51470538.000	8.675948e-001	4.911271e-001
51476532.000	8.676018e-001	4.910988e-001
51482526.000	8.676270e-001	4.910475e-001
51488520.000	8.676989e-001	4.909616e-001
51494514.000	8.676933e-001	4.908843e-001
51500508.000	8.677123e-001	4.908386e-001
51506502.000	8.677976e-001	4.907578e-001
51512496.000	8.678421e-001	4.907722e-001
51518490.000	8.678735e-001	4.907118e-001
51524484.000	8.678965e-001	4.905998e-001
51530478.000	8.679340e-001	4.906085e-001
51536472.000	8.679620e-001	4.905526e-001
51542466.000	8.679529e-001	4.904732e-001
51548460.000	8.679679e-001	4.904245e-001
51554454.000	8.680337e-001	4.903941e-001
51560448.000	8.680717e-001	4.903194e-001
51566442.000	8.680841e-001	4.902549e-001
51572436.000	8.681443e-001	4.901874e-001
51578430.000	8.681379e-001	4.901509e-001
51584424.000	8.681572e-001	4.900908e-001
51590418.000	8.681739e-001	4.899856e-001
51596412.000	8.681876e-001	4.899670e-001
51602406.000	8.682821e-001	4.899233e-001
51608400.000	8.682550e-001	4.898783e-001
51614394.000	8.682962e-001	4.898205e-001
51620388.000	8.683821e-001	4.897689e-001
51626382.000	8.683703e-001	4.897194e-001
51632376.000	8.684205e-001	4.896538e-001
51638370.000	8.684314e-001	4.895831e-001
51644364.000	8.684343e-001	4.895268e-001
51650358.000	8.685022e-001	4.894656e-001
51656352.000	8.685123e-001	4.894326e-001
51662346.000	8.685313e-001	4.893749e-001
51668340.000	8.685597e-001	4.893432e-001
51674334.000	8.686040e-001	4.893054e-001
51680328.000	8.686430e-001	4.892166e-001
51686322.000	8.686735e-001	4.891856e-001
51692316.000	8.687137e-001	4.890643e-001
51698310.000	8.687582e-001	4.890799e-001
51704304.000	8.687654e-001	4.890066e-001
51710298.000	8.688138e-001	4.889760e-001
51716292.000	8.688255e-001	4.888834e-001
51722286.000	8.688872e-001	4.888895e-001
51728280.000	8.689182e-001	4.888167e-001
51734274.000	8.689075e-001	4.887275e-001
51740268.000	8.688840e-001	4.886434e-001
51746262.000	8.690095e-001	4.886432e-001
51752256.000	8.689759e-001	4.885680e-001
51758250.000	8.690470e-001	4.884492e-001
51764244.000	8.690562e-001	4.884622e-001
51770238.000	8.691249e-001	4.883621e-001
51776232.000	8.691620e-001	4.883819e-001
51782226.000	8.691976e-001	4.883136e-001
51788220.000	8.692076e-001	4.882030e-001
51794214.000	8.692502e-001	4.881449e-001
51800208.000	8.692714e-001	4.881044e-001
51806202.000	8.692870e-001	4.880154e-001
51812196.000	8.693547e-001	4.880254e-001
51818190.000	8.693975e-001	4.879494e-001
51824184.000	8.693862e-001	4.878671e-001
51830178.000	8.694345e-001	4.878757e-001
51836172.000	8.694653e-001	4.878053e-001
51842166.000	8.694953e-001	4.877259e-001
51848160.000	8.695316e-001	4.876876e-001
51854154.000	8.695734e-001	4.876808e-001
51860148.000	8.695484e-001	4.876186e-001
51866142.000	8.696101e-001	4.875346e-001
51872136.000	8.696737e-001	4.874854e-001
51878130.000	8.696829e-001	4.874449e-001
51884124.000	8.696867e-001	4.873917e-001
51890118.000	8.697340e-001	4.873722e-001
51896112.000	8.697612e-001	4.873401e-001
51902106.000	8.697893e-001	4.872377e-001
51908100.000	8.698330e-001	4.871668e-001
51914094.000	8.698112e-001	4.871239e-001
51920088.000	8.699239e-001	4.871214e-001
51926082.000	8.698524e-001	4.869882e-001
51932076.000	8.699207e-001	4.869652e-001
51938070.000	8.699828e-001	4.869068e-001
51944064.000	8.699815e-001	4.868633e-001
51950058.000	8.700424e-001	4.867924e-001
51956052.000	8.700645e-001	4.868091e-001
51962046.000	8.700665e-001	4.867505e-001
51968040.000	8.701229e-001	4.866275e-001
51974034.000	8.701720e-001	4.865871e-001
51980028.000	8.701925e-001	4.865545e-001
51986022.000	8.701977e-001	4.864731e-001
51992016.000	8.702591e-001	4.864203e-001
51998010.000	8.702921e-001	4.863687e-001
52004004.000	8.702576e-001	4.863197e-001
52009998.000	8.703407e-001	4.862791e-001
52015992.000	8.704011e-001	4.862273e-001
52021986.000	8.703961e-001	4.861720e-001
52027980.000	8.704047e-001	4.861548e-001
52033974.000	8.704513e-001	4.860798e-001
52039968.000	8.704848e-001	4.859514e-001
52045962.000	8.705061e-001	4.859334e-001
52051956.000	8.705691e-001	4.859430e-001
52057950.000	8.705495e-001	4.858516e-001
52063944.000	8.706308e-001	4.857927e-001
52069938.000	8.706561e-001	4.857653e-001
52075932.000	8.706918e-001	4.857414e-001
52081926.000	8.707230e-001	4.856280e-001
52087920.000	8.707105e-001	4.855785e-001
52093914.000	8.707775e-001	4.855336e-001
52099908.000	8.708040e-001	4.854636e-001
52105902.000	8.708552e-001	4.854369e-001
52111896.000	8.708689e-001	4.853801e-001
52117890.000	8.709097e-001	4.853287e-001
52123884.000	8.708980e-001	4.852537e-001
52129878.000	8.709502e-001	4.852084e-001
52135872.000	8.709829e-001	4.851085e-001
52141866.000	8.709887e-001	4.850541e-001
52147860.000	8.710059e-001	4.850555e-001
52153854.000	8.710222e-001	4.849928e-001
52159848.000	8.710899e-001	4.848991e-001
52165842.000	8.710561e-001	4.848643e-001
52171836.000	8.711289e-001	4.848763e-001
52177830.000	8.711538e-001	4.847498e-001
52183824.000	8.711685e-001	4.847318e-001
52189818.000	8.712465e-001	4.846535e-001
52195812.000	8.712465e-001	4.845831e-001
52201806.000	8.713375e-001	4.845533e-001
52207800.000	8.713582e-001	4.845030e-001
52213794.000	8.713497e-001	4.844404e-001
52219788.000	8.714056e-001	4.844265e-001
52225782.000	8.714197e-001	4.843243e-001
52231776.000	8.714551e-001	4.842639e-001
52237770.000	8.714762e-001	4.842178e-001
52243764.000	8.715334e-001	4.841498e-001
52249758.000	8.714865e-001	4.840904e-001
52255752.000	8.715271e-001	4.840675e-001
52261746.000	8.715768e-001	4.840220e-001
52267740.000	8.716566e-001	4.839496e-001
52273734.000	8.716574e-001	4.838678e-001
52279728.000	8.716646e-001	4.838443e-001
52285722.000	8.717725e-001	4.837638e-001
52291716.000	8.717914e-001	4.837373e-001
52297710.000	8.718096e-001	4.837487e-001
52303704.000	8.717967e-001	4.835836e-001
52309698.000	8.718494e-001	4.835910e-001
52315692.000	8.718669e-001	4.835249e-001
52321686.000	8.719037e-001	4.834783e-001
52327680.000	8.719351e-001	4.834683e-001
52333674.000	8.719333e-001	4.833952e-001
52339668.000	8.719774e-001	4.833724e-001
52345662.000	8.720415e-001	4.832708e-001
52351656.000	8.720536e-001	4.832170e-001
52357650.000	8.720527e-001	4.831913e-001
52363644.000	8.721692e-001	4.831173e-001
52369638.000	8.721222e-001	4.830243e-001
52375632.000	8.721968e-001	4.829917e-001
52381626.000	8.721779e-001	4.829519e-001
52387620.000	8.721595e-001	4.829119e-001
52393614.000	8.722724e-001	4.828557e-001
52399608.000	8.722766e-001	4.827574e-001
52405602.000	8.722838e-001	4.827313e-001
52411596.000	8.723666e-001	4.826836e-001
52417590.000	8.724090e-001	4.825999e-001
52423584.000	8.723680e-001	4.826240e-001
52429578.000	8.724381e-001	4.825300e-001
52435572.000	8.724526e-001	4.825400e-001
52441566.000	8.725561e-001	4.824580e-001
52447560.000	8.725273e-001	4.824198e-001
52453554.000	8.725232e-001	4.823146e-001
52459548.000	8.725493e-001	4.822352e-001
52465542.000	8.726309e-001	4.822340e-001
52471536.000	8.726039e-001	4.821743e-001
52477530.000	8.726846e-001	4.820680e-001
52483524.000	8.727411e-001	4.820599e-001
52489518.000	8.727401e-001	4.820128e-001
52495512.000	8.727918e-001	4.819405e-001
52501506.000	8.728042e-001	4.818353e-001
52507500.000	8.728028e-001	4.818393e-001
52513494.000	8.728247e-001	4.818035e-001
52519488.000	8.728835e-001	4.817588e-001
52525482.000	8.728867e-001	4.816747e-001
52531476.000	8.729358e-001	4.816056e-001
52537470.000	8.729321e-001	4.815397e-001
52543464.000	8.729783e-001	4.815100e-001
52549458.000	8.730321e-001	4.814567e-001
52555452.000	8.729853e-001	4.814278e-001
52561446.000	8.730287e-001	4.813674e-001
52567440.000	8.731316e-001	4.813209e-001
52573434.000	8.731780e-001	4.812872e-001
52579428.000	8.731845e-001	4.811957e-001
52585422.000	8.732084e-001	4.811288e-001
52591416.000	8.732436e-001	4.810838e-001
52597410.000	8.732968e-001	4.810390e-001
52603404.000	8.732853e-001	4.810182e-001
52609398.000	8.733047e-001	4.809350e-001
52615392.000	8.733350e-001	4.809014e-001
52621386.000	8.733931e-001	4.808324e-001
52627380.000	8.733459e-001	4.807661e-001
52633374.000	8.734112e-001	4.807169e-001
52639368.000	8.735314e-001	4.806796e-001
52645362.000	8.734893e-001	4.805951e-001
52651356.000	8.734886e-001	4.805661e-001
52657350.000	8.735794e-001	4.805054e-001
52663344.000	8.736158e-001	4.804438e-001
52669338.000	8.735574e-001	4.803706e-001
52675332.000	8.736906e-001	4.803181e-001
52681326.000	8.736612e-001	4.802616e-001
52687320.000	8.736493e-001	4.803180e-001
52693314.000	8.736636e-001	4.801820e-001
52699308.000	8.737767e-001	4.801165e-001
52705302.000	8.737958e-001	4.801308e-001
52711296.000	8.738563e-001	4.800699e-001
52717290.000	8.738128e-001	4.800194e-001
52723284.000	8.738510e-001	4.799001e-001
52729278.000	8.739403e-001	4.798668e-001
52735272.000	8.739366e-001	4.798468e-001
52741266.000	8.739518e-001	4.797679e-001
52747260.000	8.739766e-001	4.796886e-001
52753254.000	8.740055e-001	4.796697e-001
52759248.000	8.740433e-001	4.796291e-001
52765242.000	8.740738e-001	4.795694e-001
52771236.000	8.740783e-001	4.794134e-001
52777230.000	8.741255e-001	4.794610e-001
52783224.000	8.741113e-001	4.793930e-001
52789218.000	8.742057e-001	4.793416e-001
52795212.000	8.742569e-001	4.792483e-001
52801206.000	8.742546e-001	4.792385e-001
52807200.000	8.742925e-001	4.791477e-001
52813194.000	8.743210e-001	4.791234e-001
52819188.000	8.743712e-001	4.791098e-001
52825182.000	8.743281e-001	4.790456e-001
52831176.000	8.744157e-001	4.789461e-001
52837170.000	8.744367e-001	4.789580e-001
52843164.000	8.744232e-001	4.788414e-001
52849158.000	8.744582e-001	4.788407e-001
52855152.000	8.744678e-001	4.787535e-001
52861146.000	8.745170e-001	4.787292e-001
52867140.000	8.744988e-001	4.786602e-001
52873134.000	8.745340e-001	4.786468e-001
52879128.000	8.746433e-001	4.785912e-001
52885122.000	8.746158e-001	4.785413e-001
52891116.000	8.746296e-001	4.784638e-001
52897110.000	8.746531e-001	4.784309e-001
52903104.000	8.747171e-001	4.783689e-001
52909098.000	8.747449e-001	4.782846e-001
52915092.000	8.748048e-001	4.782477e-001
52921086.000	8.748196e-001	4.781876e-001
52927080.000	8.748397e-001	4.781646e-001
52933074.000	8.748600e-001	4.780876e-001
52939068.000	8.748393e-001	4.780401e-001
52945062.000	8.749151e-001	4.780055e-001
52951056.000	8.749008e-001	4.779646e-001
52957050.000	8.749021e-001	4.778334e-001
52963044.000	8.750162e-001	4.778247e-001
52969038.000	8.750117e-001	4.777064e-001
52975032.000	8.750641e-001	4.776831e-001
52981026.000	8.750841e-001	4.776817e-001
52987020.000	8.750901e-001	4.775951e-001
52993014.000	8.751622e-001	4.776024e-001
52999008.000	8.751385e-001	4.775151e-001
53005002.000	8.751985e-001	4.774906e-001
53010996.000	8.752404e-001	4.774496e-001
53016990.000	8.752740e-001	4.773798e-001
53022984.000	8.753107e-001	4.773331e-001
53028978.000	8.752610e-001	4.772522e-001
53034972.000	8.753407e-001	4.771782e-001
53040966.000	8.753727e-001	4.771469e-001
53046960.000	8.754413e-001	4.770780e-001
53052954.000	8.754477e-001	4.770119e-001
53058948.000	8.754777e-001	4.770088e-001
53064942.000	8.754985e-001	4.770215e-001
53070936.000	8.754820e-001	4.769314e-001
53076930.000	8.755191e-001	4.768547e-001
53082924.000	8.756471e-001	4.768501e-001
53088918.000	8.756403e-001	4.767724e-001
53094912.000	8.756161e-001	4.767567e-001
53100906.000	8.756580e-001	4.766414e-001
53106900.000	8.756401e-001	4.765917e-001
53112894.000	8.757111e-001	4.765234e-001
53118888.000	8.757628e-001	4.764473e-001
53124882.000	8.757938e-001	4.764362e-001
53130876.000	8.757736e-001	4.763490e-001
53136870.000	8.758342e-001	4.762911e-001
53142864.000	8.758498e-001	4.762796e-001
53148858.000	8.759016e-001	4.762148e-001
53154852.000	8.758628e-001	4.761284e-001
53160846.000	8.759381e-001	4.761430e-001
53166840.000	8.759542e-001	4.760891e-001
53172834.000	8.760166e-001	4.759669e-001
53178828.000	8.760163e-001	4.759748e-001
53184822.000	8.760748e-001	4.759031e-001
53190816.000	8.761201e-001	4.758854e-001
53196810.000	8.761038e-001	4.758296e-001
53202804.000	8.761286e-001	4.757634e-001
53208798.000	8.762075e-001	4.757422e-001
53214792.000	8.761821e-001	4.757160e-001
53220786.000	8.762301e-001	4.755599e-001
53226780.000	8.762747e-001	4.755298e-001
53232774.000	8.762700e-001	4.755139e-001
53238768.000	8.763497e-001	4.754781e-001
53244762.000	8.763363e-001	4.753935e-001
53250756.000	8.763623e-001	4.753752e-001
53256750.000	8.763801e-001	4.752910e-001
53262744.000	8.764410e-001	4.752260e-001
53268738.000	8.764427e-001	4.752127e-001
53274732.000	8.764618e-001	4.751636e-001
53280726.000	8.765299e-001	4.750624e-001
53286720.000	8.765351e-001	4.750590e-001
53292714.000	8.766184e-001	4.750195e-001
53298708.000	8.765868e-001	4.749417e-001
53304702.000	8.765965e-001	4.748486e-001
53310696.000	8.766896e-001	4.748317e-001
53316690.000	8.767086e-001	4.748313e-001
53322684.000	8.767530e-001	4.747562e-001
53328678.000	8.767471e-001	4.747192e-001
53334672.000	8.767494e-001	4.746798e-001
53340666.000	8.768161e-001	4.745853e-001
53346660.000	8.768157e-001	4.745213e-001
53352654.000	8.768473e-001	4.745236e-001
53358648.000	8.769077e-001	4.744002e-001
53364642.000	8.768795e-001	4.743659e-001
53370636.000	8.769799e-001	4.743097e-001
53376630.000	8.770141e-001	4.742638e-001
53382624.000	8.769903e-001	4.742221e-001
53388618.000	8.770140e-001	4.741688e-001
53394612.000	8.770856e-001	4.741095e-001
53400606.000	8.771225e-001	4.740809e-001
53406600.000	8.771629e-001	4.740247e-001
53412594.000	8.771519e-001	4.739655e-001
53418588.000	8.772447e-001	4.739549e-001
53424582.000	8.771708e-001	4.738691e-001
53430576.000	8.772255e-001	4.738171e-001
53436570.000	8.772629e-001	4.737951e-001
53442564.000	8.772937e-001	4.737297e-001
53448558.000	8.772900e-001	4.736255e-001
53454552.000	8.772926e-001	4.735323e-001
53460546.000	8.773467e-001	4.735087e-001
53466540.000	8.773711e-001	4.735111e-001
53472534.000	8.774325e-001	4.734748e-001
53478528.000	8.774478e-001	4.733514e-001
53484522.000	8.774333e-001	4.733313e-001
53490516.000	8.774903e-001	4.732629e-001
53496510.000	8.775520e-001	4.732070e-001
53502504.000	8.775588e-001	4.731752e-001
53508498.000	8.775965e-001	4.730831e-001
53514492.000	8.776595e-001	4.730628e-001
53520486.000	8.776217e-001	4.730165e-001
53526480.000	8.776647e-001	4.729781e-001
53532474.000	8.777140e-001	4.729010e-001
53538468.000	8.777057e-001	4.728275e-001
53544462.000	8.777682e-001	4.728120e-001
53550456.000	8.777762e-001	4.727381e-001
53556450.000	8.777806e-001	4.726981e-001
53562444.000	8.778909e-001	4.726923e-001
53568438.000	8.778983e-001	4.726672e-001
53574432.000	8.779679e-001	4.725516e-001
53580426.000	8.779092e-001	4.724690e-001
53586420.000	8.779291e-001	4.724328e-001
53592414.000	8.779494e-001	4.723657e-001
53598408.000	8.779721e-001	4.723429e-001
53604402.000	8.780212e-001	4.722862e-001
53610396.000	8.781058e-001	4.722543e-001
53616390.000	8.780822e-001	4.721702e-001
53622384.000	8.780807e-001	4.721376e-001
53628378.000	8.780726e-001	4.720491e-001
53634372.000	8.781061e-001	4.720264e-001
53640366.000	8.782232e-001	4.720124e-001
53646360.000	8.782642e-001	4.719215e-001
53652354.000	8.783022e-001	4.718929e-001
53658348.000	8.782578e-001	4.718682e-001
53664342.000	8.782810e-001	4.717948e-001
53670336.000	8.783434e-001	4.717450e-001
53676330.000	8.783589e-001	4.716831e-001
53682324.000	8.784152e-001	4.716509e-001
53688318.000	8.783754e-001	4.715255e-001
53694312.000	8.784402e-001	4.715128e-001
53700306.000	8.784626e-001	4.714896e-001
53706300.000	8.785090e-001	4.714375e-001
53712294.000	8.785633e-001	4.714068e-001
53718288.000	8.785492e-001	4.712983e-001
53724282.000	8.785957e-001	4.712514e-001
53730276.000	8.786388e-001	4.712352e-001
53736270.000	8.786504e-001	4.711830e-001
53742264.000	8.787245e-001	4.711385e-001
53748258.000	8.787076e-001	4.710746e-001
53754252.000	8.787135e-001	4.709529e-001
53760246.000	8.787453e-001	4.709218e-001
53766240.000	8.787601e-001	4.708648e-001
53772234.000	8.787707e-001	4.708684e-001
53778228.000	8.788334e-001	4.708518e-001
53784222.000	8.788761e-001	4.707386e-001
53790216.000	8.788814e-001	4.706969e-001
53796210.000	8.788908e-001	4.706501e-001
53802204.000	8.790136e-001	4.705926e-001
53808198.000	8.789882e-001	4.705266e-001
53814192.000	8.789602e-001	4.704716e-001
53820186.000	8.790790e-001	4.704460e-001
53826180.000	8.790525e-001	4.703902e-001
53832174.000	8.791016e-001	4.703361e-001
53838168.000	8.791626e-001	4.702796e-001
53844162.000	8.791651e-001	4.702516e-001
53850156.000	8.791996e-001	4.702208e-001
53856150.000	8.792070e-001	4.701302e-001
53862144.000	8.792288e-001	4.700673e-001
53868138.000	8.792378e-001	4.700717e-001
53874132.000	8.792903e-001	4.699130e-001
53880126.000	8.792862e-001	4.698906e-001
53886120.000	8.793955e-001	4.699178e-001
53892114.000	8.794453e-001	4.698207e-001
53898108.000	8.794063e-001	4.697536e-001
53904102.000	8.795070e-001	4.696917e-001
53910096.000	8.794707e-001	4.697014e-001
53916090.000	8.795231e-001	4.695926e-001
53922084.000	8.795166e-001	4.695693e-001
53928078.000	8.795578e-001	4.695247e-001
53934072.000	8.795345e-001	4.694495e-001
53940066.000	8.795897e-001	4.694439e-001
53946060.000	8.796299e-001	4.693588e-001
53952054.000	8.795978e-001	4.693534e-001
53958048.000	8.796561e-001	4.692533e-001
53964042.000	8.796778e-001	4.691730e-001
53970036.000	8.797404e-001	4.691652e-001
53976030.000	8.797373e-001	4.691140e-001
53982024.000	8.797530e-001	4.690404e-001
53988018.000	8.797323e-001	4.689856e-001
53994012.000	8.797721e-001	4.689785e-001
54000006.000	8.798288e-001	4.688816e-001
54006000.000	8.798265e-001	4.688793e-001
54011994.000	8.798856e-001	4.688144e-001
54017988.000	8.799204e-001	4.687557e-001
54023982.000	8.799753e-001	4.687239e-001
54029976.000	8.799923e-001	4.686542e-001
54035970.000	8.800632e-001	4.686298e-001
54041964.000	8.800784e-001	4.685411e-001
54047958.000	8.800380e-001	4.685323e-001
54053952.000	8.800909e-001	4.684724e-001
54059946.000	8.801226e-001	4.683790e-001
54065940.000	8.801331e-001	4.683085e-001
54071934.000	8.801991e-001	4.683031e-001
54077928.000	8.801972e-001	4.682068e-001
54083922.000	8.802090e-001	4.681703e-001
54089916.000	8.802851e-001	4.681669e-001
54095910.000	8.803537e-001	4.681377e-001
54101904.000	8.803710e-001	4.680706e-001
54107898.000	8.803538e-001	4.680123e-001
54113892.000	8.804239e-001	4.679745e-001
54119886.000	8.803789e-001	4.679269e-001
54125880.000	8.804580e-001	4.678851e-001
54131874.000	8.804686e-001	4.678332e-001
54137868.000	8.805191e-001	4.677429e-001
54143862.000	8.805180e-001	4.676706e-001
54149856.000	8.805398e-001	4.676982e-001
54155850.000	8.805370e-001	4.675945e-001
54161844.000	8.805410e-001	4.675572e-001
54167838.000	8.806448e-001	4.675084e-001
54173832.000	8.806667e-001	4.674802e-001
54179826.000	8.807111e-001	4.674123e-001
54185820.000	8.806950e-001	4.673636e-001
54191814.000	8.807377e-001	4.672819e-001
54197808.000	8.807527e-001	4.672130e-001
54203802.000	8.807715e-001	4.671642e-001
54209796.000	8.807819e-001	4.671216e-001
54215790.000	8.808579e-001	4.670963e-001
54221784.000	8.808778e-001	4.670466e-001
54227778.000	8.809255e-001	4.670286e-001
54233772.000	8.809610e-001	4.669271e-001
54239766.000	8.809369e-001	4.668602e-001
54245760.000	8.809239e-001	4.667709e-001
54251754.000	8.810047e-001	4.667613e-001
54257748.000	8.810139e-001	4.667010e-001
54263742.000	8.810569e-001	4.666874e-001
54269736.000	8.810303e-001	4.666154e-001
54275730.000	8.810853e-001	4.665344e-001
54281724.000	8.811325e-001	4.665265e-001
54287718.000	8.811326e-001	4.664399e-001
54293712.000	8.812022e-001	4.664263e-001
54299706.000	8.812370e-001	4.664112e-001
54305700.000	8.812270e-001	4.663176e-001
54311694.000	8.812501e-001	4.662584e-001
54317688.000	8.812889e-001	4.662518e-001
54323682.000	8.813002e-001	4.661789e-001
54329676.000	8.813420e-001	4.661184e-001
54335670.000	8.813631e-001	4.660734e-001
54341664.000	8.813451e-001	4.660564e-001
54347658.000	8.814319e-001	4.659714e-001
54353652.000	8.814507e-001	4.659534e-001
54359646.000	8.814400e-001	4.659211e-001
54365640.000	8.814893e-001	4.658483e-001
54371634.000	8.815455e-001	4.658454e-001
54377628.000	8.815514e-001	4.657078e-001
54383622.000	8.815885e-001	4.656633e-001
54389616.000	8.816220e-001	4.655782e-001
54395610.000	8.815743e-001	4.656175e-001
54401604.000	8.816471e-001	4.655770e-001
54407598.000	8.817263e-001	4.655448e-001
54413592.000	8.817431e-001	4.654398e-001
54419586.000	8.817319e-001	4.653726e-001
54425580.000	8.817623e-001	4.652980e-001
54431574.000	8.818105e-001	4.652862e-001
54437568.000	8.818280e-001	4.652134e-001
54443562.000	8.818853e-001	4.652316e-001
54449556.000	8.818384e-001	4.651141e-001
54455550.000	8.819106e-001	4.650800e-001
54461544.000	8.818894e-001	4.650450e-001
54467538.000	8.819411e-001	4.650362e-001
54473532.000	8.819787e-001	4.649515e-001
54479526.000	8.819385e-001	4.649147e-001
54485520.000	8.820527e-001	4.648098e-001
54491514.000	8.820312e-001	4.647627e-001
54497508.000	8.820961e-001	4.647259e-001
54503502.000	8.820988e-001	4.646627e-001
54509496.000	8.820987e-001	4.646295e-001
54515490.000	8.821581e-001	4.645520e-001
54521484.000	8.821451e-001	4.645561e-001
54527478.000	8.821613e-001	4.644906e-001
54533472.000	8.822206e-001	4.644371e-001
54539466.000	8.822504e-001	4.644097e-001
54545460.000	8.822278e-001	4.643215e-001
54551454.000	8.823127e-001	4.642829e-001
54557448.000	8.823436e-001	4.642504e-001
54563442.000	8.823399e-001	4.641559e-001
54569436.000	8.823727e-001	4.641347e-001
54575430.000	8.823979e-001	4.640975e-001
54581424.000	8.824192e-001	4.640883e-001
54587418.000	8.825098e-001	4.639653e-001
54593412.000	8.825456e-001	4.639219e-001
54599406.000	8.825421e-001	4.638483e-001
54605400.000	8.825780e-001	4.638432e-001
54611394.000	8.826052e-001	4.637929e-001
54617388.000	8.825962e-001	4.637276e-001
54623382.000	8.825899e-001	4.636509e-001
54629376.000	8.826041e-001	4.636812e-001
54635370.000	8.826630e-001	4.636127e-001
54641364.000	8.827418e-001	4.635496e-001
54647358.000	8.827394e-001	4.635470e-001
54653352.000	8.827642e-001	4.634833e-001
54659346.000	8.828368e-001	4.633834e-001
54665340.000	8.828363e-001	4.633281e-001
54671334.000	8.828482e-001	4.632685e-001
54677328.000	8.828685e-001	4.632220e-001
54683322.000	8.828646e-001	4.632287e-001
54689316.000	8.829331e-001	4.631019e-001
54695310.000	8.829386e-001	4.631176e-001
54701304.000	8.829911e-001	4.630246e-001
54707298.000	8.829701e-001	4.629831e-001
54713292.000	8.830054e-001	4.629403e-001
54719286.000	8.830510e-001	4.628605e-001
54725280.000	8.830659e-001	4.628189e-001
54731274.000	8.830992e-001	4.627711e-001
54737268.000	8.831428e-001	4.627649e-001
54743262.000	8.831367e-001	4.627395e-001
54749256.000	8.831373e-001	4.626967e-001
54755250.000	8.832448e-001	4.625994e-001
54761244.000	8.832718e-001	4.625302e-001
54767238.000	8.832434e-001	4.625092e-001
54773232.000	8.832963e-001	4.624117e-001
54779226.000	8.833377e-001	4.623912e-001
54785220.000	8.833221e-001	4.623430e-001
54791214.000	8.833430e-001	4.622649e-001
54797208.000	8.833080e-001	4.622414e-001
54803202.000	8.833977e-001	4.621590e-001
54809196.000	8.834577e-001	4.620965e-001
54815190.000	8.834994e-001	4.620614e-001
54821184.000	8.834530e-001	4.620155e-001
54827178.000	8.834806e-001	4.619809e-001
54833172.000	8.835415e-001	4.619691e-001
54839166.000	8.835466e-001	4.618908e-001
54845160.000	8.836019e-001	4.618412e-001
54851154.000	8.836277e-001	4.617892e-001
54857148.000	8.835986e-001	4.617372e-001
54863142.000	8.837018e-001	4.617253e-001
54869136.000	8.836675e-001	4.616449e-001
54875130.000	8.837547e-001	4.615882e-001
54881124.000	8.837308e-001	4.615467e-001
54887118.000	8.837737e-001	4.615057e-001
54893112.000	8.837657e-001	4.614213e-001
54899106.000	8.838404e-001	4.613877e-001
54905100.000	8.838650e-001	4.613362e-001
54911094.000	8.839001e-001	4.613161e-001
54917088.000	8.839371e-001	4.612495e-001
54923082.000	8.839682e-001	4.612204e-001
54929076.000	8.839507e-001	4.611950e-001
54935070.000	8.839927e-001	4.611320e-001
54941064.000	8.840377e-001	4.610590e-001
54947058.000	8.839952e-001	4.609672e-001
54953052.000	8.840346e-001	4.609671e-001
54959046.000	8.840594e-001	4.609457e-001
54965040.000	8.841548e-001	4.608469e-001
54971034.000	8.841879e-001	4.608325e-001
54977028.000	8.841325e-001	4.607954e-001
54983022.000	8.841540e-001	4.607707e-001
54989016.000	8.841998e-001	4.606514e-001
54995010.000	8.842075e-001	4.606130e-001
55001004.000	8.842397e-001	4.605240e-001
55006998.000	8.843208e-001	4.605226e-001
55012992.000	8.843220e-001	4.604808e-001
55018986.000	8.843659e-001	4.603658e-001
55024980.000	8.843468e-001	4.603640e-001
55030974.000	8.843421e-001	4.603119e-001
55036968.000	8.844110e-001	4.602509e-001
55042962.000	8.844564e-001	4.601566e-001
55048956.000	8.844915e-001	4.601566e-001
55054950.000	8.844878e-001	4.601167e-001
55060944.000	8.845688e-001	4.600897e-001
55066938.000	8.845848e-001	4.599843e-001
55072932.000	8.846060e-001	4.599529e-001
55078926.000	8.845947e-001	4.598742e-001
55084920.000	8.846595e-001	4.598472e-001
55090914.000	8.846540e-001	4.597393e-001
55096908.000	8.846916e-001	4.597345e-001
55102902.000	8.847329e-001	4.596879e-001
55108896.000	8.847491e-001	4.596660e-001
55114890.000	8.847367e-001	4.596179e-001
55120884.000	8.847683e-001	4.595714e-001
55126878.000	8.848023e-001	4.594896e-001
55132872.000	8.848559e-001	4.594704e-001
55138866.000	8.848868e-001	4.594076e-001
55144860.000	8.848595e-001	4.593579e-001
55150854.000	8.848687e-001	4.592325e-001
55156848.000	8.848959e-001	4.592160e-001
55162842.000	8.849311e-001	4.592025e-001
55168836.000	8.849530e-001	4.591147e-001
55174830.000	8.850052e-001	4.590948e-001
55180824.000	8.850552e-001	4.590687e-001
55186818.000	8.850596e-001	4.589917e-001
55192812.000	8.851094e-001	4.589980e-001
55198806.000	8.851402e-001	4.588672e-001
55204800.000	8.850684e-001	4.588481e-001
55210794.000	8.851714e-001	4.587787e-001
55216788.000	8.852030e-001	4.587969e-001
55222782.000	8.851949e-001	4.587129e-001
55228776.000	8.852154e-001	4.586545e-001
55234770.000	8.852930e-001	4.586072e-001
55240764.000	8.853222e-001	4.585771e-001
55246758.000	8.852958e-001	4.585386e-001
55252752.000	8.853174e-001	4.584528e-001
55258746.000	8.853691e-001	4.583746e-001
55264740.000	8.854466e-001	4.584067e-001
55270734.000	8.854213e-001	4.583555e-001
55276728.000	8.854979e-001	4.583079e-001
55282722.000	8.854925e-001	4.582247e-001
55288716.000	8.855109e-001	4.582073e-001
55294710.000	8.855582e-001	4.581444e-001
55300704.000	8.855427e-001	4.581042e-001
55306698.000	8.855618e-001	4.580516e-001
55312692.000	8.855802e-001	4.579945e-001
55318686.000	8.856127e-001	4.579180e-001
55324680.000	8.856608e-001	4.579055e-001
55330674.000	8.856753e-001	4.578364e-001
55336668.000	8.857307e-001	4.577669e-001
55342662.000	8.857111e-001	4.577090e-001
55348656.000	8.857405e-001	4.576469e-001
55354650.000	8.857762e-001	4.576130e-001
55360644.000	8.858018e-001	4.576268e-001
55366638.000	8.858549e-001	4.575516e-001
55372632.000	8.858571e-001	4.574631e-001
55378626.000	8.859407e-001	4.574327e-001
55384620.000	8.859402e-001	4.573907e-001
55390614.000	8.859177e-001	4.573417e-001
55396608.000	8.860158e-001	4.572684e-001
55402602.000	8.859916e-001	4.572570e-001
55408596.000	8.860376e-001	4.571668e-001
55414590.000	8.860375e-001	4.571406e-001
55420584.000	8.861090e-001	4.570597e-001
55426578.000	8.861321e-001	4.569976e-001
55432572.000	8.861256e-001	4.569965e-001
55438566.000	8.862188e-001	4.569377e-001
55444560.000	8.861666e-001	4.569131e-001
55450554.000	8.862032e-001	4.568829e-001
55456548.000	8.862507e-001	4.567681e-001
55462542.000	8.862876e-001	4.567193e-001
55468536.000	8.862466e-001	4.566884e-001
55474530.000	8.863211e-001	4.566589e-001
55480524.000	8.863617e-001	4.565873e-001
55486518.000	8.863940e-001	4.565989e-001
55492512.000	8.864277e-001	4.565231e-001
55498506.000	8.864393e-001	4.564690e-001
55504500.000	8.864388e-001	4.564208e-001
55510494.000	8.864827e-001	4.563366e-001
55516488.000	8.864687e-001	4.563508e-001
55522482.000	8.865155e-001	4.562971e-001
55528476.000	8.865422e-001	4.561735e-001
55534470.000	8.865484e-001	4.561523e-001
55540464.000	8.865305e-001	4.560624e-001
55546458.000	8.865811e-001	4.560989e-001
55552452.000	8.866870e-001	4.560931e-001
55558446.000	8.867190e-001	4.560176e-001
55564440.000	8.866633e-001	4.559012e-001
55570434.000	8.867335e-001	4.558213e-001
55576428.000	8.867544e-001	4.558410e-001
55582422.000	8.867978e-001	4.558015e-001
55588416.000	8.867655e-001	4.557203e-001
55594410.000	8.868076e-001	4.556768e-001
55600404.000	8.868211e-001	4.556202e-001
55606398.000	8.868770e-001	4.555610e-001
55612392.000	8.868846e-001	4.555598e-001
55618386.000	8.869100e-001	4.554946e-001
55624380.000	8.869156e-001	4.554527e-001
55630374.000	8.869623e-001	4.553619e-001
55636368.000	8.869808e-001	4.553453e-001
55642362.000	8.870286e-001	4.552735e-001
55648356.000	8.870570e-001	4.552557e-001
55654350.000	8.870198e-001	4.552190e-001
55660344.000	8.871026e-001	4.551850e-001
55666338.000	8.871192e-001	4.551055e-001
55672332.000	8.871473e-001	4.550657e-001
55678326.000	8.871479e-001	4.550384e-001
55684320.000	8.871791e-001	4.550035e-001
55690314.000	8.872059e-001	4.549272e-001
55696308.000	8.872180e-001	4.549148e-001
55702302.000	8.872967e-001	4.548131e-001
55708296.000	8.872631e-001	4.547465e-001
55714290.000	8.873725e-001	4.547155e-001
55720284.000	8.873428e-001	4.546736e-001
55726278.000	8.874033e-001	4.546182e-001
55732272.000	8.874592e-001	4.546089e-001
55738266.000	8.874275e-001	4.545712e-001
55744260.000	8.874490e-001	4.544553e-001
55750254.000	8.874930e-001	4.544480e-001
55756248.000	8.875170e-001	4.544113e-001
55762242.000	8.875353e-001	4.543151e-001
55768236.000	8.875128e-001	4.543256e-001
55774230.000	8.875584e-001	4.542668e-001
55780224.000	8.875758e-001	4.541956e-001
55786218.000	8.876324e-001	4.541511e-001
55792212.000	8.876443e-001	4.540889e-001
55798206.000	8.876815e-001	4.540697e-001
55804200.000	8.876908e-001	4.540124e-001
55810194.000	8.877323e-001	4.539327e-001
55816188.000	8.877710e-001	4.539132e-001
55822182.000	8.877836e-001	4.538062e-001
55828176.000	8.877859e-001	4.537542e-001
55834170.000	8.878030e-001	4.537009e-001
55840164.000	8.878322e-001	4.536844e-001
55846158.000	8.878413e-001	4.536561e-001
55852152.000	8.878763e-001	4.536252e-001
55858146.000	8.878916e-001	4.535566e-001
55864140.000	8.879409e-001	4.535174e-001
55870134.000	8.879662e-001	4.534303e-001
55876128.000	8.879602e-001	4.534069e-001
55882122.000	8.879867e-001	4.533754e-001
55888116.000	8.879852e-001	4.533381e-001
55894110.000	8.880650e-001	4.532993e-001
55900104.000	8.880609e-001	4.532480e-001
55906098.000	8.881385e-001	4.531661e-001
55912092.000	8.881207e-001	4.531689e-001
55918086.000	8.881707e-001	4.531022e-001
55924080.000	8.882152e-001	4.530473e-001
55930074.000	8.882218e-001	4.530099e-001
55936068.000	8.882427e-001	4.529935e-001
55942062.000	8.882593e-001	4.529008e-001
55948056.000	8.883078e-001	4.529129e-001
55954050.000	8.883323e-001	4.528208e-001
55960044.000	8.883510e-001	4.528009e-001
55966038.000	8.883640e-001	4.527040e-001
55972032.000	8.883437e-001	4.526661e-001
55978026.000	8.884075e-001	4.526012e-001
55984020.000	8.884054e-001	4.524877e-001
55990014.000	8.884471e-001	4.525155e-001
55996008.000	8.884416e-001	4.524794e-001
56002002.000	8.885016e-001	4.523720e-001
56007996.000	8.884806e-001	4.523888e-001
56013990.000	8.885407e-001	4.523040e-001
56019984.000	8.885918e-001	4.522475e-001
56025978.000	8.885779e-001	4.522132e-001
56031972.000	8.886522e-001	4.521674e-001
56037966.000	8.886564e-001	4.521278e-001
56043960.000	8.886445e-001	4.520908e-001
56049954.000	8.886671e-001	4.520316e-001
56055948.000	8.887349e-001	4.519675e-001
56061942.000	8.887971e-001	4.519409e-001
56067936.000	8.887874e-001	4.518933e-001
56073930.000	8.888169e-001	4.518427e-001
56079924.000	8.888662e-001	4.518257e-001
56085918.000	8.888629e-001	4.517151e-001
56091912.000	8.888924e-001	4.517415e-001
56097906.000	8.889167e-001	4.516373e-001
56103900.000	8.889172e-001	4.516041e-001
56109894.000	8.890118e-001	4.515546e-001
56115888.000	8.889963e-001	4.515208e-001
56121882.000	8.890487e-001	4.514714e-001
56127876.000	8.890531e-001	4.513865e-001
56133870.000	8.890478e-001	4.512612e-001
56139864.000	8.890970e-001	4.512691e-001
56145858.000	8.891428e-001	4.512579e-001
56151852.000	8.891467e-001	4.512078e-001
56157846.000	8.891849e-001	4.511637e-001
56163840.000	8.892047e-001	4.511276e-001
56169834.000	8.892412e-001	4.511066e-001
56175828.000	8.892206e-001	4.509875e-001
56181822.000	8.893049e-001	4.510044e-001
56187816.000	8.893180e-001	4.509354e-001
56193810.000	8.893112e-001	4.508710e-001
56199804.000	8.893514e-001	4.508293e-001
56205798.000	8.893708e-001	4.507791e-001
56211792.000	8.894186e-001	4.506705e-001
56217786.000	8.894329e-001	4.506447e-001
56223780.000	8.894261e-001	4.506298e-001
56229774.000	8.894379e-001	4.506187e-001
56235768.000	8.894376e-001	4.505164e-001
56241762.000	8.895166e-001	4.504849e-001
56247756.000	8.895227e-001	4.504479e-001
56253750.000	8.895794e-001	4.504122e-001
56259744.000	8.895729e-001	4.503417e-001
56265738.000	8.895714e-001	4.503212e-001
56271732.000	8.896284e-001	4.502578e-001
56277726.000	8.896484e-001	4.502124e-001
56283720.000	8.897221e-001	4.501307e-001
56289714.000	8.896695e-001	4.501115e-001
56295708.000	8.896824e-001	4.500183e-001
56301702.000	8.897702e-001	4.499495e-001
56307696.000	8.897811e-001	4.499340e-001
56313690.000	8.898267e-001	4.499132e-001
56319684.000	8.897986e-001	4.498401e-001
56325678.000	8.898366e-001	4.498127e-001
56331672.000	8.898566e-001	4.497310e-001
56337666.000	8.899144e-001	4.497402e-001
56343660.000	8.898713e-001	4.496566e-001
56349654.000	8.899702e-001	4.496083e-001
56355648.000	8.899367e-001	4.495562e-001
56361642.000	8.899983e-001	4.494812e-001
56367636.000	8.899990e-001	4.494407e-001
56373630.000	8.900119e-001	4.494163e-001
56379624.000	8.900556e-001	4.493612e-001
56385618.000	8.900799e-001	4.493349e-001
56391612.000	8.901327e-001	4.492925e-001
56397606.000	8.901477e-001	4.492459e-001
56403600.000	8.901419e-001	4.491951e-001
56409594.000	8.901389e-001	4.490782e-001
56415588.000	8.901771e-001	4.490952e-001
56421582.000	8.901987e-001	4.490143e-001
56427576.000	8.902481e-001	4.489388e-001
56433570.000	8.902483e-001	4.489472e-001
56439564.000	8.902937e-001	4.488561e-001
56445558.000	8.903529e-001	4.488403e-001
56451552.000	8.903680e-001	4.487977e-001
56457546.000	8.903561e-001	4.487182e-001
56463540.000	8.903821e-001	4.486860e-001
56469534.000	8.904500e-001	4.486908e-001
56475528.000	8.904695e-001	4.485951e-001
56481522.000	8.904553e-001	4.485887e-001
56487516.000	8.905018e-001	4.485528e-001
56493510.000	8.905338e-001	4.484768e-001
56499504.000	8.905422e-001	4.484183e-001
56505498.000	8.905803e-001	4.483531e-001
56511492.000	8.905751e-001	4.483255e-001
56517486.000	8.905519e-001	4.482771e-001
56523480.000	8.906752e-001	4.482392e-001
56529474.000	8.906581e-001	4.481464e-001
56535468.000	8.906863e-001	4.481311e-001
56541462.000	8.906768e-001	4.480511e-001
56547456.000	8.907133e-001	4.480048e-001
56553450.000	8.907801e-001	4.480337e-001
56559444.000	8.907671e-001	4.479480e-001
56565438.000	8.907749e-001	4.479362e-001
56571432.000	8.908224e-001	4.478752e-001
56577426.000	8.908519e-001	4.478074e-001
56583420.000	8.908270e-001	4.477402e-001
56589414.000	8.909514e-001	4.476882e-001
56595408.000	8.908912e-001	4.476511e-001
56601402.000	8.909881e-001	4.475697e-001
56607396.000	8.910335e-001	4.475703e-001
56613390.000	8.910342e-001	4.475226e-001
56619384.000	8.910250e-001	4.474250e-001
56625378.000	8.910971e-001	4.474209e-001
56631372.000	8.910530e-001	4.473856e-001
56637366.000	8.911422e-001	4.473164e-001
56643360.000	8.911395e-001	4.472212e-001
56649354.000	8.911902e-001	4.471858e-001
56655348.000	8.912064e-001	4.471601e-001
56661342.000	8.912142e-001	4.471458e-001
56667336.000	8.912309e-001	4.471080e-001
56673330.000	8.912297e-001	4.470657e-001
56679324.000	8.912532e-001	4.469944e-001
56685318.000	8.912922e-001	4.469659e-001
56691312.000	8.913622e-001	4.468784e-001
56697306.000	8.913447e-001	4.468758e-001
56703300.000	8.913543e-001	4.467865e-001
56709294.000	8.914343e-001	4.467829e-001
56715288.000	8.914374e-001	4.467014e-001
56721282.000	8.915106e-001	4.467001e-001
56727276.000	8.914483e-001	4.466429e-001
56733270.000	8.914690e-001	4.465845e-001
56739264.000	8.915100e-001	4.465371e-001
56745258.000	8.915361e-001	4.465157e-001
56751252.000	8.915839e-001	4.464186e-001
56757246.000	8.915429e-001	4.464043e-001
56763240.000	8.915576e-001	4.463463e-001
56769234.000	8.916726e-001	4.462444e-001
56775228.000	8.916391e-001	4.462156e-001
56781222.000	8.916592e-001	4.461476e-001
56787216.000	8.917198e-001	4.461264e-001
56793210.000	8.916963e-001	4.460775e-001
56799204.000	8.917407e-001	4.459971e-001
56805198.000	8.917679e-001	4.459881e-001
56811192.000	8.918034e-001	4.459483e-001
56817186.000	8.918025e-001	4.459093e-001
56823180.000	8.918061e-001	4.458252e-001
56829174.000	8.918192e-001	4.458220e-001
56835168.000	8.918564e-001	4.457445e-001
56841162.000	8.918939e-001	4.457107e-001
56847156.000	8.919051e-001	4.456544e-001
56853150.000	8.919339e-001	4.456184e-001
56859144.000	8.919506e-001	4.455672e-001
56865138.000	8.920468e-001	4.455652e-001
56871132.000	8.920684e-001	4.455187e-001
56877126.000	8.920754e-001	4.454602e-001
56883120.000	8.920417e-001	4.454140e-001
56889114.000	8.920396e-001	4.453662e-001
56895108.000	8.921560e-001	4.452998e-001
56901102.000	8.921559e-001	4.452842e-001
56907096.000	8.921955e-001	4.452435e-001
56913090.000	8.921774e-001	4.451640e-001
56919084.000	8.922235e-001	4.451119e-001
56925078.000	8.922042e-001	4.450381e-001
56931072.000	8.922560e-001	4.450202e-001
56937066.000	8.923604e-001	4.449527e-001
56943060.000	8.923109e-001	4.449091e-001
56949054.000	8.923228e-001	4.449044e-001
56955048.000	8.923526e-001	4.448526e-001
56961042.000	8.923813e-001	4.447832e-001
56967036.000	8.924187e-001	4.447230e-001
56973030.000	8.924583e-001	4.446737e-001
56979024.000	8.924329e-001	4.446017e-001
56985018.000	8.924949e-001	4.445576e-001
56991012.000	8.924695e-001	4.445053e-001
56997006.000	8.925306e-001	4.444456e-001
57003000.000	8.925433e-001	4.444195e-001
57008994.000	8.925620e-001	4.443695e-001
57014988.000	8.925657e-001	4.442536e-001
57020982.000	8.926269e-001	4.443085e-001
57026976.000	8.926762e-001	4.441987e-001
57032970.000	8.926761e-001	4.441925e-001
57038964.000	8.926857e-001	4.441859e-001
57044958.000	8.927135e-001	4.441121e-001
57050952.000	8.927496e-001	4.440726e-001
57056946.000	8.927654e-001	4.440755e-001
57062940.000	8.928061e-001	4.439824e-001
57068934.000	8.928083e-001	4.439377e-001
57074928.000	8.928125e-001	4.439254e-001
57080922.000	8.928667e-001	4.438745e-001
57086916.000	8.928822e-001	4.438247e-001
57092910.000	8.928472e-001	4.437461e-001
57098904.000	8.929462e-001	4.436761e-001
57104898.000	8.929430e-001	4.436123e-001
57110892.000	8.929408e-001	4.435690e-001
57116886.000	8.930083e-001	4.435198e-001
57122880.000	8.930056e-001	4.435588e-001
57128874.000	8.930127e-001	4.434960e-001
57134868.000	8.930120e-001	4.434593e-001
57140862.000	8.930740e-001	4.433582e-001
57146856.000	8.930876e-001	4.433501e-001
57152850.000	8.931607e-001	4.433269e-001
57158844.000	8.932174e-001	4.432450e-001
57164838.000	8.931821e-001	4.432096e-001
57170832.000	8.932254e-001	4.431548e-001
57176826.000	8.932642e-001	4.431365e-001
57182820.000	8.932996e-001	4.430532e-001
57188814.000	8.933212e-001	4.429726e-001
57194808.000	8.933489e-001	4.429586e-001
57200802.000	8.933432e-001	4.429390e-001
57206796.000	8.933598e-001	4.428938e-001
57212790.000	8.933297e-001	4.428330e-001
57218784.000	8.934238e-001	4.427221e-001
57224778.000	8.934652e-001	4.427347e-001
57230772.000	8.934554e-001	4.426268e-001
57236766.000	8.934808e-001	4.426332e-001
57242760.000	8.934978e-001	4.425349e-001
57248754.000	8.934868e-001	4.424971e-001
57254748.000	8.935729e-001	4.425101e-001
57260742.000	8.936331e-001	4.424552e-001
57266736.000	8.935900e-001	4.424030e-001
57272730.000	8.936123e-001	4.423400e-001
57278724.000	8.936433e-001	4.422802e-001
57284718.000	8.936929e-001	4.422758e-001
57290712.000	8.937322e-001	4.422262e-001
57296706.000	8.937877e-001	4.421460e-001
57302700.000	8.936914e-001	4.421215e-001
57308694.000	8.937425e-001	4.420894e-001
57314688.000	8.937702e-001	4.420582e-001
57320682.000	8.937803e-001	4.419687e-001
57326676.000	8.937861e-001	4.419634e-001
57332670.000	8.938353e-001	4.418956e-001
57338664.000	8.938465e-001	4.418092e-001
57344658.000	8.939152e-001	4.417533e-001
57350652.000	8.939364e-001	4.417988e-001
57356646.000	8.939835e-001	4.417084e-001
57362640.000	8.939918e-001	4.416918e-001
57368634.000	8.939808e-001	4.416012e-001
57374628.000	8.940121e-001	4.415592e-001
57380622.000	8.940268e-001	4.415280e-001
57386616.000	8.940599e-001	4.415052e-001
57392610.000	8.940975e-001	4.414391e-001
57398604.000	8.940777e-001	4.413925e-001
57404598.000	8.941610e-001	4.412747e-001
57410592.000	8.941238e-001	4.412912e-001
57416586.000	8.941656e-001	4.412013e-001
57422580.000	8.942086e-001	4.411821e-001
57428574.000	8.942032e-001	4.411410e-001
57434568.000	8.942306e-001	4.410865e-001
57440562.000	8.942924e-001	4.410768e-001
57446556.000	8.942751e-001	4.409802e-001
57452550.000	8.943440e-001	4.409391e-001
57458544.000	8.943199e-001	4.408804e-001
57464538.000	8.943141e-001	4.408653e-001
57470532.000	8.943535e-001	4.408083e-001
57476526.000	8.943724e-001	4.407898e-001
57482520.000	8.943969e-001	4.406979e-001
57488514.000	8.944718e-001	4.407277e-001
57494508.000	8.944677e-001	4.406767e-001
57500502.000	8.944733e-001	4.405824e-001
57506496.000	8.945235e-001	4.405296e-001
57512490.000	8.945416e-001	4.405131e-001
57518484.000	8.945479e-001	4.404843e-001
57524478.000	8.945727e-001	4.404049e-001
57530472.000	8.945774e-001	4.403313e-001
57536466.000	8.945758e-001	4.403114e-001
57542460.000	8.946359e-001	4.403204e-001
57548454.000	8.946438e-001	4.402367e-001
57554448.000	8.946926e-001	4.401933e-001
57560442.000	8.946972e-001	4.401532e-001
57566436.000	8.947160e-001	4.400822e-001
57572430.000	8.948113e-001	4.400595e-001
57578424.000	8.947770e-001	4.400021e-001
57584418.000	8.947783e-001	4.399499e-001
57590412.000	8.947922e-001	4.398802e-001
57596406.000	8.948082e-001	4.398069e-001
57602400.000	8.947793e-001	4.397960e-001
57608394.000	8.949107e-001	4.397514e-001
57614388.000	8.948778e-001	4.397006e-001
57620382.000	8.949713e-001	4.396844e-001
57626376.000	8.948814e-001	4.396116e-001
57632370.000	8.949226e-001	4.395243e-001
57638364.000	8.949589e-001	4.394498e-001
57644358.000	8.949892e-001	4.394272e-001
57650352.000	8.950292e-001	4.394590e-001
57656346.000	8.950335e-001	4.393369e-001
57662340.000	8.950734e-001	4.393288e-001
57668334.000	8.951254e-001	4.392874e-001
57674328.000	8.951151e-001	4.392650e-001
57680322.000	8.951592e-001	4.392173e-001
57686316.000	8.951987e-001	4.391763e-001
57692310.000	8.951994e-001	4.391164e-001
57698304.000	8.952111e-001	4.390598e-001
57704298.000	8.952278e-001	4.389946e-001
57710292.000	8.953085e-001	4.389942e-001
57716286.000	8.952957e-001	4.389415e-001
57722280.000	8.953589e-001	4.389247e-001
57728274.000	8.953427e-001	4.388321e-001
57734268.000	8.953883e-001	4.387622e-001
57740262.000	8.953901e-001	4.387260e-001
57746256.000	8.954280e-001	4.386932e-001
57752250.000	8.954498e-001	4.386791e-001
57758244.000	8.953755e-001	4.386216e-001
57764238.000	8.954083e-001	4.385526e-001
57770232.000	8.954712e-001	4.384980e-001
57776226.000	8.955485e-001	4.384780e-001
57782220.000	8.955381e-001	4.383931e-001
57788214.000	8.955644e-001	4.383217e-001
57794208.000	8.955690e-001	4.383095e-001
57800202.000	8.955635e-001	4.382499e-001
57806196.000	8.955992e-001	4.382409e-001
57812190.000	8.956075e-001	4.381735e-001
57818184.000	8.956367e-001	4.381477e-001
57824178.000	8.957433e-001	4.380889e-001
57830172.000	8.956804e-001	4.380712e-001
57836166.000	8.957372e-001	4.379913e-001
57842160.000	8.957455e-001	4.379763e-001
57848154.000	8.957935e-001	4.379713e-001
57854148.000	8.958095e-001	4.379256e-001
57860142.000	8.958174e-001	4.378473e-001
57866136.000	8.958688e-001	4.377711e-001
57872130.000	8.958939e-001	4.377464e-001
57878124.000	8.959258e-001	4.376817e-001
57884118.000	8.959497e-001	4.376925e-001
57890112.000	8.959812e-001	4.376269e-001
57896106.000	8.959817e-001	4.375273e-001
57902100.000	8.960196e-001	4.375465e-001
57908094.000	8.960131e-001	4.374171e-001
57914088.000	8.960059e-001	4.373890e-001
57920082.000	8.960730e-001	4.373150e-001
57926076.000	8.960223e-001	4.373168e-001
57932070.000	8.961081e-001	4.372812e-001
57938064.000	8.961159e-001	4.372635e-001
57944058.000	8.961663e-001	4.371863e-001
57950052.000	8.962139e-001	4.371142e-001
57956046.000	8.962311e-001	4.371107e-001
57962040.000	8.962488e-001	4.370224e-001
57968034.000	8.962456e-001	4.370134e-001
57974028.000	8.962746e-001	4.369516e-001
57980022.000	8.962892e-001	4.368866e-001
57986016.000	8.962845e-001	4.368554e-001
57992010.000	8.963614e-001	4.368033e-001
57998004.000	8.963728e-001	4.367377e-001
58003998.000	8.964317e-001	4.367614e-001
58009992.000	8.963634e-001	4.366292e-001
58015986.000	8.964113e-001	4.366161e-001
58021980.000	8.964695e-001	4.365445e-001
58027974.000	8.965235e-001	4.365195e-001
58033968.000	8.965431e-001	4.364880e-001
58039962.000	8.965420e-001	4.364712e-001
58045956.000	8.965275e-001	4.364198e-001
58051950.000	8.965536e-001	4.363882e-001
58057944.000	8.965771e-001	4.363390e-001
58063938.000	8.966514e-001	4.363032e-001
58069932.000	8.966101e-001	4.362082e-001
58075926.000	8.966522e-001	4.362259e-001
58081920.000	8.966914e-001	4.361051e-001
58087914.000	8.967283e-001	4.361139e-001
58093908.000	8.967567e-001	4.359972e-001
58099902.000	8.967506e-001	4.360012e-001
58105896.000	8.967582e-001	4.359620e-001
58111890.000	8.967751e-001	4.359531e-001
58117884.000	8.967782e-001	4.358531e-001
58123878.000	8.968665e-001	4.358483e-001
58129872.000	8.968761e-001	4.357472e-001
58135866.000	8.968659e-001	4.357060e-001
58141860.000	8.969333e-001	4.356372e-001
58147854.000	8.969978e-001	4.355910e-001
58153848.000	8.969805e-001	4.355934e-001
58159842.000	8.970150e-001	4.355226e-001
58165836.000	8.970515e-001	4.355225e-001
58171830.000	8.970020e-001	4.354665e-001
58177824.000	8.970202e-001	4.354273e-001
58183818.000	8.970471e-001	4.353362e-001
58189812.000	8.971029e-001	4.353104e-001
58195806.000	8.971326e-001	4.352225e-001
58201800.000	8.971067e-001	4.352211e-001
58207794.000	8.971824e-001	4.351619e-001
58213788.000	8.971815e-001	4.351332e-001
58219782.000	8.972347e-001	4.350835e-001
58225776.000	8.972359e-001	4.350633e-001
58231770.000	8.972711e-001	4.349981e-001
58237764.000	8.972815e-001	4.349491e-001
58243758.000	8.972665e-001	4.348707e-001
58249752.000	8.973148e-001	4.348624e-001
58255746.000	8.973334e-001	4.347981e-001
58261740.000	8.973781e-001	4.347599e-001
58267734.000	8.974058e-001	4.347400e-001
58273728.000	8.974265e-001	4.346938e-001
58279722.000	8.974139e-001	4.346895e-001
58285716.000	8.974351e-001	4.346169e-001
58291710.000	8.975182e-001	4.345829e-001
58297704.000	8.974495e-001	4.345087e-001
58303698.000	8.974810e-001	4.344452e-001
58309692.000	8.975416e-001	4.344520e-001
58315686.000	8.975894e-001	4.343960e-001
58321680.000	8.975495e-001	4.343252e-001
58327674.000	8.976368e-001	4.342891e-001
58333668.000	8.976312e-001	4.342356e-001
58339662.000	8.976664e-001	4.341552e-001
58345656.000	8.976746e-001	4.341456e-001
58351650.000	8.976949e-001	4.341221e-001
58357644.000	8.977114e-001	4.340565e-001
58363638.000	8.977295e-001	4.340327e-001
58369632.000	8.977249e-001	4.339483e-001
58375626.000	8.977573e-001	4.339162e-001
58381620.000	8.977913e-001	4.338944e-001
58387614.000	8.978079e-001	4.338335e-001
58393608.000	8.978063e-001	4.338005e-001
58399602.000	8.978504e-001	4.337705e-001
58405596.000	8.979365e-001	4.336906e-001
58411590.000	8.978826e-001	4.337114e-001
58417584.000	8.979510e-001	4.336365e-001
58423578.000	8.979324e-001	4.335747e-001
58429572.000	8.979187e-001	4.334976e-001
58435566.000	8.980020e-001	4.334727e-001
58441560.000	8.980452e-001	4.333828e-001
58447554.000	8.980394e-001	4.333448e-001
58453548.000	8.980607e-001	4.333110e-001
58459542.000	8.980949e-001	4.333048e-001
58465536.000	8.981381e-001	4.332389e-001
58471530.000	8.981781e-001	4.331785e-001
58477524.000	8.981413e-001	4.331706e-001
58483518.000	8.982012e-001	4.330758e-001
58489512.000	8.982017e-001	4.330009e-001
58495506.000	8.981908e-001	4.330094e-001
58501500.000	8.982413e-001	4.329836e-001
58507494.000	8.982711e-001	4.328996e-001
58513488.000	8.983201e-001	4.328613e-001
58519482.000	8.983068e-001	4.328511e-001
58525476.000	8.982849e-001	4.327621e-001
58531470.000	8.983092e-001	4.327427e-001
58537464.000	8.983433e-001	4.327126e-001
58543458.000	8.984149e-001	4.326669e-001
58549452.000	8.984056e-001	4.326499e-001
58555446.000	8.984163e-001	4.325771e-001
58561440.000	8.984168e-001	4.325243e-001
58567434.000	8.984929e-001	4.324707e-001
58573428.000	8.985385e-001	4.324762e-001
58579422.000	8.985032e-001	4.323272e-001
58585416.000	8.985711e-001	4.323436e-001
58591410.000	8.985682e-001	4.322966e-001
58597404.000	8.985857e-001	4.322167e-001
58603398.000	8.985831e-001	4.322024e-001
58609392.000	8.986351e-001	4.321655e-001
58615386.000	8.985960e-001	4.320982e-001
58621380.000	8.986537e-001	4.320613e-001
58627374.000	8.987055e-001	4.320240e-001
58633368.000	8.986989e-001	4.319507e-001
58639362.000	8.987108e-001	4.319293e-001
58645356.000	8.987582e-001	4.318746e-001
58651350.000	8.987830e-001	4.318284e-001
58657344.000	8.987938e-001	4.317778e-001
58663338.000	8.988048e-001	4.317460e-001
58669332.000	8.988198e-001	4.316794e-001
58675326.000	8.988672e-001	4.316471e-001
58681320.000	8.988659e-001	4.315893e-001
58687314.000	8.988864e-001	4.315678e-001
58693308.000	8.988974e-001	4.314316e-001
58699302.000	8.989453e-001	4.314620e-001
58705296.000	8.989934e-001	4.314166e-001
58711290.000	8.989923e-001	4.313445e-001
58717284.000	8.989892e-001	4.313249e-001
58723278.000	8.990092e-001	4.313076e-001
58729272.000	8.990705e-001	4.312179e-001
58735266.000	8.990630e-001	4.311628e-001
58741260.000	8.990857e-001	4.311025e-001
58747254.000	8.990978e-001	4.310842e-001
58753248.000	8.991024e-001	4.310671e-001
58759242.000	8.991355e-001	4.310165e-001
58765236.000	8.991608e-001	4.309980e-001
58771230.000	8.991800e-001	4.309317e-001
58777224.000	8.992467e-001	4.308627e-001
58783218.000	8.992711e-001	4.308002e-001
58789212.000	8.992540e-001	4.308481e-001
58795206.000	8.992942e-001	4.307528e-001
58801200.000	8.993031e-001	4.307576e-001
58807194.000	8.992711e-001	4.306805e-001
58813188.000	8.993518e-001	4.306057e-001
58819182.000	8.993720e-001	4.305413e-001
58825176.000	8.993405e-001	4.304790e-001
58831170.000	8.993657e-001	4.304537e-001
58837164.000	8.994134e-001	4.303827e-001
58843158.000	8.994411e-001	4.304008e-001
58849152.000	8.994722e-001	4.303487e-001
58855146.000	8.994740e-001	4.302440e-001
58861140.000	8.995300e-001	4.302539e-001
58867134.000	8.995716e-001	4.302694e-001
58873128.000	8.995225e-001	4.302115e-001
58879122.000	8.995566e-001	4.301379e-001
58885116.000	8.995850e-001	4.300688e-001
58891110.000	8.995872e-001	4.299678e-001
58897104.000	8.996426e-001	4.300017e-001
58903098.000	8.996488e-001	4.299420e-001
58909092.000	8.996709e-001	4.298829e-001
58915086.000	8.996927e-001	4.298696e-001
58921080.000	8.997260e-001	4.297819e-001
58927074.000	8.997410e-001	4.297728e-001
58933068.000	8.997674e-001	4.297441e-001
58939062.000	8.997972e-001	4.296329e-001
58945056.000	8.998122e-001	4.296007e-001
58951050.000	8.998339e-001	4.295648e-001
58957044.000	8.998253e-001	4.295606e-001
58963038.000	8.998805e-001	4.294743e-001
58969032.000	8.998760e-001	4.294300e-001
58975026.000	8.999543e-001	4.294501e-001
58981020.000	8.999305e-001	4.293861e-001
58987014.000	8.999627e-001	4.293636e-001
58993008.000	8.999470e-001	4.293024e-001
58999002.000	9.000043e-001	4.292208e-001
59004996.000	9.000187e-001	4.292030e-001
59010990.000	9.000248e-001	4.291649e-001
59016984.000	9.000981e-001	4.290841e-001
59022978.000	9.000868e-001	4.290706e-001
59028972.000	9.000974e-001	4.290015e-001
59034966.000	9.001502e-001	4.289748e-001
59040960.000	9.001295e-001	4.289044e-001
59046954.000	9.001523e-001	4.289017e-001
59052948.000	9.001645e-001	4.288218e-001
59058942.000	9.002143e-001	4.288219e-001
59064936.000	9.002071e-001	4.287717e-001
59070930.000	9.002875e-001	4.286820e-001
59076924.000	9.002899e-001	4.287098e-001
59082918.000	9.002987e-001	4.286450e-001
59088912.000	9.003495e-001	4.285568e-001
59094906.000	9.003620e-001	4.285440e-001
59100900.000	9.003983e-001	4.284832e-001
59106894.000	9.003959e-001	4.284704e-001
59112888.000	9.004335e-001	4.283640e-001
59118882.000	9.004429e-001	4.282962e-001
59124876.000	9.004814e-001	4.283220e-001
59130870.000	9.004813e-001	4.282845e-001
59136864.000	9.004960e-001	4.282585e-001
59142858.000	9.005035e-001	4.282093e-001
59148852.000	9.006012e-001	4.281557e-001
59154846.000	9.006237e-001	4.280945e-001
59160840.000	9.005602e-001	4.280297e-001
59166834.000	9.006248e-001	4.279528e-001
59172828.000	9.006605e-001	4.279238e-001
59178822.000	9.006651e-001	4.279004e-001
59184816.000	9.006982e-001	4.278816e-001
59190810.000	9.006753e-001	4.278083e-001
59196804.000	9.006969e-001	4.278089e-001
59202798.000	9.007049e-001	4.277161e-001
59208792.000	9.007348e-001	4.277030e-001
59214786.000	9.007903e-001	4.276707e-001
59220780.000	9.007771e-001	4.276626e-001
59226774.000	9.008255e-001	4.275993e-001
59232768.000	9.007882e-001	4.275088e-001
59238762.000	9.008499e-001	4.274713e-001
59244756.000	9.008625e-001	4.274409e-001
59250750.000	9.008965e-001	4.274037e-001
59256744.000	9.009454e-001	4.273452e-001
59262738.000	9.009504e-001	4.273437e-001
59268732.000	9.009307e-001	4.272832e-001
59274726.000	9.009950e-001	4.271926e-001
59280720.000	9.010172e-001	4.271567e-001
59286714.000	9.010066e-001	4.271030e-001
59292708.000	9.010257e-001	4.270980e-001
59298702.000	9.010315e-001	4.270433e-001
59304696.000	9.011100e-001	4.269624e-001
59310690.000	9.011296e-001	4.269533e-001
59316684.000	9.011561e-001	4.269572e-001
59322678.000	9.011199e-001	4.269042e-001
59328672.000	9.011152e-001	4.267976e-001
59334666.000	9.012129e-001	4.267816e-001
59340660.000	9.012294e-001	4.267316e-001
59346654.000	9.012568e-001	4.266919e-001
59352648.000	9.012585e-001	4.266201e-001
59358642.000	9.012741e-001	4.265996e-001
59364636.000	9.012914e-001	4.265057e-001
59370630.000	9.013111e-001	4.265038e-001
59376624.000	9.013179e-001	4.264860e-001
59382618.000	9.013993e-001	4.264045e-001
59388612.000	9.014143e-001	4.263888e-001
59394606.000	9.014011e-001	4.263397e-001
59400600.000	9.014683e-001	4.262475e-001
59406594.000	9.014597e-001	4.262579e-001
59412588.000	9.014402e-001	4.261737e-001
59418582.000	9.014858e-001	4.261574e-001
59424576.000	9.015107e-001	4.260834e-001
59430570.000	9.015406e-001	4.260471e-001
59436564.000	9.015793e-001	4.259709e-001
59442558.000	9.015989e-001	4.259921e-001
59448552.000	9.016228e-001	4.259502e-001
59454546.000	9.016764e-001	4.259162e-001
59460540.000	9.016610e-001	4.258549e-001
59466534.000	9.017002e-001	4.258188e-001
59472528.000	9.017055e-001	4.257631e-001
59478522.000	9.017200e-001	4.257109e-001
59484516.000	9.017071e-001	4.256545e-001
59490510.000	9.017362e-001	4.256569e-001
59496504.000	9.017848e-001	4.255749e-001
59502498.000	9.018041e-001	4.255756e-001
59508492.000	9.018230e-001	4.254858e-001
59514486.000	9.018235e-001	4.254477e-001
59520480.000	9.018552e-001	4.253784e-001
59526474.000	9.018616e-001	4.253023e-001
59532468.000	9.018771e-001	4.252705e-001
59538462.000	9.019744e-001	4.253048e-001
59544456.000	9.019242e-001	4.252190e-001
59550450.000	9.020079e-001	4.251986e-001
59556444.000	9.019753e-001	4.251665e-001
59562438.000	9.020649e-001	4.251567e-001
59568432.000	9.020120e-001	4.250563e-001
59574426.000	9.020592e-001	4.250178e-001
59580420.000	9.020319e-001	4.249455e-001
59586414.000	9.021267e-001	4.249437e-001
59592408.000	9.020683e-001	4.248819e-001
59598402.000	9.021686e-001	4.248065e-001
59604396.000	9.021443e-001	4.248483e-001
59610390.000	9.021176e-001	4.247497e-001
59616384.000	9.021752e-001	4.247473e-001
59622378.000	9.022045e-001	4.246504e-001
59628372.000	9.021964e-001	4.245990e-001
59634366.000	9.022655e-001	4.245856e-001
59640360.000	9.022778e-001	4.245052e-001
59646354.000	9.022218e-001	4.245053e-001
59652348.000	9.023262e-001	4.244350e-001
59658342.000	9.023241e-001	4.244037e-001
59664336.000	9.022655e-001	4.243666e-001
59670330.000	9.023339e-001	4.243615e-001
59676324.000	9.023428e-001	4.242595e-001
59682318.000	9.024286e-001	4.242204e-001
59688312.000	9.024113e-001	4.241738e-001
59694306.000	9.024403e-001	4.241625e-001
59700300.000	9.024295e-001	4.240411e-001
59706294.000	9.025368e-001	4.240587e-001
59712288.000	9.025131e-001	4.240212e-001
59718282.000	9.025218e-001	4.239745e-001
59724276.000	9.025463e-001	4.239428e-001
59730270.000	9.025558e-001	4.238868e-001
59736264.000	9.025669e-001	4.238104e-001
59742258.000	9.026039e-001	4.237851e-001
59748252.000	9.026872e-001	4.237686e-001
59754246.000	9.026172e-001	4.237004e-001
59760240.000	9.027023e-001	4.236764e-001
59766234.000	9.027087e-001	4.235910e-001
59772228.000	9.027026e-001	4.235658e-001
59778222.000	9.027248e-001	4.234980e-001
59784216.000	9.027647e-001	4.234729e-001
59790210.000	9.027648e-001	4.234071e-001
59796204.000	9.027997e-001	4.233687e-001
59802198.000	9.027577e-001	4.233175e-001
59808192.000	9.028547e-001	4.232686e-001
59814186.000	9.028310e-001	4.232623e-001
59820180.000	9.028709e-001	4.232241e-001
59826174.000	9.028966e-001	4.232246e-001
59832168.000	9.028844e-001	4.231621e-001
59838162.000	9.029338e-001	4.231024e-001
59844156.000	9.029596e-001	4.230256e-001
59850150.000	9.029794e-001	4.230105e-001
59856144.000	9.029604e-001	4.229124e-001
59862138.000	9.030617e-001	4.229435e-001
59868132.000	9.030612e-001	4.228618e-001
59874126.000	9.030679e-001	4.228648e-001
59880120.000	9.030881e-001	4.228069e-001
59886114.000	9.030669e-001	4.227684e-001
59892108.000	9.031399e-001	4.227317e-001
59898102.000	9.031438e-001	4.226584e-001
59904096.000	9.032038e-001	4.226285e-001
59910090.000	9.031946e-001	4.225455e-001
59916084.000	9.031845e-001	4.225142e-001
59922078.000	9.032192e-001	4.224818e-001
59928072.000	9.032335e-001	4.224168e-001
59934066.000	9.032341e-001	4.224281e-001
59940060.000	9.032895e-001	4.223563e-001
59946054.000	9.033053e-001	4.223135e-001
59952048.000	9.033873e-001	4.222569e-001
59958042.000	9.033106e-001	4.222078e-001
59964036.000	9.034155e-001	4.221814e-001
59970030.000	9.034049e-001	4.220935e-001
59976024.000	9.033951e-001	4.220326e-001
59982018.000	9.033870e-001	4.220234e-001
59988012.000	9.035005e-001	4.220000e-001
59994006.000	9.034896e-001	4.219187e-001
60000000.000	9.034985e-001	4.218808e-001
